# el_label, x, y, sXX, sYY, sZZ, sXY
1.000000000000000000e+00 9.702937126159667969e+00 -2.983934059739112854e-02 3.558104038238525391e+00 -1.860432028770446777e+00 5.093016028404235840e-01 -1.517529487609863281e+00
2.000000000000000000e+00 9.504896163940429688e+00 -4.973223432898521423e-02 5.290901184082031250e+00 7.942694425582885742e-01 1.825551152229309082e+00 8.561081290245056152e-01
3.000000000000000000e+00 9.306854248046875000e+00 -6.962513178586959839e-02 3.758105039596557617e+00 -3.244784176349639893e-01 1.030087947845458984e+00 2.041202783584594727e-01
4.000000000000000000e+00 9.108813285827636719e+00 -8.951802551746368408e-02 3.160569667816162109e+00 1.872643828392028809e-01 1.004350185394287109e+00 3.281508684158325195e-01
5.000000000000000000e+00 9.714455604553222656e+00 -8.718428760766983032e-02 1.372817325592041016e+01 -1.649181246757507324e+00 3.623697519302368164e+00 2.128713369369506836e+00
6.000000000000000000e+00 9.524093627929687500e+00 -1.453071534633636475e-01 7.605734348297119141e+00 4.309960007667541504e-01 2.411019086837768555e+00 1.533098220825195312e+00
7.000000000000000000e+00 9.333730697631835938e+00 -2.034300118684768677e-01 6.923877239227294922e+00 7.174023389816284180e-01 2.292383909225463867e+00 1.954219460487365723e+00
8.000000000000000000e+00 9.143367767333984375e+00 -2.615528702735900879e-01 5.603039741516113281e+00 1.688968390226364136e-01 1.731580972671508789e+00 1.374948143959045410e+00
9.000000000000000000e+00 9.736933708190917969e+00 -1.411830335855484009e-01 1.668297767639160156e+01 2.069241046905517578e+00 5.625665664672851562e+00 7.337670326232910156e+00
1.000000000000000000e+01 9.561555862426757812e+00 -2.353050708770751953e-01 1.128506660461425781e+01 1.400081872940063477e+00 3.805544376373291016e+00 4.356476306915283203e+00
1.100000000000000000e+01 9.386178970336914062e+00 -3.294270932674407959e-01 8.512187004089355469e+00 1.695442676544189453e+00 3.062288761138916016e+00 3.529511451721191406e+00
1.200000000000000000e+01 9.210802078247070312e+00 -4.235491156578063965e-01 7.497139453887939453e+00 1.521693587303161621e+00 2.705649852752685547e+00 3.336730003356933594e+00
1.300000000000000000e+01 9.769508361816406250e+00 -1.897630989551544189e-01 1.715887069702148438e+01 7.164674758911132812e+00 7.297063350677490234e+00 1.118406105041503906e+01
1.400000000000000000e+01 9.615847587585449219e+00 -3.162718117237091064e-01 1.202449893951416016e+01 4.560242652893066406e+00 4.975422382354736328e+00 7.297329902648925781e+00
1.500000000000000000e+01 9.462185859680175781e+00 -4.427805542945861816e-01 9.796042442321777344e+00 3.718184471130371094e+00 4.054267883300781250e+00 5.846960067749023438e+00
1.600000000000000000e+01 9.308525085449218750e+00 -5.692892670631408691e-01 8.189886093139648438e+00 3.315784692764282227e+00 3.451701402664184570e+00 4.985676288604736328e+00
1.700000000000000000e+01 9.810929298400878906e+00 -2.310599088668823242e-01 1.532095241546630859e+01 1.341567134857177734e+01 8.620986938476562500e+00 1.334939479827880859e+01
1.800000000000000000e+01 9.684882164001464844e+00 -3.850998580455780029e-01 1.161802864074707031e+01 8.698739051818847656e+00 6.095030307769775391e+00 9.404802322387695312e+00
1.900000000000000000e+01 9.558835029602050781e+00 -5.391398072242736816e-01 9.435958862304687500e+00 6.946689128875732422e+00 4.914794445037841797e+00 7.524406909942626953e+00
2.000000000000000000e+01 9.432787895202636719e+00 -6.931797266006469727e-01 8.101853370666503906e+00 5.957059383392333984e+00 4.217673778533935547e+00 6.582561492919921875e+00
2.100000000000000000e+01 9.859606742858886719e+00 -2.634885013103485107e-01 1.290669822692871094e+01 1.962788200378417969e+01 9.760374069213867188e+00 1.358441925048828125e+01
2.200000000000000000e+01 9.766011238098144531e+00 -4.391474723815917969e-01 1.010567378997802734e+01 1.336537837982177734e+01 7.041315555572509766e+00 1.009533023834228516e+01
2.300000000000000000e+01 9.672415733337402344e+00 -6.148064732551574707e-01 8.423698425292968750e+00 1.072190189361572266e+01 5.743680000305175781e+00 8.411752700805664062e+00
2.400000000000000000e+01 9.578820228576660156e+00 -7.904654741287231445e-01 7.184956073760986328e+00 9.185302734375000000e+00 4.911077976226806641e+00 7.254946708679199219e+00
2.500000000000000000e+01 9.913672447204589844e+00 -2.858042120933532715e-01 1.053240013122558594e+01 2.511273002624511719e+01 1.069353866577148438e+01 1.194863224029541016e+01
2.600000000000000000e+01 9.856121063232421875e+00 -4.763403236865997314e-01 8.533199310302734375e+00 1.779376220703125000e+01 7.898088455200195312e+00 9.503437995910644531e+00
2.700000000000000000e+01 9.798569679260253906e+00 -6.668764352798461914e-01 7.044881820678710938e+00 1.443891239166259766e+01 6.445137977600097656e+00 8.054117202758789062e+00
2.800000000000000000e+01 9.741018295288085938e+00 -8.574125766754150391e-01 6.082228183746337891e+00 1.254755878448486328e+01 5.588935852050781250e+00 7.155057430267333984e+00
2.900000000000000000e+01 9.971052169799804688e+00 -2.971505522727966309e-01 9.169241905212402344e+00 2.919059562683105469e+01 1.150795173645019531e+01 9.041020393371582031e+00
3.000000000000000000e+01 9.951753616333007812e+00 -4.952509105205535889e-01 7.269472599029541016e+00 2.140518951416015625e+01 8.602398872375488281e+00 7.719729423522949219e+00
3.100000000000000000e+01 9.932455062866210938e+00 -6.933512687683105469e-01 5.996741294860839844e+00 1.768080711364746094e+01 7.103264331817626953e+00 6.744295597076416016e+00
3.200000000000000000e+01 9.913155555725097656e+00 -8.914516568183898926e-01 5.131682872772216797e+00 1.527608299255371094e+01 6.122329711914062500e+00 6.025191783905029297e+00
3.300000000000000000e+01 1.002954196929931641e+01 -2.970920503139495850e-01 9.042688369750976562e+00 3.150583839416503906e+01 1.216455841064453125e+01 5.495851039886474609e+00
3.400000000000000000e+01 1.004923725128173828e+01 -4.951534271240234375e-01 6.856131553649902344e+00 2.389340591430664062e+01 9.224861145019531250e+00 5.246656894683837891e+00
3.500000000000000000e+01 1.006893157958984375e+01 -6.932148337364196777e-01 5.563632011413574219e+00 1.990863990783691406e+01 7.641681671142578125e+00 4.697214126586914062e+00
3.600000000000000000e+01 1.008862686157226562e+01 -8.912761807441711426e-01 4.677730560302734375e+00 1.740224647521972656e+01 6.623993396759033203e+00 4.231930255889892578e+00
3.700000000000000000e+01 1.008689880371093750e+01 -2.856309711933135986e-01 1.021764469146728516e+01 3.212711715698242188e+01 1.270342922210693359e+01 2.096407890319824219e+00
3.800000000000000000e+01 1.014483070373535156e+01 -4.760516285896301270e-01 7.426130771636962891e+00 2.504129028320312500e+01 9.740226745605468750e+00 2.552677392959594727e+00
3.900000000000000000e+01 1.020276355743408203e+01 -6.664722561836242676e-01 5.933029174804687500e+00 2.108319282531738281e+01 8.104866981506347656e+00 2.371029138565063477e+00
4.000000000000000000e+01 1.026069545745849609e+01 -8.568928837776184082e-01 5.002109527587890625e+00 1.849318695068359375e+01 7.048588752746582031e+00 2.222854614257812500e+00
4.100000000000000000e+01 1.014091968536376953e+01 -2.632071673870086670e-01 1.244017314910888672e+01 3.139258575439453125e+01 1.314982795715332031e+01 -5.838873982429504395e-01
4.200000000000000000e+01 1.023486614227294922e+01 -4.386786222457885742e-01 8.864598274230957031e+00 2.495185470581054688e+01 1.014493560791015625e+01 1.314579993486404419e-01
4.300000000000000000e+01 1.032881259918212891e+01 -6.141500473022460938e-01 7.153913974761962891e+00 2.118361663818359375e+01 8.501258850097656250e+00 2.818670272827148438e-01
4.400000000000000000e+01 1.042275905609130859e+01 -7.896215319633483887e-01 6.026581764221191406e+00 1.861144638061523438e+01 7.391408443450927734e+00 2.618625462055206299e-01
4.500000000000000000e+01 1.018953227996826172e+01 -2.306813150644302368e-01 1.511493492126464844e+01 2.974110984802246094e+01 1.345681381225585938e+01 -2.240864515304565430e+00
4.600000000000000000e+01 1.031588745117187500e+01 -3.844688534736633301e-01 1.101687717437744141e+01 2.396245193481445312e+01 1.049379920959472656e+01 -1.552166461944580078e+00
4.700000000000000000e+01 1.044224262237548828e+01 -5.382564067840576172e-01 8.936430931091308594e+00 2.036227035522460938e+01 8.789610862731933594e+00 -1.281765580177307129e+00
4.800000000000000000e+01 1.056859779357910156e+01 -6.920439004898071289e-01 7.618672847747802734e+00 1.803013038635253906e+01 7.694640636444091797e+00 -1.130875110626220703e+00
4.900000000000000000e+01 1.023087024688720703e+01 -1.893017292022705078e-01 1.788402557373046875e+01 2.784541702270507812e+01 1.371883296966552734e+01 -2.727591037750244141e+00
5.000000000000000000e+01 1.038478469848632812e+01 -3.155028820037841797e-01 1.335197925567626953e+01 2.234841156005859375e+01 1.071011734008789062e+01 -2.335035085678100586e+00
5.100000000000000000e+01 1.053869819641113281e+01 -4.417040348052978516e-01 1.104295253753662109e+01 1.911279487609863281e+01 9.046724319458007812e+00 -1.989627599716186523e+00
5.200000000000000000e+01 1.069261169433593750e+01 -5.679051876068115234e-01 9.454763412475585938e+00 1.684610366821289062e+01 7.890259742736816406e+00 -1.814479470252990723e+00
5.300000000000000000e+01 1.026334762573242188e+01 -1.406566202640533447e-01 2.017385101318359375e+01 2.596776580810546875e+01 1.384248542785644531e+01 -2.234954595565795898e+00
5.400000000000000000e+01 1.043891334533691406e+01 -2.344277054071426392e-01 1.554901218414306641e+01 2.075674438476562500e+01 1.089172649383544922e+01 -2.094508171081542969e+00
5.500000000000000000e+01 1.061447906494140625e+01 -3.281987905502319336e-01 1.295312023162841797e+01 1.764011573791503906e+01 9.177970886230468750e+00 -1.852931380271911621e+00
5.600000000000000000e+01 1.079004383087158203e+01 -4.219698905944824219e-01 1.126369476318359375e+01 1.567089843750000000e+01 8.080377578735351562e+00 -1.694086670875549316e+00
5.700000000000000000e+01 1.028571796417236328e+01 -8.661302924156188965e-02 2.178253936767578125e+01 2.463852119445800781e+01 1.392631816864013672e+01 -9.516463279724121094e-01
5.800000000000000000e+01 1.047619628906250000e+01 -1.443550437688827515e-01 1.709014129638671875e+01 1.941349029541015625e+01 1.095108985900878906e+01 -1.025031447410583496e+00
5.900000000000000000e+01 1.066667461395263672e+01 -2.020970582962036133e-01 1.437635040283203125e+01 1.652845573425292969e+01 9.271441459655761719e+00 -9.531991481781005859e-01
6.000000000000000000e+01 1.085715293884277344e+01 -2.598390877246856689e-01 1.253660774230957031e+01 1.462795257568359375e+01 8.149368286132812500e+00 -8.664929270744323730e-01
6.100000000000000000e+01 1.029712104797363281e+01 -2.924515865743160248e-02 2.243311691284179688e+01 2.390490150451660156e+01 1.390140533447265625e+01 8.040490746498107910e-01
6.200000000000000000e+01 1.049520206451416016e+01 -4.874193295836448669e-02 1.775262260437011719e+01 1.877742385864257812e+01 1.095901393890380859e+01 5.983147621154785156e-01
6.300000000000000000e+01 1.069328308105468750e+01 -6.823870539665222168e-02 1.491890716552734375e+01 1.595394325256347656e+01 9.261855125427246094e+00 4.342001974582672119e-01
6.400000000000000000e+01 1.089136409759521484e+01 -8.773547410964965820e-02 1.310359859466552734e+01 1.405108165740966797e+01 8.146404266357421875e+00 3.939412236213684082e-01
6.500000000000000000e+01 1.029712104797363281e+01 2.924515865743160248e-02 2.205999374389648438e+01 2.397242355346679688e+01 1.380972480773925781e+01 2.723941802978515625e+00
6.600000000000000000e+01 1.049520206451416016e+01 4.874193295836448669e-02 1.733285140991210938e+01 1.892046165466308594e+01 1.087599372863769531e+01 2.354933500289916992e+00
6.700000000000000000e+01 1.069328308105468750e+01 6.823870539665222168e-02 1.452675914764404297e+01 1.611205673217773438e+01 9.191644668579101562e+00 1.989601254463195801e+00
6.800000000000000000e+01 1.089136409759521484e+01 8.773547410964965820e-02 1.269087886810302734e+01 1.414430427551269531e+01 8.050555229187011719e+00 1.705822944641113281e+00
6.900000000000000000e+01 1.028571796417236328e+01 8.661302924156188965e-02 2.063372230529785156e+01 2.485375022888183594e+01 1.364624214172363281e+01 4.458904743194580078e+00
7.000000000000000000e+01 1.047619628906250000e+01 1.443550437688827515e-01 1.586379528045654297e+01 1.982397460937500000e+01 1.070633125305175781e+01 3.837226152420043945e+00
7.100000000000000000e+01 1.066667461395263672e+01 2.020970582962036133e-01 1.322968292236328125e+01 1.695293998718261719e+01 9.054786682128906250e+00 3.264642953872680664e+00
7.200000000000000000e+01 1.085715293884277344e+01 2.598390877246856689e-01 1.144171619415283203e+01 1.492849063873291016e+01 7.911062240600585938e+00 2.868158102035522461e+00
7.300000000000000000e+01 1.026334762573242188e+01 1.406566202640533447e-01 1.820045852661132812e+01 2.638105010986328125e+01 1.337445259094238281e+01 5.657358169555664062e+00
7.400000000000000000e+01 1.043891334533691406e+01 2.344277054071426392e-01 1.358574581146240234e+01 2.135191345214843750e+01 1.048129749298095703e+01 4.637021064758300781e+00
7.500000000000000000e+01 1.061447906494140625e+01 3.281987905502319336e-01 1.117006683349609375e+01 1.822085189819335938e+01 8.817275047302246094e+00 3.945545434951782227e+00
7.600000000000000000e+01 1.079004383087158203e+01 4.219698905944824219e-01 9.699690818786621094e+00 1.617230987548828125e+01 7.761600017547607422e+00 3.459815979003906250e+00
7.700000000000000000e+01 1.023087024688720703e+01 1.893017292022705078e-01 1.505576992034912109e+01 2.840596580505371094e+01 1.303852081298828125e+01 5.922359943389892578e+00
7.800000000000000000e+01 1.038478469848632812e+01 3.155028820037841797e-01 1.079379749298095703e+01 2.304154777526855469e+01 1.015060329437255859e+01 4.532312393188476562e+00
7.900000000000000000e+01 1.053869819641113281e+01 4.417040348052978516e-01 8.764679908752441406e+00 1.970059204101562500e+01 8.539581298828125000e+00 3.773618221282958984e+00
8.000000000000000000e+01 1.069261169433593750e+01 5.679051876068115234e-01 7.457266330718994141e+00 1.745204734802246094e+01 7.472794055938720703e+00 3.242800951004028320e+00
8.100000000000000000e+01 1.018953227996826172e+01 2.306813150644302368e-01 1.154843139648437500e+01 3.048078155517578125e+01 1.260876369476318359e+01 5.012021064758300781e+00
8.200000000000000000e+01 1.031588745117187500e+01 3.844688534736633301e-01 7.974151611328125000e+00 2.448249435424804688e+01 9.736993789672851562e+00 3.403323888778686523e+00
8.300000000000000000e+01 1.044224262237548828e+01 5.382564067840576172e-01 6.347845554351806641e+00 2.092118072509765625e+01 8.180707931518554688e+00 2.700445890426635742e+00
8.400000000000000000e+01 1.056859779357910156e+01 6.920439004898071289e-01 5.208072662353515625e+00 1.853950119018554688e+01 7.124271869659423828e+00 2.303500652313232422e+00
8.500000000000000000e+01 1.014091968536376953e+01 2.632071673870086670e-01 8.187433242797851562e+00 3.196743392944335938e+01 1.204646015167236328e+01 2.874017477035522461e+00
8.600000000000000000e+01 1.023486614227294922e+01 4.386786222457885742e-01 5.616639614105224609e+00 2.527481079101562500e+01 9.267435073852539062e+00 1.328687906265258789e+00
8.700000000000000000e+01 1.032881259918212891e+01 6.141500473022460938e-01 4.254028797149658203e+00 2.144427871704101562e+01 7.709492206573486328e+00 9.017691016197204590e-01
8.800000000000000000e+01 1.042275905609130859e+01 7.896215319633483887e-01 3.524868726730346680e+00 1.899866676330566406e+01 6.757060527801513672e+00 6.877684593200683594e-01
8.900000000000000000e+01 1.008689880371093750e+01 2.856309711933135986e-01 5.704552173614501953e+00 3.239903259277343750e+01 1.143107509613037109e+01 -3.565790951251983643e-01
9.000000000000000000e+01 1.014483070373535156e+01 4.760516285896301270e-01 3.918728590011596680e+00 2.493519401550292969e+01 8.656176567077636719e+00 -1.314295172691345215e+00
9.100000000000000000e+01 1.020276355743408203e+01 6.664722561836242676e-01 3.002117395401000977e+00 2.104121780395507812e+01 7.213000774383544922e+00 -1.395013213157653809e+00
9.200000000000000000e+01 1.026069545745849609e+01 8.568928837776184082e-01 2.345470905303955078e+00 1.847163391113281250e+01 6.245131492614746094e+00 -1.373721837997436523e+00
9.300000000000000000e+01 1.002954196929931641e+01 2.970920503139495850e-01 4.329322338104248047e+00 3.115181922912597656e+01 1.064434242248535156e+01 -4.122850894927978516e+00
9.400000000000000000e+01 1.004923725128173828e+01 4.951534271240234375e-01 3.311506032943725586e+00 2.337909507751464844e+01 8.007180213928222656e+00 -4.127176761627197266e+00
9.500000000000000000e+01 1.006893157958984375e+01 6.932148337364196777e-01 2.496839761734008789e+00 1.944375801086425781e+01 6.582179069519042969e+00 -3.764138698577880859e+00
9.600000000000000000e+01 1.008862686157226562e+01 8.912761807441711426e-01 2.004673957824707031e+00 1.702995109558105469e+01 5.710387229919433594e+00 -3.452268123626708984e+00
9.700000000000000000e+01 9.971052169799804688e+00 2.971505522727966309e-01 4.497268676757812500e+00 2.816483879089355469e+01 9.798632621765136719e+00 -7.783640861511230469e+00
9.800000000000000000e+01 9.951753616333007812e+00 4.952509105205535889e-01 3.552618980407714844e+00 2.044599151611328125e+01 7.199583053588867188e+00 -6.543216705322265625e+00
9.900000000000000000e+01 9.932455062866210938e+00 6.933512687683105469e-01 2.867790937423706055e+00 1.687236595153808594e+01 5.922047138214111328e+00 -5.765054225921630859e+00
1.000000000000000000e+02 9.913155555725097656e+00 8.914516568183898926e-01 2.331528186798095703e+00 1.459218025207519531e+01 5.077112674713134766e+00 -5.138290405273437500e+00
1.010000000000000000e+02 9.913672447204589844e+00 2.858042120933532715e-01 5.712131500244140625e+00 2.345188522338867188e+01 8.749204635620117188e+00 -1.048066806793212891e+01
1.020000000000000000e+02 9.856121063232421875e+00 4.763403236865997314e-01 4.658866405487060547e+00 1.654379844665527344e+01 6.360799789428710938e+00 -8.178877830505371094e+00
1.030000000000000000e+02 9.798569679260253906e+00 6.668764352798461914e-01 3.673169851303100586e+00 1.336186122894287109e+01 5.110509395599365234e+00 -6.902506351470947266e+00
1.040000000000000000e+02 9.741018295288085938e+00 8.574125766754150391e-01 3.169044256210327148e+00 1.159487342834472656e+01 4.429175376892089844e+00 -6.122029304504394531e+00
1.050000000000000000e+02 9.859606742858886719e+00 2.634885013103485107e-01 7.815166473388671875e+00 1.764689445495605469e+01 7.638617992401123047e+00 -1.168980121612548828e+01
1.060000000000000000e+02 9.766011238098144531e+00 4.391474723815917969e-01 5.788291931152343750e+00 1.197195720672607422e+01 5.328074932098388672e+00 -8.569005012512207031e+00
1.070000000000000000e+02 9.672415733337402344e+00 6.148064732551574707e-01 4.827398777008056641e+00 9.536232948303222656e+00 4.309089660644531250e+00 -7.074263572692871094e+00
1.080000000000000000e+02 9.578820228576660156e+00 7.904654741287231445e-01 3.914510488510131836e+00 8.100212097167968750e+00 3.604416847229003906e+00 -6.064876079559326172e+00
1.090000000000000000e+02 9.810929298400878906e+00 2.310599088668823242e-01 9.481014251708984375e+00 1.146874713897705078e+01 6.284928798675537109e+00 -1.101693820953369141e+01
1.100000000000000000e+02 9.684882164001464844e+00 3.850998580455780029e-01 6.809651374816894531e+00 7.377016544342041016e+00 4.256000518798828125e+00 -7.697015762329101562e+00
1.110000000000000000e+02 9.558835029602050781e+00 5.391398072242736816e-01 5.341660976409912109e+00 5.808264255523681641e+00 3.344977617263793945e+00 -6.070947170257568359e+00
1.120000000000000000e+02 9.432787895202636719e+00 6.931797266006469727e-01 4.515732288360595703e+00 4.990691661834716797e+00 2.851927280426025391e+00 -5.277431488037109375e+00
1.130000000000000000e+02 9.769508361816406250e+00 1.897630989551544189e-01 1.029784774780273438e+01 5.661486148834228516e+00 4.787800312042236328e+00 -8.599635124206542969e+00
1.140000000000000000e+02 9.615847587585449219e+00 3.162718117237091064e-01 6.514708995819091797e+00 3.448543310165405273e+00 2.988975763320922852e+00 -5.560043811798095703e+00
1.150000000000000000e+02 9.462185859680175781e+00 4.427805542945861816e-01 5.154881954193115234e+00 2.792690277099609375e+00 2.384271621704101562e+00 -4.361357212066650391e+00
1.160000000000000000e+02 9.308525085449218750e+00 5.692892670631408691e-01 4.079874038696289062e+00 2.639997959136962891e+00 2.015961647033691406e+00 -3.664126157760620117e+00
1.170000000000000000e+02 9.736933708190917969e+00 1.411830335855484009e-01 8.589837074279785156e+00 1.224552392959594727e+00 2.944316864013671875e+00 -4.902288436889648438e+00
1.180000000000000000e+02 9.561555862426757812e+00 2.353050708770751953e-01 5.022623062133789062e+00 5.843151211738586426e-01 1.682081460952758789e+00 -2.768185853958129883e+00
1.190000000000000000e+02 9.386178970336914062e+00 3.294270932674407959e-01 3.219829320907592773e+00 1.112136363983154297e+00 1.299589753150939941e+00 -2.187563419342041016e+00
1.200000000000000000e+02 9.210802078247070312e+00 4.235491156578063965e-01 2.846103429794311523e+00 1.106582641601562500e+00 1.185805797576904297e+00 -2.115246534347534180e+00
1.210000000000000000e+02 9.714455604553222656e+00 8.718428760766983032e-02 4.413184642791748047e+00 -1.914157986640930176e+00 7.497079372406005859e-01 -3.122796118259429932e-01
1.220000000000000000e+02 9.524093627929687500e+00 1.453071534633636475e-01 5.947434306144714355e-01 -2.663017623126506805e-02 1.704339832067489624e-01 -3.025104701519012451e-01
1.230000000000000000e+02 9.333730697631835938e+00 2.034300118684768677e-01 9.873532056808471680e-01 4.647248983383178711e-01 4.356234371662139893e-01 -9.590194225311279297e-01
1.240000000000000000e+02 9.143367767333984375e+00 2.615528702735900879e-01 4.622715413570404053e-01 2.302030660212039948e-02 1.455875635147094727e-01 -5.207803845405578613e-01
1.250000000000000000e+02 9.702937126159667969e+00 2.983934059739112854e-02 -6.865043640136718750e+00 -1.779461622238159180e+00 -2.593351602554321289e+00 2.315286636352539062e+00
1.260000000000000000e+02 9.504896163940429688e+00 4.973223432898521423e-02 -2.375853300094604492e+00 6.198697686195373535e-01 -5.267950296401977539e-01 -2.623583674430847168e-01
1.270000000000000000e+02 9.306854248046875000e+00 6.962513178586959839e-02 -2.569304704666137695e+00 -2.916311323642730713e-01 -8.582807779312133789e-01 1.878980696201324463e-01
1.280000000000000000e+02 9.108813285827636719e+00 8.951802551746368408e-02 -2.381676435470581055e+00 1.319345533847808838e-01 -6.749225854873657227e-01 3.600360825657844543e-02
1.290000000000000000e+02 1.158342361450195312e-01 -9.552106857299804688e-01 -8.471705950796604156e-03 -7.921690493822097778e-02 -2.630658261477947235e-02 -2.197392657399177551e-02
1.300000000000000000e+02 9.452310949563980103e-02 -5.196542143821716309e-01 -8.933072909712791443e-03 -2.037104964256286621e-02 -8.791236206889152527e-03 -1.262966915965080261e-02
1.310000000000000000e+02 8.047272264957427979e-02 -3.348883092403411865e-01 1.184642780572175980e-03 1.466625253669917583e-04 3.993916034232825041e-04 6.101265898905694485e-04
1.320000000000000000e+02 6.704595088958740234e-01 -1.189597725868225098e+00 -8.553612977266311646e-03 -4.755581542849540710e-02 -1.683282852172851562e-02 -8.445069938898086548e-02
1.330000000000000000e+02 4.989198446273803711e-01 -1.392871141433715820e+00 -2.106485888361930847e-02 -7.247835397720336914e-02 -2.806296385824680328e-02 -6.922669708728790283e-02
1.340000000000000000e+02 6.919136643409729004e-01 -1.388064265251159668e+00 -8.270726539194583893e-03 -6.573617458343505859e-02 -2.220207080245018005e-02 -7.374659180641174316e-02
1.350000000000000000e+02 2.494502544403076172e+00 -1.354987144470214844e+00 1.220530271530151367e-01 8.258108794689178467e-02 6.139023229479789734e-02 5.765960551798343658e-03
1.360000000000000000e+02 2.919969081878662109e+00 -1.376239299774169922e+00 2.086514085531234741e-01 9.940703213214874268e-02 9.241753071546554565e-02 5.931435525417327881e-02
1.370000000000000000e+02 2.470916032791137695e+00 -1.059127449989318848e+00 3.079293668270111084e-02 5.048418417572975159e-02 2.438313700258731842e-02 -3.794142603874206543e-02
1.380000000000000000e+02 2.876306295394897461e+00 -9.978117346763610840e-01 3.977500647306442261e-02 5.180981382727622986e-02 2.747544646263122559e-02 -4.702208098024129868e-03
1.390000000000000000e+02 2.802544832229614258e+00 -6.208453774452209473e-01 -1.256593316793441772e-01 1.953449659049510956e-02 -3.183744847774505615e-02 -3.289317712187767029e-02
1.400000000000000000e+02 3.299050569534301758e+00 -1.486306041479110718e-01 -4.194239974021911621e-01 2.772630658000707626e-03 -1.249954104423522949e-01 -8.576047606766223907e-03
1.410000000000000000e+02 3.092912435531616211e+00 -1.450943201780319214e-01 -4.085951745510101318e-01 -1.779875892680138350e-04 -1.226319521665573120e-01 -1.066257059574127197e-02
1.420000000000000000e+02 3.699659109115600586e+00 -1.269613206386566162e-01 -4.276686012744903564e-01 -1.451430143788456917e-03 -1.287360191345214844e-01 -3.089241450652480125e-03
1.430000000000000000e+02 3.894185304641723633e+00 -1.247326359152793884e-01 -4.244459867477416992e-01 6.201212294399738312e-03 -1.254734247922897339e-01 1.451933174394071102e-03
1.440000000000000000e+02 5.521253585815429688e+00 -1.368425250053405762e+00 1.168018698692321777e+00 2.096674740314483643e-01 4.133058488368988037e-01 6.257426142692565918e-01
1.450000000000000000e+02 5.718832492828369141e+00 -1.378246426582336426e+00 1.288995385169982910e+00 2.223109900951385498e-01 4.533919095993041992e-01 6.895514726638793945e-01
1.460000000000000000e+02 5.892667293548583984e+00 -1.387828886508941650e-01 -9.377950429916381836e-02 4.780734423547983170e-03 -2.669963054358959198e-02 4.160325974225997925e-02
1.470000000000000000e+02 5.484801769256591797e+00 -1.456770151853561401e-01 -2.108947783708572388e-01 7.997597567737102509e-03 -6.086915731430053711e-02 3.356763720512390137e-02
1.480000000000000000e+02 6.314941406250000000e+00 -1.399257540702819824e+00 1.792986154556274414e+00 3.529601395130157471e-01 6.437838673591613770e-01 9.968685507774353027e-01
1.490000000000000000e+02 6.297612190246582031e+00 -1.303483098745346069e-01 4.696562513709068298e-02 7.499472703784704208e-03 1.633952930569648743e-02 4.823712259531021118e-02
1.500000000000000000e+02 6.114730358123779297e+00 -1.392511487007141113e+00 1.626479506492614746e+00 2.564467787742614746e-01 5.648778676986694336e-01 8.652380704879760742e-01
1.510000000000000000e+02 6.672454357147216797e+00 -1.408431291580200195e+00 2.118667364120483398e+00 4.413580000400543213e-01 7.680076360702514648e-01 1.192577958106994629e+00
1.520000000000000000e+02 7.689256191253662109e+00 -1.350958108901977539e+00 3.399095058441162109e+00 9.217526316642761230e-01 1.296254277229309082e+00 2.035691499710083008e+00
1.530000000000000000e+02 8.410909652709960938e+00 -3.483122587203979492e-01 2.979018211364746094e+00 1.027146428823471069e-01 9.245198369026184082e-01 7.714968323707580566e-01
1.540000000000000000e+02 8.302818298339843750e+00 -1.324055194854736328e+00 4.394128322601318359e+00 1.789367318153381348e+00 1.855048656463623047e+00 3.058242559432983398e+00
1.550000000000000000e+02 9.688844680786132812e+00 -1.044457077980041504e+00 5.376065731048583984e+00 1.123744010925292969e+01 4.984051704406738281e+00 6.429355621337890625e+00
1.560000000000000000e+02 1.025903892517089844e+01 -1.133519649505615234e+00 4.029663562774658203e+00 1.591226005554199219e+01 5.982576847076416016e+00 2.678710937500000000e+00
1.570000000000000000e+02 1.073481464385986328e+01 -1.144141316413879395e+00 4.988594055175781250e+00 1.486424446105957031e+01 5.955851554870605469e+00 -2.698832154273986816e-01
1.580000000000000000e+02 1.108393096923828125e+01 -2.791437804698944092e-01 1.120505809783935547e+01 1.297409057617187500e+01 7.253744602203369141e+00 -7.375414967536926270e-01
1.590000000000000000e+02 1.110609245300292969e+01 -8.639926463365554810e-02 1.167308139801025391e+01 1.270012378692626953e+01 7.311961650848388672e+00 3.943896591663360596e-01
1.600000000000000000e+02 1.125073242187500000e+01 3.355023860931396484e-01 9.494561195373535156e+00 1.220692253112792969e+01 6.510445117950439453e+00 2.150692224502563477e+00
1.610000000000000000e+02 1.096120643615722656e+01 5.763402581214904785e-01 8.004175186157226562e+00 1.477635002136230469e+01 6.834157466888427734e+00 3.040854454040527344e+00
1.620000000000000000e+02 1.065928459167480469e+01 8.806247115135192871e-01 4.067425251007080078e+00 1.691824722290039062e+01 6.295701503753662109e+00 1.673792958259582520e+00
1.630000000000000000e+02 9.162257194519042969e+00 1.101857781410217285e+00 3.220196008682250977e+00 4.315844058990478516e+00 2.260812044143676758e+00 -4.176788806915283203e+00
1.640000000000000000e+02 8.909451484680175781e+00 1.364026308059692383e+00 2.652076244354248047e+00 3.680627107620239258e+00 1.899810910224914551e+00 -3.585663795471191406e+00
1.650000000000000000e+02 8.948912620544433594e+00 3.158051371574401855e-01 2.621736228466033936e-01 1.863302886486053467e-01 1.345511674880981445e-01 -5.804584622383117676e-01
1.660000000000000000e+02 8.910804748535156250e+00 1.078275069594383240e-01 -2.339092731475830078e+00 -8.772018551826477051e-02 -7.280439138412475586e-01 5.649443715810775757e-02
1.670000000000000000e+02 8.536369323730468750e+00 3.947198987007141113e-01 -3.155633807182312012e-01 1.630904823541641235e-01 -4.574186727404594421e-02 -3.549575805664062500e-01
1.680000000000000000e+02 9.712758064270019531e+00 1.387733101844787598e+00 1.922251939773559570e+00 1.031062221527099609e+01 3.669862270355224609e+00 -4.591652870178222656e+00
1.690000000000000000e+02 9.905720710754394531e+00 1.375819563865661621e+00 1.460036754608154297e+00 1.186975383758544922e+01 3.998937129974365234e+00 -3.966614961624145508e+00
1.700000000000000000e+02 8.702444076538085938e+00 1.370556354522705078e+00 2.573471069335937500e+00 2.682562112808227539e+00 1.576810002326965332e+00 -3.028657913208007812e+00
1.710000000000000000e+02 8.508754730224609375e+00 1.347165107727050781e-01 -2.304794549942016602e+00 -1.900039985775947571e-02 -6.971384882926940918e-01 3.211364150047302246e-02
1.720000000000000000e+02 8.101596832275390625e+00 1.356433868408203125e+00 1.723602771759033203e+00 1.187331318855285645e+00 8.732802271842956543e-01 -1.632615685462951660e+00
1.730000000000000000e+02 8.103774070739746094e+00 1.460121721029281616e-01 -2.292831659317016602e+00 -2.895650267601013184e-02 -6.965364813804626465e-01 1.317593269050121307e-02
1.740000000000000000e+02 5.695895671844482422e+00 1.386821031570434570e+00 -9.354470670223236084e-02 1.202863752841949463e-01 8.022500202059745789e-03 5.994570255279541016e-02
1.750000000000000000e+02 5.114307403564453125e+00 1.096266388893127441e+00 -4.732359647750854492e-01 3.662672638893127441e-02 -1.309827715158462524e-01 2.094363570213317871e-01
1.760000000000000000e+02 5.508736133575439453e+00 1.152617573738098145e+00 -3.784849941730499268e-01 6.396325677633285522e-02 -9.435652196407318115e-02 1.539418846368789673e-01
1.770000000000000000e+02 3.705371618270874023e+00 1.385451078414916992e+00 -2.665092945098876953e-01 1.079456415027379990e-02 -7.671441882848739624e-02 3.155211508274078369e-01
1.780000000000000000e+02 3.707933187484741211e+00 1.598374396562576294e-01 -9.433969855308532715e-01 3.852199879474937916e-04 -2.829035222530364990e-01 6.739723682403564453e-02
1.790000000000000000e+02 4.129785537719726562e+00 8.771088123321533203e-01 -6.062696576118469238e-01 1.143354829400777817e-02 -1.784508228302001953e-01 2.611079812049865723e-01
1.800000000000000000e+02 3.529339075088500977e+00 6.908538937568664551e-01 -6.028047204017639160e-01 -5.729779601097106934e-03 -1.825603544712066650e-01 2.212339788675308228e-01
1.810000000000000000e+02 3.317279100418090820e+00 1.370108008384704590e+00 -2.600387036800384521e-01 -5.499234423041343689e-03 -7.966137677431106567e-02 3.228473067283630371e-01
1.820000000000000000e+02 3.117893695831298828e+00 1.336868524551391602e+00 -2.623275518417358398e-01 -1.581394672393798828e-02 -8.344244956970214844e-02 3.195740282535552979e-01
1.830000000000000000e+02 3.043033838272094727e+00 8.875674605369567871e-01 -4.153845012187957764e-01 -1.264077797532081604e-02 -1.284075826406478882e-01 2.662392258644104004e-01
1.840000000000000000e+02 2.487853288650512695e+00 1.092489838600158691e+00 -2.664600908756256104e-01 -3.575668111443519592e-02 -9.066502749919891357e-02 2.816261947154998779e-01
1.850000000000000000e+02 2.895749568939208984e+00 1.686940938234329224e-01 -6.206820011138916016e-01 1.286121550947427750e-04 -1.861660182476043701e-01 6.015273556113243103e-02
1.860000000000000000e+02 2.300387144088745117e+00 1.371603012084960938e+00 -1.786423325538635254e-01 -5.528391897678375244e-02 -7.017787545919418335e-02 3.091037571430206299e-01
1.870000000000000000e+02 9.027634263038635254e-01 1.380576014518737793e+00 -5.557265505194664001e-02 -1.271214336156845093e-01 -5.480822920799255371e-02 1.750747114419937134e-01
1.880000000000000000e+02 7.064817547798156738e-01 1.379356741905212402e+00 -3.216009587049484253e-02 -1.711314767599105835e-01 -6.098747253417968750e-02 1.411443948745727539e-01
1.890000000000000000e+02 5.074881911277770996e-01 1.412107199430465698e-01 -5.004195030778646469e-03 -5.633382592350244522e-03 -3.191273193806409836e-03 6.528113037347793579e-03
1.900000000000000000e+02 1.111962795257568359e+00 1.164401471614837646e-01 -5.873830989003181458e-02 -6.080542691051959991e-03 -1.944565586745738983e-02 1.660099439322948456e-02
1.910000000000000000e+02 3.042126297950744629e-01 1.387158036231994629e+00 -1.233363430947065353e-02 -1.793626844882965088e-01 -5.750889703631401062e-02 7.360792905092239380e-02
1.920000000000000000e+02 1.001381948590278625e-01 9.661881327629089355e-01 -7.379748392850160599e-03 -3.910275176167488098e-02 -1.394474972039461136e-02 1.402497198432683945e-02
1.930000000000000000e+02 9.696643054485321045e-02 7.573472261428833008e-01 1.641742652282118797e-03 -1.550616603344678879e-02 -4.159327130764722824e-03 7.301171775907278061e-03
1.940000000000000000e+02 9.930790960788726807e-02 3.400205671787261963e-01 -6.884721806272864342e-04 1.983965281397104263e-03 3.886478953063488007e-04 -6.147616659291088581e-04
1.950000000000000000e+02 9.669021517038345337e-02 5.493029952049255371e-01 -4.143428988754749298e-03 -2.322461223229765892e-03 -1.939767156727612019e-03 4.604410380125045776e-03
1.960000000000000000e+02 3.021513521671295166e-01 1.321522593498229980e-01 6.860147113911807537e-04 -1.711191493086516857e-03 -3.075530403293669224e-04 4.476029425859451294e-04
1.970000000000000000e+02 9.223401546478271484e-01 1.477951705455780029e-01 -3.555896133184432983e-02 -4.714778333436697721e-04 -1.080913189798593521e-02 1.234002318233251572e-02
1.980000000000000000e+02 1.470306277275085449e+00 1.393156498670578003e-01 -1.558874845504760742e-01 -8.094055578112602234e-03 -4.919445887207984924e-02 3.124610334634780884e-02
1.990000000000000000e+02 1.504559159278869629e+00 1.359539151191711426e+00 -1.036329120397567749e-01 -1.022972166538238525e-01 -6.177903711795806885e-02 2.369930893182754517e-01
2.000000000000000000e+02 1.882001399993896484e+00 1.690664887428283691e-01 -2.724451720714569092e-01 -2.554632024839520454e-03 -8.249994367361068726e-02 4.794219136238098145e-02
2.010000000000000000e+02 1.675266385078430176e+00 1.561140567064285278e-01 -2.122215032577514648e-01 -7.185617461800575256e-03 -6.582213938236236572e-02 4.227339103817939758e-02
2.020000000000000000e+02 2.088147163391113281e+00 1.728044748306274414e-01 -3.320940136909484863e-01 -1.510502188466489315e-03 -1.000813543796539307e-01 5.001165345311164856e-02
2.030000000000000000e+02 1.910987615585327148e+00 1.378558754920959473e+00 -1.410657912492752075e-01 -7.858052104711532593e-02 -6.589389592409133911e-02 2.769329845905303955e-01
2.040000000000000000e+02 3.938179492950439453e+00 4.657450318336486816e-01 -8.362169265747070312e-01 -4.748732317239046097e-03 -2.522897124290466309e-01 1.696237027645111084e-01
2.050000000000000000e+02 4.308200359344482422e+00 1.459887772798538208e-01 -1.193852663040161133e+00 6.425752770155668259e-03 -3.562280535697937012e-01 6.248632073402404785e-02
2.060000000000000000e+02 5.096124649047851562e+00 1.248127669095993042e-01 -1.520665526390075684e+00 5.114258266985416412e-03 -4.546653628349304199e-01 5.205347388982772827e-02
2.070000000000000000e+02 6.690669059753417969e+00 1.378771901130676270e+00 3.236036598682403564e-01 2.858674824237823486e-01 1.828413456678390503e-01 -2.670238614082336426e-01
2.080000000000000000e+02 7.113923072814941406e+00 3.806204199790954590e-01 -1.464170336723327637e+00 8.311314508318901062e-03 -4.367577135562896729e-01 5.936792492866516113e-02
2.090000000000000000e+02 7.700154304504394531e+00 1.426025778055191040e-01 -2.269730091094970703e+00 -1.937826722860336304e-02 -6.867324709892272949e-01 4.322798922657966614e-02
2.100000000000000000e+02 7.701015472412109375e+00 6.891489624977111816e-01 -2.587220668792724609e-01 1.104211732745170593e-01 -4.449026659131050110e-02 -2.394779175519943237e-01
2.110000000000000000e+02 9.123010635375976562e+00 7.135878205299377441e-01 3.447580575942993164e+00 2.253084421157836914e+00 1.710199475288391113e+00 -3.259114742279052734e+00
2.120000000000000000e+02 9.280339241027832031e+00 8.688903450965881348e-01 3.735054254531860352e+00 4.343974590301513672e+00 2.423708677291870117e+00 -4.452333450317382812e+00
2.130000000000000000e+02 1.029301166534423828e+01 1.328771829605102539e+00 1.409187674522399902e+00 1.462084388732910156e+01 4.809009552001953125e+00 -1.917409420013427734e+00
2.140000000000000000e+02 1.085127162933349609e+01 -7.153082489967346191e-01 8.302224159240722656e+00 1.524218463897705078e+01 7.063322544097900391e+00 -1.668407678604125977e+00
2.150000000000000000e+02 1.038669395446777344e+01 -1.044695854187011719e+00 4.493341445922851562e+00 1.670778846740722656e+01 6.360339164733886719e+00 1.581657290458679199e+00
2.160000000000000000e+02 1.023865318298339844e+01 -1.373344063758850098e+00 3.414278984069824219e+00 1.413558101654052734e+01 5.264957904815673828e+00 3.008725166320800781e+00
2.170000000000000000e+02 8.705793380737304688e+00 -4.061450958251953125e-01 4.331543445587158203e+00 3.718858659267425537e-01 1.411028742790222168e+00 1.329465985298156738e+00
2.180000000000000000e+02 7.281956672668457031e+00 -1.351641416549682617e+00 2.815396308898925781e+00 5.878625512123107910e-01 1.020977616310119629e+00 1.564206242561340332e+00
2.190000000000000000e+02 6.853759765625000000e+00 -1.359755992889404297e+00 2.285035133361816406e+00 4.463839530944824219e-01 8.194257020950317383e-01 1.255178928375244141e+00
2.200000000000000000e+02 6.702738761901855469e+00 -1.331013590097427368e-01 2.245547324419021606e-01 1.171329710632562637e-02 7.088040560483932495e-02 6.330005079507827759e-02
2.210000000000000000e+02 5.115441322326660156e+00 -1.330337047576904297e+00 8.973675966262817383e-01 1.683270931243896484e-01 3.197084069252014160e-01 4.778602421283721924e-01
2.220000000000000000e+02 2.153861999511718750e+00 -1.689965426921844482e-01 -2.767331600189208984e-01 9.532396681606769562e-03 -8.016023039817810059e-02 -3.221293911337852478e-02
2.230000000000000000e+02 2.294748306274414062e+00 -1.361813902854919434e+00 8.884222060441970825e-02 7.942424714565277100e-02 5.047994107007980347e-02 -2.254284732043743134e-02
2.240000000000000000e+02 1.729924559593200684e+00 -4.902286231517791748e-01 -1.377279311418533325e-01 -2.856448758393526077e-03 -4.217531532049179077e-02 -7.186844199895858765e-02
2.250000000000000000e+02 1.307962417602539062e+00 -1.655665636062622070e-01 -1.409217417240142822e-01 -2.182786585763096809e-03 -4.293135926127433777e-02 -2.597410790622234344e-02
2.260000000000000000e+02 1.026552543044090271e-01 -1.392542600631713867e+00 -3.465500846505165100e-02 -1.518870741128921509e-01 -5.596262589097023010e-02 -2.944769151508808136e-02
2.270000000000000000e+02 9.305203437805175781e+00 -8.744363784790039062e-01 7.051722526550292969e+00 5.399618148803710938e+00 3.735402107238769531e+00 5.870832920074462891e+00
2.280000000000000000e+02 1.704760074615478516e+00 -1.067720770835876465e+00 2.617526333779096603e-03 1.026869658380746841e-02 3.865866689011454582e-03 -8.864251524209976196e-02
2.290000000000000000e+02 3.718739748001098633e+00 4.421119987964630127e-01 -7.783152461051940918e-01 -1.853612950071692467e-03 -2.340506613254547119e-01 1.647055149078369141e-01
2.300000000000000000e+02 9.469409942626953125e+00 9.639760851860046387e-01 3.548501968383789062e+00 7.224971294403076172e+00 3.232041835784912109e+00 -5.467324256896972656e+00
2.310000000000000000e+02 3.109212875366210938e+00 -1.420225858688354492e+00 2.554258704185485840e-01 1.115372329950332642e-01 1.100889369845390320e-01 8.699532598257064819e-02
2.320000000000000000e+02 3.673345804214477539e+00 -1.356542825698852539e+00 3.573956787586212158e-01 1.217681244015693665e-01 1.437491476535797119e-01 1.808679997920989990e-01
2.330000000000000000e+02 9.901885986328125000e+00 -1.074750423431396484e+00 4.523462772369384766e+00 1.390952873229980469e+01 5.529897212982177734e+00 5.482449531555175781e+00
2.340000000000000000e+02 1.107758998870849609e+01 1.039674431085586548e-01 1.149010181427001953e+01 1.292770862579345703e+01 7.325343132019042969e+00 1.514875888824462891e+00
2.350000000000000000e+02 1.089429092407226562e+01 9.207270741462707520e-01 4.831479549407958984e+00 1.521791076660156250e+01 6.014817237854003906e+00 2.275412797927856445e+00
2.360000000000000000e+02 1.080690765380859375e+01 1.168788671493530273e+00 3.212128162384033203e+00 1.477528762817382812e+01 5.396224498748779297e+00 1.196293950080871582e+00
2.370000000000000000e+02 1.065894412994384766e+01 1.228479743003845215e+00 2.393722772598266602e+00 1.539773941040039062e+01 5.337438583374023438e+00 3.821272850036621094e-01
2.380000000000000000e+02 1.009926033020019531e+01 1.109326839447021484e+00 1.672048449516296387e+00 1.516416454315185547e+01 5.050863742828369141e+00 -3.240052223205566406e+00
2.390000000000000000e+02 9.517053604125976562e+00 1.392658829689025879e+00 2.381428718566894531e+00 8.314678192138671875e+00 3.208832025527954102e+00 -4.804830551147460938e+00
2.400000000000000000e+02 7.899786949157714844e+00 1.355904221534729004e+00 1.473172426223754883e+00 9.304207563400268555e-01 7.210779190063476562e-01 -1.345358252525329590e+00
2.410000000000000000e+02 7.492914676666259766e+00 1.346846580505371094e+00 9.293637275695800781e-01 5.942838788032531738e-01 4.570942819118499756e-01 -8.618900775909423828e-01
2.420000000000000000e+02 6.091519355773925781e+00 1.358504295349121094e+00 -7.745033130049705505e-03 1.658850163221359253e-01 4.744199663400650024e-02 -4.072450101375579834e-02
2.430000000000000000e+02 4.462540626525878906e+00 1.066448926925659180e+00 -5.011202096939086914e-01 2.262837067246437073e-02 -1.435475498437881470e-01 2.639734447002410889e-01
2.440000000000000000e+02 4.094229698181152344e+00 1.372979164123535156e+00 -2.978898286819458008e-01 2.630301751196384430e-02 -8.147604018449783325e-02 3.035097122192382812e-01
2.450000000000000000e+02 1.286486506462097168e+00 1.162464618682861328e+00 -1.016060337424278259e-01 -9.297818690538406372e-02 -5.837526544928550720e-02 1.991928666830062866e-01
2.460000000000000000e+02 1.014702394604682922e-01 1.391971230506896973e+00 5.638923030346632004e-03 -8.650515228509902954e-02 -2.425986900925636292e-02 2.281360561028122902e-03
2.470000000000000000e+02 1.003239825367927551e-01 1.273108571767807007e-01 5.985873867757618427e-04 6.099903839640319347e-04 3.625733370427042246e-04 -6.097705336287617683e-04
2.480000000000000000e+02 7.329292297363281250e-01 4.319826960563659668e-01 -4.639347642660140991e-02 -2.216145023703575134e-02 -2.056647837162017822e-02 4.350136592984199524e-02
2.490000000000000000e+02 1.386239290237426758e+00 3.766362667083740234e-01 -1.428099423646926880e-01 -1.268549542874097824e-02 -4.664862900972366333e-02 8.396407216787338257e-02
2.500000000000000000e+02 2.292985677719116211e+00 1.655435413122177124e-01 -3.977452814579010010e-01 -7.542101200670003891e-03 -1.215862184762954712e-01 5.580104514956474304e-02
2.510000000000000000e+02 2.695286035537719727e+00 1.684379279613494873e-01 -5.481503605842590332e-01 -1.854279194958508015e-03 -1.650013774633407593e-01 5.954797193408012390e-02
2.520000000000000000e+02 3.501118183135986328e+00 4.493677020072937012e-01 -7.114838361740112305e-01 -4.441104829311370850e-03 -2.147774845361709595e-01 1.651679873466491699e-01
2.530000000000000000e+02 4.504174232482910156e+00 1.370491534471511841e-01 -1.274495124816894531e+00 -3.768271766602993011e-03 -3.834790289402008057e-01 5.941200628876686096e-02
2.540000000000000000e+02 5.468919277191162109e+00 4.039701819419860840e-01 -1.292392611503601074e+00 -4.666743800044059753e-03 -3.891178071498870850e-01 1.333090513944625854e-01
2.550000000000000000e+02 5.696718215942382812e+00 1.538996994495391846e-01 -1.729632616043090820e+00 -4.203657619655132294e-03 -5.201508998870849609e-01 6.240630522370338440e-02
2.560000000000000000e+02 6.107610225677490234e+00 1.532623320817947388e-01 -1.863888144493103027e+00 -4.892382305115461349e-03 -5.606341958045959473e-01 6.170367449522018433e-02
2.570000000000000000e+02 6.509176254272460938e+00 1.416981220245361328e-01 -2.001698255538940430e+00 3.792237257584929466e-03 -5.993718504905700684e-01 5.804827436804771423e-02
2.580000000000000000e+02 6.906415462493896484e+00 1.331113576889038086e-01 -2.119315147399902344e+00 -1.401640474796295166e-02 -6.399995088577270508e-01 5.378292128443717957e-02
2.590000000000000000e+02 8.711063385009765625e+00 1.229138299822807312e-01 -2.314640760421752930e+00 3.455744683742523193e-02 -6.840249896049499512e-01 2.513205818831920624e-02
2.600000000000000000e+02 1.103953266143798828e+01 2.695617675781250000e-01 1.067162990570068359e+01 1.358629798889160156e+01 7.277378082275390625e+00 2.533847570419311523e+00
2.610000000000000000e+02 1.114456081390380859e+01 7.576981186866760254e-01 6.480379581451416016e+00 1.341184043884277344e+01 5.967666149139404297e+00 2.750129222869873047e+00
2.620000000000000000e+02 1.048062229156494141e+01 1.001647591590881348e+00 2.663601636886596680e+00 1.704053878784179688e+01 5.911242008209228516e+00 1.885369718074798584e-01
2.630000000000000000e+02 8.897590637207031250e+00 -1.108529567718505859e-01 2.607427358627319336e+00 -1.002468615770339966e-01 7.521541118621826172e-01 2.778798341751098633e-01
2.640000000000000000e+02 9.020002365112304688e+00 -6.818686127662658691e-01 6.750633239746093750e+00 1.975411295890808105e+00 2.617813348770141602e+00 3.680076360702514648e+00
2.650000000000000000e+02 9.486912727355957031e+00 -9.693363308906555176e-01 6.395107746124267578e+00 8.194667816162109375e+00 4.376932621002197266e+00 6.568669795989990234e+00
2.660000000000000000e+02 1.111808109283447266e+01 -4.630428850650787354e-01 1.010813903808593750e+01 1.305801773071289062e+01 6.949846744537353516e+00 -1.174709558486938477e+00
2.670000000000000000e+02 8.106524467468261719e+00 -1.612324267625808716e-01 1.367089509963989258e+00 -7.159741967916488647e-02 3.886476159095764160e-01 1.858058422803878784e-01
2.680000000000000000e+02 6.295588970184326172e+00 -3.674811720848083496e-01 4.430364966392517090e-01 1.168041955679655075e-02 1.364150792360305786e-01 1.657226830720901489e-01
2.690000000000000000e+02 5.241594791412353516e+00 -4.145678877830505371e-01 8.157060295343399048e-02 2.282915264368057251e-02 3.131992742419242859e-02 1.077236831188201904e-01
2.700000000000000000e+02 4.866126537322998047e+00 -3.414294123649597168e-01 -1.123736277222633362e-01 6.531493272632360458e-03 -3.175264224410057068e-02 5.115202069282531738e-02
2.710000000000000000e+02 2.643744945526123047e+00 -3.284434974193572998e-01 -2.670226097106933594e-01 7.575544994324445724e-03 -7.783411443233489990e-02 -3.326363861560821533e-02
2.720000000000000000e+02 2.499970436096191406e+00 -9.817486256361007690e-02 -3.609001338481903076e-01 -1.344870106549933553e-04 -1.083103790879249573e-01 -1.171717885881662369e-02
2.730000000000000000e+02 1.716540455818176270e+00 -1.788551807403564453e-01 -2.112866640090942383e-01 4.491673607844859362e-04 -6.325124949216842651e-02 -2.918507717549800873e-02
2.740000000000000000e+02 9.602549672126770020e-02 -1.283648163080215454e-01 -2.717756142374128103e-04 -2.560268621891736984e-04 -1.583407429279759526e-04 -2.274681028211489320e-04
2.750000000000000000e+02 1.071215724945068359e+01 -8.493782281875610352e-01 6.795406818389892578e+00 1.616519546508789062e+01 6.888180732727050781e+00 -1.053943037986755371e+00
2.760000000000000000e+02 8.993978500366210938e+00 -1.087878465652465820e+00 5.929862499237060547e+00 3.852716684341430664e+00 2.934773683547973633e+00 4.730548858642578125e+00
2.770000000000000000e+02 1.125597381591796875e+01 -6.092246174812316895e-01 8.776408195495605469e+00 1.233104801177978516e+01 6.332236766815185547e+00 -1.498291015625000000e+00
2.780000000000000000e+02 9.019884109497070312e+00 5.161942839622497559e-01 2.173293352127075195e+00 6.765680909156799316e-01 8.549584746360778809e-01 -1.670906186103820801e+00
2.790000000000000000e+02 1.082630920410156250e+01 7.334623932838439941e-01 6.127451419830322266e+00 1.588840579986572266e+01 6.604757308959960938e+00 2.808668375015258789e+00
2.800000000000000000e+02 9.552035331726074219e+00 1.194209575653076172e+00 2.633642435073852539e+00 8.446234703063964844e+00 3.323963165283203125e+00 -5.090301990509033203e+00
2.810000000000000000e+02 1.088972091674804688e+01 -1.027581930160522461e+00 6.012186527252197266e+00 1.444888114929199219e+01 6.138320446014404297e+00 -1.052030682563781738e+00
2.820000000000000000e+02 1.125513172149658203e+01 5.939059853553771973e-01 7.714621543884277344e+00 1.271250724792480469e+01 6.128138542175292969e+00 2.751882791519165039e+00
2.830000000000000000e+02 1.131819057464599609e+01 -4.570733904838562012e-01 9.704865455627441406e+00 1.171808338165283203e+01 6.426884651184082031e+00 -9.609600901603698730e-01
2.840000000000000000e+02 1.102915954589843750e+01 -8.932558894157409668e-01 7.155906200408935547e+00 1.379514789581298828e+01 6.285315990447998047e+00 -1.525959253311157227e+00
2.850000000000000000e+02 1.134174919128417969e+01 -2.807932198047637939e-01 1.013125705718994141e+01 1.142018604278564453e+01 6.465432643890380859e+00 -3.789995312690734863e-01
2.860000000000000000e+02 1.139057826995849609e+01 2.890876829624176025e-01 9.287322044372558594e+00 1.148717594146728516e+01 6.232349395751953125e+00 1.791198134422302246e+00
2.870000000000000000e+02 1.119312572479248047e+01 1.874526739120483398e-01 1.048847961425781250e+01 1.224030494689941406e+01 6.818634986877441406e+00 1.736052274703979492e+00
2.880000000000000000e+02 1.041065502166748047e+01 -1.317460656166076660e+00 3.627829313278198242e+00 1.488097763061523438e+01 5.552642345428466797e+00 1.748306512832641602e+00
2.890000000000000000e+02 1.009277725219726562e+01 -1.060697197914123535e+00 4.189482688903808594e+00 1.595231342315673828e+01 6.042538642883300781e+00 3.945201873779296875e+00
2.900000000000000000e+02 9.907473564147949219e+00 1.121070504188537598e+00 1.984208106994628906e+00 1.311296844482421875e+01 4.529152870178222656e+00 -4.584070205688476562e+00
2.910000000000000000e+02 1.048631954193115234e+01 1.271646022796630859e+00 1.893692493438720703e+00 1.529069328308105469e+01 5.155315876007080078e+00 -6.160475015640258789e-01
2.920000000000000000e+02 1.057286930084228516e+01 -1.239858627319335938e+00 4.181205749511718750e+00 1.497319126129150391e+01 5.746319293975830078e+00 6.889930367469787598e-01
2.930000000000000000e+02 8.883888125419616699e-01 -1.356295228004455566e+00 6.864728871732950211e-03 -2.588317543268203735e-02 -5.705534014850854874e-03 -7.953360676765441895e-02
2.940000000000000000e+02 3.040100336074829102e-01 -1.391423225402832031e+00 -4.597997665405273438e-02 -1.589264124631881714e-01 -6.147191673517227173e-02 -6.440199166536331177e-02
2.950000000000000000e+02 1.093045949935913086e+00 -1.335810899734497070e+00 9.599190205335617065e-03 -2.370676398277282715e-02 -4.232272040098905563e-03 -8.828876167535781860e-02
2.960000000000000000e+02 1.500203132629394531e+00 -1.350065231323242188e+00 4.112889245152473450e-02 6.443494348786771297e-04 1.253197249025106430e-02 -8.532820641994476318e-02
2.970000000000000000e+02 2.097192764282226562e+00 -1.366299629211425781e+00 7.351479679346084595e-02 5.141367390751838684e-02 3.747854009270668030e-02 -5.711618438363075256e-02
2.980000000000000000e+02 2.692356586456298828e+00 -1.078049063682556152e+00 5.788626149296760559e-02 5.920914188027381897e-02 3.512861952185630798e-02 -1.538680214434862137e-02
2.990000000000000000e+02 3.324770212173461914e+00 -1.174355626106262207e+00 1.971841305494308472e-01 7.309997081756591797e-02 8.108522742986679077e-02 7.458659261465072632e-02
3.000000000000000000e+02 4.124855041503906250e+00 -1.150144219398498535e+00 3.827807009220123291e-01 8.270722627639770508e-02 1.396463811397552490e-01 1.882890611886978149e-01
3.010000000000000000e+02 4.673169612884521484e+00 -1.339155793190002441e+00 6.664456725120544434e-01 1.525581181049346924e-01 2.457011491060256958e-01 3.744087219238281250e-01
3.020000000000000000e+02 6.360189914703369141e+00 -1.196414113044738770e+00 1.679102182388305664e+00 2.187978029251098633e-01 5.693700313568115234e-01 7.980073690414428711e-01
3.030000000000000000e+02 8.068883895874023438e+00 -1.039474606513977051e+00 3.947926759719848633e+00 8.930514454841613770e-01 1.452293515205383301e+00 2.089015245437622070e+00
3.040000000000000000e+02 8.091531753540039062e+00 -1.341143488883972168e+00 3.992532491683959961e+00 1.438716173171997070e+00 1.629374623298645020e+00 2.645221233367919922e+00
3.050000000000000000e+02 8.518143653869628906e+00 -1.328126549720764160e+00 4.778173923492431641e+00 2.332803249359130859e+00 2.133293151855468750e+00 3.549695730209350586e+00
3.060000000000000000e+02 9.530289649963378906e+00 -1.405190467834472656e+00 4.475701332092285156e+00 8.923018455505371094e+00 4.019616127014160156e+00 5.502268791198730469e+00
3.070000000000000000e+02 9.200761795043945312e+00 -1.108575105667114258e+00 6.030990123748779297e+00 5.377437114715576172e+00 3.422528266906738281e+00 5.487375259399414062e+00
3.080000000000000000e+02 9.713594436645507812e+00 -1.432682633399963379e+00 4.068822383880615234e+00 1.049529266357421875e+01 4.369234561920166016e+00 5.347818374633789062e+00
3.090000000000000000e+02 1.005361557006835938e+01 -1.406605482101440430e+00 3.461572408676147461e+00 1.298627471923828125e+01 4.934354305267333984e+00 3.862386226654052734e+00
3.100000000000000000e+02 8.696110725402832031e+00 1.115810751914978027e+00 2.515425682067871094e+00 1.891336917877197266e+00 1.322028756141662598e+00 -2.585881233215332031e+00
3.110000000000000000e+02 8.318943977355957031e+00 1.107985258102416992e+00 1.728125095367431641e+00 9.917755126953125000e-01 8.159701824188232422e-01 -1.594012260437011719e+00
3.120000000000000000e+02 8.301010131835937500e+00 1.368102073669433594e+00 1.973311185836791992e+00 1.552587389945983887e+00 1.057769536972045898e+00 -2.014333963394165039e+00
3.130000000000000000e+02 7.696302413940429688e+00 1.353312492370605469e+00 1.148995757102966309e+00 6.833346486091613770e-01 5.496991276741027832e-01 -1.032272100448608398e+00
3.140000000000000000e+02 7.086571216583251953e+00 1.363262772560119629e+00 5.362668633460998535e-01 3.963990211486816406e-01 2.797997891902923584e-01 -4.999386072158813477e-01
3.150000000000000000e+02 6.295311927795410156e+00 1.356781244277954102e+00 5.830717831850051880e-02 1.799702942371368408e-01 7.148323953151702881e-02 -1.041766032576560974e-01
3.160000000000000000e+02 6.853132724761962891e+00 1.123047709465026855e+00 6.007662415504455566e-02 1.945300102233886719e-01 7.638198882341384888e-02 -2.185178548097610474e-01
3.170000000000000000e+02 5.500124454498291016e+00 1.383009076118469238e+00 -1.488884389400482178e-01 1.110181882977485657e-01 -1.136107463389635086e-02 1.066934689879417419e-01
3.180000000000000000e+02 5.101686954498291016e+00 1.365977764129638672e+00 -2.310257107019424438e-01 7.968638837337493896e-02 -4.540179669857025146e-02 1.796759814023971558e-01
3.190000000000000000e+02 4.679098129272460938e+00 1.089977860450744629e+00 -4.961443841457366943e-01 2.664335444569587708e-02 -1.408503055572509766e-01 2.448403835296630859e-01
3.200000000000000000e+02 4.692054748535156250e+00 1.359875679016113281e+00 -2.839454412460327148e-01 5.612298101186752319e-02 -6.834673881530761719e-02 2.352495789527893066e-01
3.210000000000000000e+02 4.073109626770019531e+00 1.115261077880859375e+00 -4.312495887279510498e-01 1.099177077412605286e-02 -1.260773539543151855e-01 2.744955718517303467e-01
3.220000000000000000e+02 4.261375904083251953e+00 1.089777827262878418e+00 -4.785988330841064453e-01 9.887342341244220734e-03 -1.406134516000747681e-01 2.727838754653930664e-01
3.230000000000000000e+02 3.370482921600341797e+00 1.137103438377380371e+00 -3.562105596065521240e-01 -8.990441448986530304e-03 -1.095603033900260925e-01 3.027743399143218994e-01
3.240000000000000000e+02 3.355420589447021484e+00 8.239315748214721680e-01 -5.131204724311828613e-01 -5.500569473952054977e-03 -1.555863171815872192e-01 2.535668313503265381e-01
3.250000000000000000e+02 2.907274961471557617e+00 1.331713795661926270e+00 -2.388295382261276245e-01 -2.370662055909633636e-02 -7.876084744930267334e-02 3.184657692909240723e-01
3.260000000000000000e+02 2.497857809066772461e+00 1.363923430442810059e+00 -1.978662163019180298e-01 -4.241111129522323608e-02 -7.208319753408432007e-02 3.122840821743011475e-01
3.270000000000000000e+02 1.712112069129943848e+00 1.357282161712646484e+00 -1.237769648432731628e-01 -8.365543186664581299e-02 -6.222971901297569275e-02 2.604769468307495117e-01
3.280000000000000000e+02 5.158184766769409180e-01 1.148278355598449707e+00 -2.439786307513713837e-02 -1.227100566029548645e-01 -4.413237795233726501e-02 9.313336759805679321e-02
3.290000000000000000e+02 5.066074728965759277e-01 1.382435321807861328e+00 -1.875235512852668762e-02 -1.283838599920272827e-01 -4.414086416363716125e-02 1.012486740946769714e-01
3.300000000000000000e+02 1.299041390419006348e+00 -1.344434380531311035e+00 2.712557651102542877e-02 2.894787583500146866e-03 9.006109088659286499e-03 -7.891389727592468262e-02
3.310000000000000000e+02 1.699975848197937012e+00 -1.355569839477539062e+00 4.289127513766288757e-02 3.704113513231277466e-02 2.397972345352172852e-02 -7.385706156492233276e-02
3.320000000000000000e+02 1.902339577674865723e+00 -1.086406946182250977e+00 3.267718013375997543e-03 3.228228911757469177e-02 1.066500227898359299e-02 -7.750573009252548218e-02
3.330000000000000000e+02 3.901492595672607422e+00 -1.116383552551269531e+00 2.919668257236480713e-01 8.886017650365829468e-02 1.142481043934822083e-01 1.537023782730102539e-01
3.340000000000000000e+02 4.295088768005371094e+00 -1.396833062171936035e+00 5.764250755310058594e-01 1.604012995958328247e-01 2.210479080677032471e-01 3.216835260391235352e-01
3.350000000000000000e+02 4.898310184478759766e+00 -1.326452493667602539e+00 7.633875608444213867e-01 1.499914973974227905e-01 2.740137279033660889e-01 4.226498603820800781e-01
3.360000000000000000e+02 5.189235210418701172e+00 -1.027584314346313477e+00 6.779526472091674805e-01 9.889102727174758911e-02 2.330531030893325806e-01 3.357977271080017090e-01
3.370000000000000000e+02 5.320949077606201172e+00 -1.354625225067138672e+00 1.047337055206298828e+00 1.872215420007705688e-01 3.703675866127014160e-01 5.478887557983398438e-01
3.380000000000000000e+02 5.764801025390625000e+00 -1.137822866439819336e+00 1.140914201736450195e+00 1.559918820858001709e-01 3.890718221664428711e-01 5.589233636856079102e-01
3.390000000000000000e+02 7.065707683563232422e+00 -1.340578079223632812e+00 2.522110939025878906e+00 5.035438537597656250e-01 9.076964259147644043e-01 1.371001362800598145e+00
3.400000000000000000e+02 7.867691516876220703e+00 -1.045733809471130371e+00 3.511502981185913086e+00 6.669491529464721680e-01 1.253535628318786621e+00 1.777163386344909668e+00
3.410000000000000000e+02 8.726363182067871094e+00 -1.351821899414062500e+00 5.137985229492187500e+00 3.259042978286743164e+00 2.519108295440673828e+00 4.231613159179687500e+00
3.420000000000000000e+02 9.130440711975097656e+00 -1.369238615036010742e+00 5.203135013580322266e+00 5.603058815002441406e+00 3.241858005523681641e+00 5.233437538146972656e+00
3.430000000000000000e+02 9.318794250488281250e+00 1.382393121719360352e+00 2.564370632171630859e+00 6.372879981994628906e+00 2.681175231933593750e+00 -4.500910282135009766e+00
3.440000000000000000e+02 9.116800308227539062e+00 1.368067383766174316e+00 2.652861595153808594e+00 4.840655803680419922e+00 2.248055219650268555e+00 -4.076186180114746094e+00
3.450000000000000000e+02 7.289333343505859375e+00 1.351579427719116211e+00 7.509685754776000977e-01 4.592581689357757568e-01 3.630680143833160400e-01 -6.622847318649291992e-01
3.460000000000000000e+02 6.666684150695800781e+00 1.139312386512756348e+00 -2.321788109838962555e-02 1.617841422557830811e-01 4.156988114118576050e-02 -1.501171737909317017e-01
3.470000000000000000e+02 5.690845012664794922e+00 1.169502496719360352e+00 -3.255386650562286377e-01 7.904923707246780396e-02 -7.394683361053466797e-02 1.213329434394836426e-01
3.480000000000000000e+02 4.897675514221191406e+00 1.088674783706665039e+00 -4.976817667484283447e-01 4.133959114551544189e-02 -1.369026601314544678e-01 2.295127213001251221e-01
3.490000000000000000e+02 3.899146795272827148e+00 1.380541920661926270e+00 -2.741155624389648438e-01 2.466463297605514526e-02 -7.483527809381484985e-02 3.065685927867889404e-01
3.500000000000000000e+02 3.887932062149047852e+00 1.137910962104797363e+00 -4.072011113166809082e-01 1.125285774469375610e-02 -1.187844723463058472e-01 2.923268675804138184e-01
3.510000000000000000e+02 1.941070795059204102e+00 1.156734108924865723e+00 -1.743621975183486938e-01 -5.865292623639106750e-02 -6.990453600883483887e-02 2.600818872451782227e-01
3.520000000000000000e+02 9.954800605773925781e+00 -1.239313125610351562e+00 3.961943149566650391e+00 1.338248157501220703e+01 5.203327178955078125e+00 4.742270469665527344e+00
3.530000000000000000e+02 5.880936145782470703e+00 -3.953866362571716309e-01 2.858801186084747314e-01 9.808331727981567383e-03 8.870653063058853149e-02 1.351482868194580078e-01
3.540000000000000000e+02 7.868466854095458984e+00 -4.396730363368988037e-01 2.089509963989257812e+00 5.726298689842224121e-02 6.440318226814270020e-01 5.005524754524230957e-01
3.550000000000000000e+02 8.323198318481445312e+00 4.218527972698211670e-01 -5.681794881820678711e-01 5.462535470724105835e-02 -1.540662348270416260e-01 -2.328603267669677734e-01
3.560000000000000000e+02 7.904225349426269531e+00 4.247169494628906250e-01 -9.685415625572204590e-01 4.607043042778968811e-02 -2.767413258552551270e-01 -9.235671907663345337e-02
3.570000000000000000e+02 4.701137542724609375e+00 1.260974556207656860e-01 -1.358416080474853516e+00 6.171824876219034195e-03 -4.056732654571533203e-01 5.702708289027214050e-02
3.580000000000000000e+02 7.303282260894775391e+00 1.354932188987731934e-01 -2.213639974594116211e+00 -7.636561058461666107e-03 -6.663829684257507324e-01 3.402122855186462402e-02
3.590000000000000000e+02 7.303153038024902344e+00 -1.278868615627288818e-01 5.513701438903808594e-01 -4.885636735707521439e-03 1.639453619718551636e-01 9.629981219768524170e-02
3.600000000000000000e+02 6.533110141754150391e+00 4.080563485622406006e-01 -1.439530134201049805e+00 1.850323565304279327e-02 -4.263080656528472900e-01 9.433492273092269897e-02
3.610000000000000000e+02 7.104721069335937500e+00 1.325948536396026611e-01 -2.175292491912841797e+00 2.317406423389911652e-02 -6.456354856491088867e-01 4.799195006489753723e-02
3.620000000000000000e+02 8.112528800964355469e+00 4.328442811965942383e-01 -7.682244181632995605e-01 5.452208593487739563e-02 -2.141107022762298584e-01 -1.413697898387908936e-01
3.630000000000000000e+02 8.929835319519042969e+00 -3.179746866226196289e-01 4.800447463989257812e+00 3.441100418567657471e-01 1.543367266654968262e+00 1.324572801589965820e+00
3.640000000000000000e+02 8.596513748168945312e+00 -2.476141005754470825e-01 2.734139680862426758e+00 1.765322238206863403e-01 8.732015490531921387e-01 4.643007516860961914e-01
3.650000000000000000e+02 8.319588661193847656e+00 -1.394328922033309937e-01 1.547351717948913574e+00 -1.631895825266838074e-02 4.593098163604736328e-01 1.244577467441558838e-01
3.660000000000000000e+02 7.896694183349609375e+00 -1.483428627252578735e-01 1.133830547332763672e+00 7.640551775693893433e-02 3.630708158016204834e-01 1.849034279584884644e-01
3.670000000000000000e+02 4.690986156463623047e+00 -1.297260075807571411e-01 -3.677762448787689209e-01 7.852696813642978668e-03 -1.079770624637603760e-01 1.458585262298583984e-02
3.680000000000000000e+02 2.994648516178131104e-01 3.495013415813446045e-01 -6.158484145998954773e-03 -9.975689463317394257e-03 -4.840251989662647247e-03 5.474590696394443512e-03
3.690000000000000000e+02 2.688107252120971680e+00 -1.198066771030426025e-01 -3.803085684776306152e-01 4.817037261091172695e-04 -1.139480546116828918e-01 -1.117596495896577835e-02
3.700000000000000000e+02 3.072667360305786133e+00 -4.050358831882476807e-01 -2.368346005678176880e-01 8.529487065970897675e-03 -6.849153339862823486e-02 -1.929387822747230530e-02
3.710000000000000000e+02 3.301852226257324219e+00 -4.238827824592590332e-01 -2.210796773433685303e-01 1.273482572287321091e-02 -6.250345706939697266e-02 -6.436604540795087814e-03
3.720000000000000000e+02 3.299222469329833984e+00 1.583903282880783081e-01 -7.788926959037780762e-01 2.388397930189967155e-03 -2.329512834548950195e-01 6.427738815546035767e-02
3.730000000000000000e+02 3.911753177642822266e+00 1.607409417629241943e-01 -1.026306867599487305e+00 -1.373150502331554890e-03 -3.083040118217468262e-01 6.736408919095993042e-02
3.740000000000000000e+02 2.494956493377685547e+00 1.634936779737472534e-01 -4.738694131374359131e-01 1.159663195721805096e-03 -1.418129205703735352e-01 5.943479016423225403e-02
3.750000000000000000e+02 3.097318887710571289e+00 1.619818061590194702e-01 -6.959326267242431641e-01 -5.016610957682132721e-03 -2.102847695350646973e-01 6.299490481615066528e-02
3.760000000000000000e+02 3.199888706207275391e+00 6.661611199378967285e-01 -5.370604395866394043e-01 -7.471940945833921432e-03 -1.633597165346145630e-01 2.218479216098785400e-01
3.770000000000000000e+02 3.502358675003051758e+00 -1.408780515193939209e-01 -4.254307746887207031e-01 2.847421681508421898e-03 -1.267750114202499390e-01 -4.378312733024358749e-03
3.780000000000000000e+02 2.450752735137939453e+00 -2.514180839061737061e-01 -2.868044674396514893e-01 3.022416727617383003e-03 -8.513461798429489136e-02 -3.440164029598236084e-02
3.790000000000000000e+02 1.939509868621826172e+00 -1.946533620357513428e-01 -2.452292293310165405e-01 -4.513885825872421265e-03 -7.492293417453765869e-02 -3.078655526041984558e-02
3.800000000000000000e+02 1.963103652000427246e+00 -5.278034210205078125e-01 -1.457736045122146606e-01 8.266416378319263458e-03 -4.125215858221054077e-02 -6.796152889728546143e-02
3.810000000000000000e+02 6.975221633911132812e-01 -1.828634589910507202e-01 -4.290712624788284302e-02 -1.619103830307722092e-03 -1.335786934942007065e-02 -2.150603197515010834e-02
3.820000000000000000e+02 2.311627268791198730e-01 -3.789996504783630371e-01 -9.353774599730968475e-03 -1.952053420245647430e-02 -8.662292733788490295e-03 -1.627744361758232117e-02
3.830000000000000000e+02 4.852280616760253906e-01 -1.750710308551788330e-01 -2.161310426890850067e-02 -9.437908418476581573e-03 -9.315303526818752289e-03 -1.575324498116970062e-02
3.840000000000000000e+02 1.108332395553588867e+00 -1.638900786638259888e-01 -1.062945947051048279e-01 1.482624793425202370e-03 -3.144359216094017029e-02 -2.595160901546478271e-02
3.850000000000000000e+02 5.902637958526611328e+00 1.572605222463607788e-01 -1.796974301338195801e+00 3.994144499301910400e-03 -5.378940105438232422e-01 6.210047751665115356e-02
3.860000000000000000e+02 6.129099369049072266e+00 4.393589794635772705e-01 -1.351717948913574219e+00 1.224219985306262970e-02 -4.018427133560180664e-01 1.235240474343299866e-01
3.870000000000000000e+02 4.142144203186035156e+00 4.426609277725219727e-01 -8.965653181076049805e-01 3.011747496202588081e-03 -2.680660784244537354e-01 1.639456152915954590e-01
3.880000000000000000e+02 6.708186626434326172e+00 1.365282684564590454e-01 -2.062390089035034180e+00 6.631313357502222061e-03 -6.167276501655578613e-01 4.996656998991966248e-02
3.890000000000000000e+02 7.697260856628417969e+00 -1.324286907911300659e-01 9.143507480621337891e-01 -2.358240308240056038e-03 2.735977470874786377e-01 1.310799270868301392e-01
3.900000000000000000e+02 7.104060173034667969e+00 -1.367662101984024048e-01 4.207362830638885498e-01 2.885452844202518463e-02 1.348772495985031128e-01 7.676491141319274902e-02
3.910000000000000000e+02 5.630605220794677734e+00 -8.765625953674316406e-01 7.776382565498352051e-01 8.408515155315399170e-02 2.585170269012451172e-01 3.598189055919647217e-01
3.920000000000000000e+02 5.046647071838378906e+00 -3.743271827697753906e-01 -3.900153934955596924e-02 1.400501653552055359e-02 -7.498956751078367233e-03 7.596496492624282837e-02
3.930000000000000000e+02 4.523074150085449219e+00 3.954443335533142090e-01 -1.060447335243225098e+00 2.595691243186593056e-03 -3.173555135726928711e-01 1.497875005006790161e-01
3.940000000000000000e+02 4.711832046508789062e+00 3.474344015121459961e-01 -1.161280512809753418e+00 -9.069282095879316330e-04 -3.486562371253967285e-01 1.355820000171661377e-01
3.950000000000000000e+02 7.698516368865966797e+00 4.180117547512054443e-01 -1.184091329574584961e+00 6.286138296127319336e-02 -3.363689780235290527e-01 -4.306363686919212341e-02
3.960000000000000000e+02 6.700313091278076172e+00 -3.808155059814453125e-01 7.515801191329956055e-01 2.188208512961864471e-02 2.320386618375778198e-01 2.126854956150054932e-01
3.970000000000000000e+02 6.088542938232421875e+00 -3.830642998218536377e-01 3.544720709323883057e-01 2.538905851542949677e-02 1.139583364129066467e-01 1.514777690172195435e-01
3.980000000000000000e+02 4.089779376983642578e+00 -1.334567815065383911e-01 -4.151537120342254639e-01 -2.212063176557421684e-03 -1.252097338438034058e-01 4.268794786185026169e-03
3.990000000000000000e+02 1.088611483573913574e-01 -1.175893902778625488e+00 1.790907233953475952e-02 -1.095679700374603271e-01 -2.749766968190670013e-02 -1.089095324277877808e-02
4.000000000000000000e+02 1.197042241692543030e-01 -7.250900864601135254e-01 2.110114088281989098e-03 -4.508610814809799194e-02 -1.289279758930206299e-02 -1.441060379147529602e-02
4.010000000000000000e+02 3.080295920372009277e-01 1.164847373962402344e+00 5.788226146250963211e-03 -9.299499541521072388e-02 -2.616203203797340393e-02 4.198803752660751343e-02
4.020000000000000000e+02 3.398019671440124512e-01 -9.332243800163269043e-01 -3.074836218729615211e-03 -6.395062804222106934e-02 -2.010763995349407196e-02 -4.417621716856956482e-02
4.030000000000000000e+02 1.505174279212951660e+00 -1.053133010864257812e+00 -1.134338788688182831e-02 1.056364644318819046e-02 -2.339225029572844505e-04 -8.911657333374023438e-02
4.040000000000000000e+02 9.072464108467102051e-01 -1.675877422094345093e-01 -7.251501083374023438e-02 -3.366220509633421898e-03 -2.276436984539031982e-02 -2.449443191289901733e-02
4.050000000000000000e+02 3.997492194175720215e-01 -4.502246081829071045e-01 -1.412916183471679688e-02 -1.774000376462936401e-02 -9.560749866068363190e-03 -2.713383547961711884e-02
4.060000000000000000e+02 6.008073329925537109e+00 -9.523974061012268066e-01 1.094020605087280273e+00 1.092329919338226318e-01 3.609760999679565430e-01 4.878829419612884521e-01
4.070000000000000000e+02 8.651900291442871094e+00 8.789014220237731934e-01 2.072462558746337891e+00 1.166580319404602051e+00 9.717128276824951172e-01 -1.907010436058044434e+00
4.080000000000000000e+02 1.731535434722900391e+00 7.469242811203002930e-01 -1.979687958955764771e-01 -3.692178800702095032e-02 -7.046717405319213867e-02 1.801540851593017578e-01
4.090000000000000000e+02 3.018066883087158203e-01 9.518908262252807617e-01 -1.091377902776002884e-02 -6.637927144765853882e-02 -2.318791486322879791e-02 3.939266875386238098e-02
4.100000000000000000e+02 6.622801303863525391e+00 9.074098467826843262e-01 -4.538725316524505615e-01 8.762801438570022583e-02 -1.098733544349670410e-01 -1.602282188832759857e-02
4.110000000000000000e+02 5.909246444702148438e+00 4.538686871528625488e-01 -1.287609696388244629e+00 3.878263814840465784e-04 -3.861665427684783936e-01 1.362003684043884277e-01
4.120000000000000000e+02 6.162439823150634766e+00 7.207787036895751953e-01 -8.621118068695068359e-01 3.063631616532802582e-02 -2.494426518678665161e-01 1.064935028553009033e-01
4.130000000000000000e+02 6.994360446929931641e+00 8.569750189781188965e-01 -3.307431936264038086e-01 1.128441914916038513e-01 -6.536969542503356934e-02 -9.823393821716308594e-02
4.140000000000000000e+02 5.450508117675781250e+00 -8.567239046096801758e-01 6.619692444801330566e-01 7.747094333171844482e-02 2.218320518732070923e-01 3.047730624675750732e-01
4.150000000000000000e+02 2.871636390686035156e+00 7.811645865440368652e-01 -4.291241765022277832e-01 -1.163081824779510498e-02 -1.322264969348907471e-01 2.379812598228454590e-01
4.160000000000000000e+02 5.379126071929931641e+00 -1.084372639656066895e+00 8.387901782989501953e-01 1.249309182167053223e-01 2.891163229942321777e-01 4.232619106769561768e-01
4.170000000000000000e+02 1.398319959640502930e+00 7.668839693069458008e-01 -1.383753865957260132e-01 -4.365408420562744141e-02 -5.460884049534797668e-02 1.573194712400436401e-01
4.180000000000000000e+02 6.539139270782470703e+00 -7.426691055297851562e-01 1.236475706100463867e+00 9.178322553634643555e-02 3.984777033329010010e-01 4.635902941226959229e-01
4.190000000000000000e+02 8.926049232482910156e+00 1.086104631423950195e+00 2.984531641006469727e+00 2.788080215454101562e+00 1.731783509254455566e+00 -3.332071542739868164e+00
4.200000000000000000e+02 8.306077003479003906e+00 -5.263161063194274902e-01 3.487001180648803711e+00 2.331632077693939209e-01 1.116049289703369141e+00 1.085021257400512695e+00
4.210000000000000000e+02 7.307789921760559082e-01 8.630416393280029297e-01 -4.763261973857879639e-02 -7.440470904111862183e-02 -3.661119937896728516e-02 9.403833001852035522e-02
4.220000000000000000e+02 1.100474834442138672e+00 1.160607099533081055e+00 -8.182027935981750488e-02 -8.858439326286315918e-02 -5.112140253186225891e-02 1.743721663951873779e-01
4.230000000000000000e+02 7.306941032409667969e+00 3.945715725421905518e-01 -1.407962322235107422e+00 4.740831255912780762e-02 -4.081661999225616455e-01 4.204645007848739624e-02
4.240000000000000000e+02 7.039049625396728516e+00 -1.044562935829162598e+00 2.155557870864868164e+00 2.699610888957977295e-01 7.276556491851806641e-01 9.929020404815673828e-01
4.250000000000000000e+02 1.023482680320739746e-01 1.177505373954772949e+00 6.265384610742330551e-03 -6.891485303640365601e-02 -1.879484206438064575e-02 1.442420203238725662e-02
4.260000000000000000e+02 2.894755125045776367e+00 4.842920303344726562e-01 -5.195583105087280273e-01 -9.968879632651805878e-03 -1.588581502437591553e-01 1.680780947208404541e-01
4.270000000000000000e+02 2.489332199096679688e+00 -7.762782573699951172e-01 -7.628272473812103271e-02 2.801877073943614960e-02 -1.447918638586997986e-02 -5.436930060386657715e-02
4.280000000000000000e+02 2.900695800781250000e-01 7.499809861183166504e-01 -9.194253943860530853e-03 -3.801289573311805725e-02 -1.416214462369680405e-02 2.900391258299350739e-02
4.290000000000000000e+02 5.359550952911376953e+00 8.854522109031677246e-01 -6.743279099464416504e-01 2.386438287794589996e-02 -1.951390653848648071e-01 1.936366111040115356e-01
4.300000000000000000e+02 5.542640686035156250e+00 9.272234439849853516e-01 -6.192169785499572754e-01 4.688975587487220764e-02 -1.716981679201126099e-01 1.672717034816741943e-01
4.310000000000000000e+02 2.289767265319824219e+00 4.532178044319152832e-01 -3.603824675083160400e-01 -7.488771341741085052e-03 -1.103613749146461487e-01 1.409865319728851318e-01
4.320000000000000000e+02 5.462149143218994141e+00 -6.578353047370910645e-01 4.352624416351318359e-01 4.617413505911827087e-02 1.444309651851654053e-01 2.219698876142501831e-01
4.330000000000000000e+02 2.269171953201293945e+00 -1.086358547210693359e+00 2.470748499035835266e-02 3.492283448576927185e-02 1.788909547030925751e-02 -5.339102447032928467e-02
4.340000000000000000e+02 2.378907203674316406e+00 6.428192853927612305e-01 -3.492302298545837402e-01 -1.325295493006706238e-02 -1.087449565529823303e-01 1.945671588182449341e-01
4.350000000000000000e+02 6.141150951385498047e+00 -8.237398862838745117e-01 1.033774852752685547e+00 9.710548073053359985e-02 3.392640948295593262e-01 4.323894977569580078e-01
4.360000000000000000e+02 6.323180675506591797e+00 1.092329025268554688e+00 -2.670017778873443604e-01 1.019691228866577148e-01 -4.950979351997375488e-02 7.777820341289043427e-03
4.370000000000000000e+02 1.305986762046813965e+00 -1.038612484931945801e+00 -1.746861264109611511e-02 -9.973990730941295624e-03 -8.232780732214450836e-03 -9.932591766119003296e-02
4.380000000000000000e+02 8.587377548217773438e+00 -7.035877108573913574e-01 4.922403812408447266e+00 8.245241045951843262e-01 1.724078416824340820e+00 2.161863565444946289e+00
4.390000000000000000e+02 8.888291358947753906e+00 8.244770765304565430e-01 2.746472358703613281e+00 1.676327109336853027e+00 1.326839804649353027e+00 -2.537779092788696289e+00
4.400000000000000000e+02 9.206407070159912109e-01 -9.558174610137939453e-01 -2.793842554092407227e-02 -2.535201050341129303e-02 -1.598712988197803497e-02 -9.247780591249465942e-02
4.410000000000000000e+02 7.071588516235351562e+00 -7.870962619781494141e-01 1.842614650726318359e+00 1.607069969177246094e-01 6.009964942932128906e-01 6.872034668922424316e-01
4.420000000000000000e+02 6.807122230529785156e+00 8.832761049270629883e-01 -4.106415808200836182e-01 8.783408999443054199e-02 -9.684225171804428101e-02 -5.139858648180961609e-02
4.430000000000000000e+02 2.893933951854705811e-01 5.528285503387451172e-01 -1.065096724778413773e-02 -1.854711025953292847e-02 -8.759423159062862396e-03 1.205885689705610275e-02
4.440000000000000000e+02 8.357096672058105469e+00 7.064750790596008301e-01 8.929615616798400879e-01 4.226745963096618652e-01 3.946908414363861084e-01 -8.781995773315429688e-01
4.450000000000000000e+02 8.270479202270507812e+00 -1.023632287979125977e+00 4.388393878936767578e+00 1.092497348785400391e+00 1.644267439842224121e+00 2.406388998031616211e+00
4.460000000000000000e+02 7.560356140136718750e+00 -5.348212122917175293e-01 1.963366150856018066e+00 1.246371716260910034e-01 6.264010071754455566e-01 5.504231452941894531e-01
4.470000000000000000e+02 7.259362220764160156e+00 1.051796913146972656e+00 1.759907752275466919e-01 2.463728189468383789e-01 1.267090737819671631e-01 -3.523715734481811523e-01
4.480000000000000000e+02 7.634734630584716797e+00 -7.674847245216369629e-01 2.591691255569458008e+00 2.327080070972442627e-01 8.473197221755981445e-01 9.635076522827148438e-01
4.490000000000000000e+02 7.500674247741699219e+00 -1.233047172427177429e-01 7.189023494720458984e-01 2.630552090704441071e-02 2.235623747110366821e-01 1.119499728083610535e-01
4.500000000000000000e+02 8.504671096801757812e+00 -5.204694271087646484e-01 4.054721355438232422e+00 5.254293084144592285e-01 1.374045252799987793e+00 1.409784078598022461e+00
4.510000000000000000e+02 8.111049652099609375e+00 1.055274009704589844e+00 1.298441410064697266e+00 7.354795932769775391e-01 6.101763248443603516e-01 -1.191734313964843750e+00
4.520000000000000000e+02 7.257553100585937500e+00 -1.072890400886535645e+00 2.507081985473632812e+00 4.011248648166656494e-01 8.724620938301086426e-01 1.191275596618652344e+00
4.530000000000000000e+02 7.485047340393066406e+00 1.028296947479248047e+00 3.858655095100402832e-01 2.752001285552978516e-01 1.983196884393692017e-01 -4.660988152027130127e-01
4.540000000000000000e+02 7.503221988677978516e+00 -3.444402813911437988e-01 1.285265088081359863e+00 9.810851886868476868e-03 3.885228037834167480e-01 2.845707833766937256e-01
4.550000000000000000e+02 7.271910309791564941e-01 -4.768870770931243896e-01 -4.115052893757820129e-02 -1.492686290293931961e-02 -1.682321727275848389e-02 -5.478138849139213562e-02
4.560000000000000000e+02 5.073539614677429199e-01 3.733407557010650635e-01 -1.748124137520790100e-02 -1.342861447483301163e-02 -9.272956289350986481e-03 1.651782356202602386e-02
4.570000000000000000e+02 5.345447063446044922e-01 -5.940663814544677734e-01 -2.697711996734142303e-02 -3.235986828804016113e-02 -1.780109666287899017e-02 -5.303648486733436584e-02
4.580000000000000000e+02 8.786366462707519531e+00 -1.085190057754516602e+00 5.504097461700439453e+00 2.768001079559326172e+00 2.481629610061645508e+00 3.958210229873657227e+00
4.590000000000000000e+02 8.593629837036132812e+00 -1.034714937210083008e+00 5.195273399353027344e+00 1.760247111320495605e+00 2.086656093597412109e+00 3.222587108612060547e+00
4.600000000000000000e+02 6.814255237579345703e+00 -9.600764513015747070e-01 1.827506780624389648e+00 2.159993797540664673e-01 6.130518913269042969e-01 7.960517406463623047e-01
4.610000000000000000e+02 6.570720672607421875e+00 6.667274236679077148e-01 -9.092029333114624023e-01 2.618919312953948975e-02 -2.649041116237640381e-01 7.683768123388290405e-02
4.620000000000000000e+02 1.317675113677978516e+00 -7.443127632141113281e-01 -5.998709425330162048e-02 -1.242417027242481709e-03 -1.836885325610637665e-02 -8.750245720148086548e-02
4.630000000000000000e+02 1.223283410072326660e+00 8.314480781555175781e-01 -1.117921397089958191e-01 -6.003891304135322571e-02 -5.154931545257568359e-02 1.511823683977127075e-01
4.640000000000000000e+02 1.124009132385253906e+00 9.628332853317260742e-01 -9.650578349828720093e-02 -7.611005753278732300e-02 -5.178475379943847656e-02 1.599081456661224365e-01
4.650000000000000000e+02 1.105970025062561035e+00 -1.018557906150817871e+00 -1.767613179981708527e-02 -1.262870896607637405e-02 -9.091452695429325104e-03 -9.097571671009063721e-02
4.660000000000000000e+02 6.378637790679931641e+00 -9.857322573661804199e-01 1.434999704360961914e+00 1.559563279151916504e-01 4.772868156433105469e-01 6.361196637153625488e-01
4.670000000000000000e+02 5.866957187652587891e+00 1.163851737976074219e+00 -2.835272252559661865e-01 8.351366966962814331e-02 -6.000406667590141296e-02 8.472569286823272705e-02
4.680000000000000000e+02 1.514773011207580566e+00 -7.613509893417358398e-01 -6.478989124298095703e-02 -2.528129843994975090e-03 -2.019540593028068542e-02 -9.452399611473083496e-02
4.690000000000000000e+02 1.444802045822143555e+00 9.431028366088867188e-01 -1.373620331287384033e-01 -6.170005723834037781e-02 -5.971862748265266418e-02 1.859082579612731934e-01
4.700000000000000000e+02 5.619352817535400391e+00 7.003617882728576660e-01 -9.231118559837341309e-01 1.179653592407703400e-02 -2.733946144580841064e-01 1.651055961847305298e-01
4.710000000000000000e+02 5.872273445129394531e+00 -6.479326486587524414e-01 6.429977416992187500e-01 5.510738864541053772e-02 2.094315439462661743e-01 2.715637683868408203e-01
4.720000000000000000e+02 1.927343726158142090e+00 -8.159897327423095703e-01 -5.648985877633094788e-02 1.036093942821025848e-02 -1.383867580443620682e-02 -8.186594396829605103e-02
4.730000000000000000e+02 1.836697220802307129e+00 4.731300473213195801e-01 -2.441019564867019653e-01 -1.336179859936237335e-02 -7.723912596702575684e-02 1.303862631320953369e-01
4.740000000000000000e+02 4.484950065612792969e+00 -4.092569947242736816e-01 -1.197622790932655334e-01 1.588418707251548767e-02 -3.116342611610889435e-02 5.381612852215766907e-02
4.750000000000000000e+02 5.682041645050048828e+00 4.423465132713317871e-01 -1.270214438438415527e+00 1.967817312106490135e-03 -3.804740011692047119e-01 1.348707675933837891e-01
4.760000000000000000e+02 2.226099729537963867e+00 -6.453637480735778809e-01 -1.171547397971153259e-01 1.465179119259119034e-02 -3.075088560581207275e-02 -6.254348158836364746e-02
4.770000000000000000e+02 2.478810548782348633e+00 4.491901397705078125e-01 -4.153212308883666992e-01 -1.115989591926336288e-02 -1.279443353414535522e-01 1.435551196336746216e-01
4.780000000000000000e+02 5.702065944671630859e+00 9.720186591148376465e-01 -5.756269693374633789e-01 3.984584286808967590e-02 -1.607343405485153198e-01 1.518670171499252319e-01
4.790000000000000000e+02 9.861344695091247559e-01 4.200553297996520996e-01 -7.876710593700408936e-02 -1.990676112473011017e-02 -2.960216067731380463e-02 6.401606649160385132e-02
4.800000000000000000e+02 6.865882396697998047e+00 -6.946779489517211914e-01 1.479584455490112305e+00 8.663363009691238403e-02 4.698654115200042725e-01 5.206953287124633789e-01
4.810000000000000000e+02 2.091331005096435547e+00 -1.111598134040832520e+00 2.453862875699996948e-02 4.170466586947441101e-02 1.987298950552940369e-02 -5.576127767562866211e-02
4.820000000000000000e+02 7.375257492065429688e+00 -5.870767831802368164e-01 1.835019707679748535e+00 9.232129156589508057e-02 5.782023072242736816e-01 5.537582039833068848e-01
4.830000000000000000e+02 8.118208885192871094e+00 7.375722527503967285e-01 4.896866381168365479e-01 2.805262506008148193e-01 2.310638725757598877e-01 -6.480169296264648438e-01
4.840000000000000000e+02 7.182654380798339844e+00 8.083785176277160645e-01 -3.276548087596893311e-01 9.215620905160903931e-02 -7.064957916736602783e-02 -1.179414540529251099e-01
4.850000000000000000e+02 8.061659812927246094e+00 -7.544200420379638672e-01 3.468182563781738281e+00 3.776064515113830566e-01 1.153736710548400879e+00 1.361751079559326172e+00
4.860000000000000000e+02 2.288366317749023438e+00 1.105708003044128418e+00 -2.296530902385711670e-01 -4.005637764930725098e-02 -8.091284334659576416e-02 2.724186182022094727e-01
4.870000000000000000e+02 1.893611550331115723e+00 8.765718936920166016e-01 -2.184219807386398315e-01 -3.525220602750778198e-02 -7.610225677490234375e-02 2.073717415332794189e-01
4.880000000000000000e+02 5.572792530059814453e+00 -1.114845037460327148e+00 9.936716556549072266e-01 1.347549706697463989e-01 3.385280072689056396e-01 4.831709563732147217e-01
4.890000000000000000e+02 3.494744300842285156e+00 -7.762568593025207520e-01 1.972592202946543694e-03 3.466175124049186707e-02 1.099030300974845886e-02 3.187587857246398926e-02
4.900000000000000000e+02 4.491045475006103516e+00 -1.396871507167816162e-01 -3.896546065807342529e-01 2.916022203862667084e-04 -1.168089061975479126e-01 7.845623418688774109e-03
4.910000000000000000e+02 6.093074798583984375e+00 -6.247726082801818848e-01 7.418724894523620605e-01 3.896240890026092529e-02 2.342504709959030151e-01 2.853009700775146484e-01
4.920000000000000000e+02 1.616156101226806641e+00 4.187647104263305664e-01 -1.916577368974685669e-01 -1.988071948289871216e-02 -6.346153467893600464e-02 1.066521257162094116e-01
4.930000000000000000e+02 8.265336036682128906e+00 -7.771984934806823730e-01 3.959364175796508789e+00 5.944710969924926758e-01 1.366150498390197754e+00 1.713639736175537109e+00
4.940000000000000000e+02 3.040254831314086914e+00 -6.597338318824768066e-01 -1.001155823469161987e-01 2.550798654556274414e-02 -2.238227985799312592e-02 -1.482680812478065491e-02
4.950000000000000000e+02 3.182293653488159180e+00 -1.286990880966186523e+00 2.259304970502853394e-01 9.747564792633056641e-02 9.702184051275253296e-02 8.966873586177825928e-02
4.960000000000000000e+02 3.700124979019165039e+00 -8.394787311553955078e-01 7.162207365036010742e-02 4.044228419661521912e-02 3.361930698156356812e-02 5.917965248227119446e-02
4.970000000000000000e+02 3.234292745590209961e+00 -8.975617885589599609e-01 3.652877360582351685e-02 4.345316067337989807e-02 2.399457991123199463e-02 2.428973838686943054e-02
4.980000000000000000e+02 4.274090766906738281e+00 6.616340279579162598e-01 -7.724820971488952637e-01 -3.051685867831110954e-03 -2.326601296663284302e-01 2.107187807559967041e-01
4.990000000000000000e+02 4.685798168182373047e+00 8.589065670967102051e-01 -6.734404563903808594e-01 2.447917312383651733e-02 -1.946883797645568848e-01 2.465858459472656250e-01
5.000000000000000000e+02 4.787053108215332031e+00 -5.285969376564025879e-01 5.556996539235115051e-02 1.787325739860534668e-02 2.203296683728694916e-02 1.022020652890205383e-01
5.010000000000000000e+02 5.083986759185791016e+00 3.485971391201019287e-01 -1.272663831710815430e+00 3.052014391869306564e-03 -3.808835446834564209e-01 1.248333305120468140e-01
5.020000000000000000e+02 3.631146907806396484e+00 8.523319959640502930e-01 -5.368514060974121094e-01 -4.586795810610055923e-03 -1.624314486980438232e-01 2.675929069519042969e-01
5.030000000000000000e+02 4.899170875549316406e+00 1.217303648591041565e-01 -1.442309617996215820e+00 -3.613820997998118401e-03 -4.337770044803619385e-01 5.403897166252136230e-02
5.040000000000000000e+02 4.058701515197753906e+00 -3.757579624652862549e-01 -2.124865651130676270e-01 7.862080819904804230e-03 -6.138734892010688782e-02 1.916043460369110107e-02
5.050000000000000000e+02 4.264520168304443359e+00 -4.013584554195404053e-01 -1.621281504631042480e-01 1.382219977676868439e-02 -4.449178650975227356e-02 3.767322748899459839e-02
5.060000000000000000e+02 3.877544403076171875e+00 -3.376358151435852051e-01 -2.545965015888214111e-01 5.496803205460309982e-03 -7.472991198301315308e-02 1.229203213006258011e-02
5.070000000000000000e+02 3.712341070175170898e+00 1.157479882240295410e+00 -3.735208511352539062e-01 5.817458033561706543e-03 -1.103110164403915405e-01 3.009837567806243896e-01
5.080000000000000000e+02 4.289303779602050781e+00 -1.402549445629119873e-01 -4.034882187843322754e-01 3.176670754328370094e-03 -1.200934648513793945e-01 5.414830520749092102e-03
5.090000000000000000e+02 7.154691219329833984e-01 1.531558632850646973e-01 -1.881392858922481537e-02 -5.210147355683147907e-04 -5.800482816994190216e-03 1.179707236588001251e-02
5.100000000000000000e+02 1.283971667289733887e+00 1.132958233356475830e-01 -1.071166619658470154e-01 9.083937620744109154e-04 -3.186248242855072021e-02 2.266548387706279755e-02
5.110000000000000000e+02 1.194373726844787598e+00 2.879570126533508301e-01 -1.067916154861450195e-01 -9.230690076947212219e-03 -3.480669111013412476e-02 5.928824469447135925e-02
5.120000000000000000e+02 1.338330149650573730e+00 5.902330279350280762e-01 -1.346418708562850952e-01 -2.863717824220657349e-02 -4.898371547460556030e-02 1.125185713171958923e-01
5.130000000000000000e+02 2.866396605968475342e-01 -1.433311402797698975e-01 -5.050828680396080017e-03 -4.626440349966287613e-03 -2.903180895373225212e-03 -4.902279935777187347e-03
5.140000000000000000e+02 9.295687675476074219e-01 -4.499128460884094238e-01 -6.380489468574523926e-02 -7.383576594293117523e-03 -2.135654166340827942e-02 -5.958077311515808105e-02
5.150000000000000000e+02 1.123660087585449219e+00 -4.487942457199096680e-01 -8.215688169002532959e-02 -5.050521809607744217e-03 -2.616222016513347626e-02 -6.423667073249816895e-02
5.160000000000000000e+02 1.509488821029663086e+00 -1.704776585102081299e-01 -1.758518815040588379e-01 -1.719979802146553993e-03 -5.327155813574790955e-02 -2.846421115100383759e-02
5.170000000000000000e+02 1.318691968917846680e+00 -4.570011496543884277e-01 -1.035086289048194885e-01 -3.083792515099048615e-03 -3.197772800922393799e-02 -7.036677002906799316e-02
5.180000000000000000e+02 1.519290566444396973e+00 -4.702608585357666016e-01 -1.230514720082283020e-01 2.442231401801109314e-03 -3.618277236819267273e-02 -6.816145777702331543e-02
5.190000000000000000e+02 2.330801010131835938e+00 -1.092834845185279846e-01 -3.229802250862121582e-01 3.980000969022512436e-03 -9.570007026195526123e-02 -1.801951602101325989e-02
5.200000000000000000e+02 2.330002546310424805e+00 -4.076521396636962891e-01 -2.133805453777313232e-01 8.680240251123905182e-03 -6.141009181737899780e-02 -4.681417346000671387e-02
5.210000000000000000e+02 2.854635238647460938e+00 -3.763575851917266846e-01 -2.522591054439544678e-01 5.317230708897113800e-03 -7.408256083726882935e-02 -2.905082143843173981e-02
5.220000000000000000e+02 2.888637542724609375e+00 -1.353092640638351440e-01 -3.955766260623931885e-01 6.828605546616017818e-05 -1.186525002121925354e-01 -1.063782628625631332e-02
5.230000000000000000e+02 3.525556325912475586e+00 -4.008805751800537109e-01 -2.330390214920043945e-01 5.751518998295068741e-03 -6.818624585866928101e-02 -7.973159663379192352e-04
5.240000000000000000e+02 3.712824344635009766e+00 -3.425129950046539307e-01 -2.649222910404205322e-01 9.478288702666759491e-03 -7.663320004940032959e-02 6.991837173700332642e-03
5.250000000000000000e+02 3.153147101402282715e-01 -1.170158624649047852e+00 3.898888360708951950e-03 -1.105172038078308105e-01 -3.198549523949623108e-02 -5.860893428325653076e-02
5.260000000000000000e+02 1.098998665809631348e+00 1.383973240852355957e+00 -6.817124038934707642e-02 -1.290768980979919434e-01 -5.917444452643394470e-02 1.949021518230438232e-01
5.270000000000000000e+02 9.132696986198425293e-01 1.139184236526489258e+00 -5.564219132065773010e-02 -1.154079735279083252e-01 -5.131505057215690613e-02 1.505529582500457764e-01
5.280000000000000000e+02 1.297700524330139160e+00 1.380959510803222656e+00 -8.589740097522735596e-02 -1.080327779054641724e-01 -5.817905440926551819e-02 2.197403907775878906e-01
5.290000000000000000e+02 2.104677677154541016e+00 1.142934083938598633e+00 -2.005184143781661987e-01 -5.096322298049926758e-02 -7.544448971748352051e-02 2.686084210872650146e-01
5.300000000000000000e+02 2.105922222137451172e+00 1.380057573318481445e+00 -1.574221104383468628e-01 -6.366182863712310791e-02 -6.632518768310546875e-02 2.952544689178466797e-01
5.310000000000000000e+02 2.472120761871337891e+00 8.260114192962646484e-01 -3.290652930736541748e-01 -1.910956203937530518e-02 -1.044524535536766052e-01 2.386756390333175659e-01
5.320000000000000000e+02 2.684350728988647461e+00 1.070449829101562500e+00 -2.911865711212158203e-01 -2.428428083658218384e-02 -9.464125335216522217e-02 2.947703301906585693e-01
5.330000000000000000e+02 5.014388561248779297e-01 -1.180073738098144531e+00 -1.681966893374919891e-02 -8.493532985448837280e-02 -3.052649833261966705e-02 -8.172117173671722412e-02
5.340000000000000000e+02 1.898589730262756348e+00 -1.361667275428771973e+00 7.390274107456207275e-02 4.624147340655326843e-02 3.604326397180557251e-02 -5.422949418425559998e-02
5.350000000000000000e+02 2.706937789916992188e+00 -1.351746082305908203e+00 1.577503830194473267e-01 8.780732005834579468e-02 7.366731017827987671e-02 2.842997014522552490e-02
5.360000000000000000e+02 3.278998136520385742e+00 -1.419653534889221191e+00 2.625680565834045410e-01 1.097105890512466431e-01 1.116835996508598328e-01 1.058515310287475586e-01
5.370000000000000000e+02 3.459973573684692383e+00 -1.375302791595458984e+00 2.930769324302673340e-01 1.210154071450233459e-01 1.242277026176452637e-01 1.432661712169647217e-01
5.380000000000000000e+02 3.894383430480957031e+00 -1.369561672210693359e+00 4.323709011077880859e-01 1.169366762042045593e-01 1.647922694683074951e-01 2.194029539823532104e-01
5.390000000000000000e+02 4.101588249206542969e+00 -1.380870103836059570e+00 4.957993328571319580e-01 1.365822106599807739e-01 1.897144615650177002e-01 2.680585980415344238e-01
5.400000000000000000e+02 4.473862648010253906e+00 -1.373406052589416504e+00 6.246649026870727539e-01 1.518627256155014038e-01 2.329582870006561279e-01 3.427209854125976562e-01
5.410000000000000000e+02 4.413926601409912109e+00 -9.825900197029113770e-01 3.647002875804901123e-01 7.287234067916870117e-02 1.312717944383621216e-01 1.958969980478286743e-01
5.420000000000000000e+02 4.651007652282714844e+00 -1.034792780876159668e+00 4.848761260509490967e-01 8.475019037723541260e-02 1.708878874778747559e-01 2.500330209732055664e-01
5.430000000000000000e+02 2.698109626770019531e+00 1.353659868240356445e+00 -2.171570807695388794e-01 -3.731855750083923340e-02 -7.634269446134567261e-02 3.109102845191955566e-01
5.440000000000000000e+02 3.203837871551513672e+00 1.046766161918640137e+00 -3.709383904933929443e-01 -1.137345004826784134e-02 -1.146935522556304932e-01 2.956025898456573486e-01
5.450000000000000000e+02 3.536650180816650391e+00 1.156954050064086914e+00 -3.608533740043640137e-01 -3.839037672150880098e-04 -1.083711907267570496e-01 3.049963414669036865e-01
5.460000000000000000e+02 3.511688947677612305e+00 1.383489131927490234e+00 -2.616354823112487793e-01 2.474088454619050026e-03 -7.774841785430908203e-02 3.180236220359802246e-01
5.470000000000000000e+02 4.290624618530273438e+00 1.364819407463073730e+00 -3.037616312503814697e-01 3.346591815352439880e-02 -8.108871430158615112e-02 2.750828564167022705e-01
5.480000000000000000e+02 4.488964080810546875e+00 1.358513236045837402e+00 -2.924551069736480713e-01 4.684458673000335693e-02 -7.368315756320953369e-02 2.554263472557067871e-01
5.490000000000000000e+02 4.898042678833007812e+00 1.361506700515747070e+00 -2.575649619102478027e-01 6.439545005559921265e-02 -5.795085430145263672e-02 2.095036506652832031e-01
5.500000000000000000e+02 5.317640781402587891e+00 1.127145648002624512e+00 -4.254601001739501953e-01 5.764700099825859070e-02 -1.103439256548881531e-01 1.784863173961639404e-01
5.510000000000000000e+02 5.302229404449462891e+00 1.374965667724609375e+00 -1.966248452663421631e-01 8.545003086328506470e-02 -3.335244581103324890e-02 1.486743986606597900e-01
5.520000000000000000e+02 6.038267612457275391e+00 1.127481818199157715e+00 -2.829025983810424805e-01 1.061023324728012085e-01 -5.304008349776268005e-02 5.753064900636672974e-02
5.530000000000000000e+02 5.891308784484863281e+00 1.382144212722778320e+00 -3.897161781787872314e-02 1.585993319749832153e-01 3.588831797242164612e-02 4.111468326300382614e-03
5.540000000000000000e+02 5.990163803100585938e+00 9.407597780227661133e-01 -5.812839865684509277e-01 4.506141692399978638e-02 -1.608667671680450439e-01 1.142986491322517395e-01
5.550000000000000000e+02 6.492058277130126953e+00 1.148414731025695801e+00 -9.157063066959381104e-02 1.667140871286392212e-01 2.254303544759750366e-02 -7.672829926013946533e-02
5.560000000000000000e+02 6.495021343231201172e+00 1.377065539360046387e+00 2.117246687412261963e-01 2.275713831186294556e-01 1.317888200283050537e-01 -1.912835687398910522e-01
5.570000000000000000e+02 6.886942863464355469e+00 1.372913599014282227e+00 3.945224285125732422e-01 3.125836849212646484e-01 2.121318280696868896e-01 -3.673628568649291992e-01
5.580000000000000000e+02 7.049162387847900391e+00 1.097934365272521973e+00 1.169956699013710022e-01 2.098897844552993774e-01 9.806563705205917358e-02 -2.792187929153442383e-01
5.590000000000000000e+02 7.699464797973632812e+00 1.070272088050842285e+00 6.906356215476989746e-01 4.375238418579101562e-01 3.384478390216827393e-01 -7.018160820007324219e-01
5.600000000000000000e+02 7.895280361175537109e+00 1.076510429382324219e+00 9.910355806350708008e-01 5.165804028511047363e-01 4.522847831249237061e-01 -9.154081940650939941e-01
5.610000000000000000e+02 8.438706398010253906e+00 9.416235089302062988e-01 1.683812737464904785e+00 8.936251997947692871e-01 7.732313871383666992e-01 -1.564380645751953125e+00
5.620000000000000000e+02 8.499334335327148438e+00 1.141542434692382812e+00 2.179564476013183594e+00 1.544062972068786621e+00 1.117088198661804199e+00 -2.137223243713378906e+00
5.630000000000000000e+02 8.500323295593261719e+00 1.375605583190917969e+00 2.293208599090576172e+00 2.021830558776855469e+00 1.294511675834655762e+00 -2.491129398345947266e+00
5.640000000000000000e+02 9.372192382812500000e+00 1.157221794128417969e+00 3.058670759201049805e+00 6.589391231536865234e+00 2.894418478012084961e+00 -4.887690544128417969e+00
5.650000000000000000e+02 1.009897041320800781e+01 1.360965251922607422e+00 1.306701898574829102e+00 1.342949390411376953e+01 4.420858860015869141e+00 -3.102483034133911133e+00
5.660000000000000000e+02 1.029183864593505859e+01 1.070809483528137207e+00 1.886802315711975098e+00 1.649909019470214844e+01 5.515767574310302734e+00 -1.575280427932739258e+00
5.670000000000000000e+02 1.094621753692626953e+01 1.065440058708190918e+00 3.757836818695068359e+00 1.446327972412109375e+01 5.466335296630859375e+00 1.739190697669982910e+00
5.680000000000000000e+02 1.105038261413574219e+01 9.287655949592590332e-01 5.235813140869140625e+00 1.407632350921630859e+01 5.793641090393066406e+00 2.504124879837036133e+00
5.690000000000000000e+02 1.134867191314697266e+01 4.438386559486389160e-01 8.681431770324707031e+00 1.192969226837158203e+01 6.183337211608886719e+00 2.324896812438964844e+00
5.700000000000000000e+02 1.137658119201660156e+01 1.111932620406150818e-01 1.006223201751708984e+01 1.142395496368408203e+01 6.445856094360351562e+00 1.232769012451171875e+00
5.710000000000000000e+02 1.135768222808837891e+01 -8.660465478897094727e-02 1.030004501342773438e+01 1.133482170104980469e+01 6.490459918975830078e+00 4.374403953552246094e-01
5.720000000000000000e+02 1.114956474304199219e+01 -7.495307922363281250e-01 8.048147201538085938e+00 1.295302104949951172e+01 6.300350666046142578e+00 -1.590185880661010742e+00
5.730000000000000000e+02 1.055389499664306641e+01 -9.605528712272644043e-01 5.420339107513427734e+00 1.680706405639648438e+01 6.668220996856689453e+00 1.000327840447425842e-01
5.740000000000000000e+02 9.789915084838867188e+00 -1.310788512229919434e+00 4.140604972839355469e+00 1.170450592041015625e+01 4.753532886505126953e+00 5.340486049652099609e+00
5.750000000000000000e+02 9.878663063049316406e+00 -1.433499455451965332e+00 3.573465585708618164e+00 1.219006729125976562e+01 4.729059696197509766e+00 4.650887966156005859e+00
5.760000000000000000e+02 9.613013267517089844e+00 -1.223307251930236816e+00 4.908555507659912109e+00 1.009887981414794922e+01 4.502230644226074219e+00 5.930574417114257812e+00
5.770000000000000000e+02 9.401084899902343750e+00 -1.164552330970764160e+00 5.716975212097167969e+00 7.565192699432373047e+00 3.984650373458862305e+00 6.062747478485107422e+00
5.780000000000000000e+02 9.330183982849121094e+00 -1.384363412857055664e+00 4.932643413543701172e+00 7.182384014129638672e+00 3.634508371353149414e+00 5.537031173706054688e+00
5.790000000000000000e+02 8.930303573608398438e+00 -1.360448479652404785e+00 5.225983619689941406e+00 4.393272399902343750e+00 2.885776758193969727e+00 4.785891532897949219e+00
5.800000000000000000e+02 8.432847976684570312e+00 -8.934742808341979980e-01 4.591147422790527344e+00 1.080852389335632324e+00 1.701599955558776855e+00 2.361628293991088867e+00
5.810000000000000000e+02 7.889681339263916016e+00 -1.347106099128723145e+00 3.729278802871704102e+00 1.168801188468933105e+00 1.469424009323120117e+00 2.336538553237915039e+00
5.820000000000000000e+02 7.666182994842529297e+00 -1.057257175445556641e+00 3.200184345245361328e+00 5.587199330329895020e-01 1.127671360969543457e+00 1.557801365852355957e+00
5.830000000000000000e+02 7.463826179504394531e+00 -1.071149468421936035e+00 2.829339504241943359e+00 4.228937029838562012e-01 9.756699800491333008e-01 1.318737506866455078e+00
5.840000000000000000e+02 7.487630367279052734e+00 -1.353373289108276367e+00 3.125400066375732422e+00 7.689997553825378418e-01 1.168319940567016602e+00 1.816959977149963379e+00
5.850000000000000000e+02 6.558133602142333984e+00 -1.260167956352233887e+00 1.916349411010742188e+00 3.139321804046630859e-01 6.690844893455505371e-01 9.812905788421630859e-01
5.860000000000000000e+02 6.502818107604980469e+00 -1.416561841964721680e+00 1.938449621200561523e+00 3.901067972183227539e-01 6.985669136047363281e-01 1.091231822967529297e+00
5.870000000000000000e+02 5.915615558624267578e+00 -1.386669874191284180e+00 1.449120044708251953e+00 2.530358135700225830e-01 5.106467604637145996e-01 7.865142822265625000e-01
5.880000000000000000e+02 6.147385597229003906e+00 -1.184150934219360352e+00 1.444046854972839355e+00 2.010015398263931274e-01 4.935145378112792969e-01 7.068403959274291992e-01
5.890000000000000000e+02 5.952733516693115234e+00 -1.164222836494445801e+00 1.275604605674743652e+00 1.577666997909545898e-01 4.300114214420318604e-01 6.204468607902526855e-01
5.900000000000000000e+02 2.070889949798583984e+00 4.941557049751281738e-01 -3.016671836376190186e-01 -1.364610064774751663e-02 -9.459398686885833740e-02 1.461104601621627808e-01
5.910000000000000000e+02 4.889294624328613281e+00 -1.243731975555419922e-01 -3.330356776714324951e-01 -1.234216499142348766e-03 -1.002809628844261169e-01 1.963435672223567963e-02
5.920000000000000000e+02 5.086661815643310547e+00 -1.319323629140853882e-01 -2.951941490173339844e-01 2.024847315624356270e-03 -8.795078843832015991e-02 2.031680010259151459e-02
5.930000000000000000e+02 5.283787727355957031e+00 -1.421496123075485229e-01 -2.566782236099243164e-01 3.741614520549774170e-03 -7.588098198175430298e-02 2.487297169864177704e-02
5.940000000000000000e+02 5.454619407653808594e+00 -4.220358133316040039e-01 1.667944639921188354e-01 1.120842993259429932e-02 5.340087041258811951e-02 1.167849823832511902e-01
5.950000000000000000e+02 5.032251358032226562e+00 -9.147278070449829102e-01 5.379065871238708496e-01 8.038979023694992065e-02 1.854889243841171265e-01 2.702386081218719482e-01
5.960000000000000000e+02 5.672704696655273438e+00 -4.032779037952423096e-01 2.275462150573730469e-01 1.851320266723632812e-02 7.381782680749893188e-02 1.245251372456550598e-01
5.970000000000000000e+02 5.689333438873291016e+00 -1.425580382347106934e-01 -1.557624340057373047e-01 -1.883594522951170802e-04 -4.678523540496826172e-02 3.833556920289993286e-02
5.980000000000000000e+02 6.094984531402587891e+00 -1.345948725938796997e-01 -2.693745307624340057e-02 -1.339304260909557343e-03 -8.483027108013629913e-03 4.369124770164489746e-02
5.990000000000000000e+02 6.499288082122802734e+00 -3.624794781208038330e-01 5.663298964500427246e-01 2.436245419085025787e-02 1.772077083587646484e-01 1.811801344156265259e-01
6.000000000000000000e+02 6.500439167022705078e+00 -1.290287375450134277e-01 1.307172924280166626e-01 4.943698295392096043e-04 3.936349973082542419e-02 5.439744144678115845e-02
6.010000000000000000e+02 6.907692909240722656e+00 -4.148274362087249756e-01 9.852463006973266602e-01 4.146512597799301147e-02 3.080134093761444092e-01 2.742227315902709961e-01
6.020000000000000000e+02 6.903815746307373047e+00 -1.389468610286712646e-01 3.203069269657135010e-01 -9.787113405764102936e-03 9.315594285726547241e-02 6.499232351779937744e-02
6.030000000000000000e+02 7.121029853820800781e+00 -4.067460894584655762e-01 1.142294287681579590e+00 2.171041257679462433e-02 3.492014110088348389e-01 2.860542535781860352e-01
6.040000000000000000e+02 7.673297882080078125e+00 -3.812748491764068604e-01 1.684282183647155762e+00 1.165714338421821594e-01 5.402560830116271973e-01 4.318251907825469971e-01
6.050000000000000000e+02 8.090831756591796875e+00 -4.654213786125183105e-01 2.731240749359130859e+00 1.405562609434127808e-01 8.615391254425048828e-01 7.359336018562316895e-01
6.060000000000000000e+02 8.513357162475585938e+00 -9.385216236114501953e-02 1.733016610145568848e+00 -6.501708179712295532e-03 5.179544687271118164e-01 1.003420650959014893e-01
6.070000000000000000e+02 8.694006919860839844e+00 -9.929644316434860229e-02 2.185240030288696289e+00 1.430574953556060791e-01 6.984892487525939941e-01 2.731215357780456543e-01
6.080000000000000000e+02 8.780900955200195312e+00 -5.805974006652832031e-01 5.421372413635253906e+00 8.987607359886169434e-01 1.896039962768554688e+00 2.198848962783813477e+00
6.090000000000000000e+02 9.002408027648925781e+00 -5.003924965858459473e-01 6.323222160339355469e+00 1.026862263679504395e+00 2.205025434494018555e+00 2.680472850799560547e+00
6.100000000000000000e+02 2.677865982055664062e+00 4.797182679176330566e-01 -4.574198424816131592e-01 -6.649286951869726181e-03 -1.392207443714141846e-01 1.589834094047546387e-01
6.110000000000000000e+02 3.502223491668701172e+00 1.595564931631088257e-01 -8.602039813995361328e-01 -4.312291741371154785e-03 -2.593548893928527832e-01 6.504078209400177002e-02
6.120000000000000000e+02 4.110939979553222656e+00 1.544675827026367188e-01 -1.108369231224060059e+00 4.522330709733068943e-04 -3.323751091957092285e-01 6.764797866344451904e-02
6.130000000000000000e+02 4.331385135650634766e+00 4.170958399772644043e-01 -9.874078631401062012e-01 6.998633616603910923e-04 -2.960124015808105469e-01 1.586383283138275146e-01
6.140000000000000000e+02 4.723761558532714844e+00 6.832276582717895508e-01 -8.340246081352233887e-01 5.065836012363433838e-03 -2.486876249313354492e-01 2.027705609798431396e-01
6.150000000000000000e+02 5.272310256958007812e+00 3.729754388332366943e-01 -1.294190526008605957e+00 3.454685211181640625e-03 -3.872207403182983398e-01 1.310473978519439697e-01
6.160000000000000000e+02 5.293497562408447266e+00 1.325630992650985718e-01 -1.591130375862121582e+00 -4.547246266156435013e-03 -4.787032902240753174e-01 5.142504349350929260e-02
6.170000000000000000e+02 5.232282638549804688e+00 6.048842072486877441e-01 -1.010247707366943359e+00 3.348868107423186302e-03 -3.020696640014648438e-01 1.775566935539245605e-01
6.180000000000000000e+02 8.746415138244628906e+00 3.600572347640991211e-01 -3.802602738142013550e-02 6.697995960712432861e-02 8.686178363859653473e-03 -4.542662799358367920e-01
6.190000000000000000e+02 8.305797576904296875e+00 1.427644640207290649e-01 -2.292777776718139648e+00 1.011467911303043365e-02 -6.847988963127136230e-01 2.836743183434009552e-02
6.200000000000000000e+02 7.901810646057128906e+00 1.449706256389617920e-01 -2.292948722839355469e+00 4.383751377463340759e-02 -6.747334003448486328e-01 2.636881917715072632e-02
6.210000000000000000e+02 7.500181674957275391e+00 4.128713011741638184e-01 -1.325286269187927246e+00 -1.073770504444837570e-02 -4.008071720600128174e-01 1.378269866108894348e-02
6.220000000000000000e+02 7.501165390014648438e+00 1.396588683128356934e-01 -2.239552497863769531e+00 6.906190887093544006e-03 -6.697939038276672363e-01 3.491072356700897217e-02
6.230000000000000000e+02 6.921849727630615234e+00 3.830473423004150391e-01 -1.499036431312561035e+00 1.257552020251750946e-02 -4.459382891654968262e-01 6.165051460266113281e-02
6.240000000000000000e+02 6.729214191436767578e+00 3.933477997779846191e-01 -1.483472347259521484e+00 5.427723750472068787e-03 -4.434133768081665039e-01 8.743871003389358521e-02
6.250000000000000000e+02 6.333845615386962891e+00 4.256263971328735352e-01 -1.400541305541992188e+00 4.838607739657163620e-03 -4.187107980251312256e-01 1.030864194035530090e-01
6.260000000000000000e+02 6.309340953826904297e+00 1.476686298847198486e-01 -1.933103322982788086e+00 2.677899785339832306e-03 -5.791276097297668457e-01 6.333318352699279785e-02
6.270000000000000000e+02 5.493331432342529297e+00 1.431408077478408813e-01 -1.660073757171630859e+00 -3.663733601570129395e-03 -4.991212487220764160e-01 5.735209956765174866e-02
6.280000000000000000e+02 8.807046890258789062e+00 5.908421874046325684e-01 1.724693655967712402e+00 6.463679671287536621e-01 7.113184928894042969e-01 -1.402094364166259766e+00
6.290000000000000000e+02 9.641102790832519531e+00 1.027891039848327637e+00 2.877659320831298828e+00 9.931047439575195312e+00 3.842612028121948242e+00 -5.553412914276123047e+00
6.300000000000000000e+02 9.723552703857421875e+00 1.164067268371582031e+00 2.289023876190185547e+00 1.084302234649658203e+01 3.939614057540893555e+00 -5.132493019104003906e+00
6.310000000000000000e+02 9.169920921325683594e+00 -7.426183819770812988e-01 7.136220455169677734e+00 3.312181949615478516e+00 3.134520769119262695e+00 4.767269611358642578e+00
6.320000000000000000e+02 9.013514518737792969e+00 -8.671277761459350586e-01 6.424268245697021484e+00 3.203883171081542969e+00 2.888445377349853516e+00 4.439782142639160156e+00
6.330000000000000000e+02 1.013618946075439453e+01 -1.204873919486999512e+00 3.801189184188842773e+00 1.474234771728515625e+01 5.563061237335205078e+00 3.567286729812622070e+00
6.340000000000000000e+02 1.096621036529541016e+01 -5.681729912757873535e-01 9.696679115295410156e+00 1.416247081756591797e+01 7.157745361328125000e+00 -1.670435309410095215e+00
6.350000000000000000e+02 1.110134124755859375e+01 4.364140033721923828e-01 9.222301483154296875e+00 1.346573066711425781e+01 6.806409358978271484e+00 2.708922624588012695e+00
6.360000000000000000e+02 1.073451900482177734e+01 1.042677521705627441e+00 3.433454036712646484e+00 1.582937431335449219e+01 5.778848648071289062e+00 1.333752036094665527e+00
6.370000000000000000e+02 7.196813225746154785e-01 1.133157849311828613e+00 -3.972126543521881104e-02 -9.763298183679580688e-02 -4.120627418160438538e-02 1.189064756035804749e-01
6.380000000000000000e+02 5.095959901809692383e-01 9.234093427658081055e-01 -1.358791906386613846e-02 -7.047033309936523438e-02 -2.521747536957263947e-02 6.001943722367286682e-02
6.390000000000000000e+02 9.473596811294555664e-01 8.759135007858276367e-01 -7.140018045902252197e-02 -6.036413088440895081e-02 -3.952929377555847168e-02 1.153463348746299744e-01
6.400000000000000000e+02 8.585849761962890625e+00 6.451504826545715332e-01 1.274770259857177734e+00 4.619525372982025146e-01 5.210168361663818359e-01 -1.088049888610839844e+00
6.410000000000000000e+02 3.430184721946716309e-01 -6.891425848007202148e-01 -1.197055634111166000e-02 -4.372150450944900513e-02 -1.670761778950691223e-02 -4.153918847441673279e-02
6.420000000000000000e+02 8.211489915847778320e-01 -1.136243939399719238e+00 -1.372936833649873734e-02 -4.382093995809555054e-02 -1.726509258151054382e-02 -9.177203476428985596e-02
6.430000000000000000e+02 7.618465423583984375e-01 -8.771122694015502930e-01 -2.158398739993572235e-02 -4.309291765093803406e-02 -1.940307021141052246e-02 -8.501214534044265747e-02
6.440000000000000000e+02 1.128251910209655762e+00 -7.265512347221374512e-01 -5.635705590248107910e-02 -1.152559742331504822e-02 -2.036479674279689789e-02 -8.913471549749374390e-02
6.450000000000000000e+02 7.798145771026611328e+00 8.820459842681884766e-01 4.321865439414978027e-01 2.924088239669799805e-01 2.173786163330078125e-01 -5.502018928527832031e-01
6.460000000000000000e+02 7.292043209075927734e+00 6.492977738380432129e-01 -6.589055061340332031e-01 7.339815795421600342e-02 -1.756521910429000854e-01 -7.364220172166824341e-02
6.470000000000000000e+02 7.491149425506591797e+00 7.071627378463745117e-01 -3.894965052604675293e-01 1.188143566250801086e-01 -8.120464533567428589e-02 -1.749085187911987305e-01
6.480000000000000000e+02 7.897399425506591797e+00 6.969326734542846680e-01 2.019714564085006714e-02 2.047678381204605103e-01 6.748949736356735229e-02 -3.991822302341461182e-01
6.490000000000000000e+02 7.121828079223632812e+00 6.090865731239318848e-01 -9.270689487457275391e-01 4.598413035273551941e-02 -2.643254399299621582e-01 -8.461025543510913849e-03
6.500000000000000000e+02 6.947204589843750000e+00 6.253395080566406250e-01 -9.336310029029846191e-01 3.619844838976860046e-02 -2.692297697067260742e-01 3.644591942429542542e-02
6.510000000000000000e+02 6.761960983276367188e+00 6.432615518569946289e-01 -9.193621873855590820e-01 4.298937320709228516e-02 -2.629118561744689941e-01 5.462837219238281250e-02
6.520000000000000000e+02 6.371105194091796875e+00 7.061058282852172852e-01 -8.641600608825683594e-01 3.468405082821846008e-02 -2.488427907228469849e-01 9.447465091943740845e-02
6.530000000000000000e+02 5.778918266296386719e+00 8.067899346351623535e-01 -8.073066473007202148e-01 2.722901478409767151e-02 -2.340232878923416138e-01 1.418402642011642456e-01
6.540000000000000000e+02 5.950025081634521484e+00 7.224904298782348633e-01 -8.763727545738220215e-01 2.392032928764820099e-02 -2.557357251644134521e-01 1.269433796405792236e-01
6.550000000000000000e+02 5.419727802276611328e+00 6.486015915870666504e-01 -9.857919216156005859e-01 1.147175300866365433e-02 -2.922960519790649414e-01 1.757376939058303833e-01
6.560000000000000000e+02 5.058570861816406250e+00 5.610458850860595703e-01 -1.028455853462219238e+00 1.323720067739486694e-02 -3.045656085014343262e-01 1.760969310998916626e-01
6.570000000000000000e+02 6.443637371063232422e+00 9.457973241806030273e-01 -4.470691680908203125e-01 7.219933718442916870e-02 -1.124609485268592834e-01 1.697372295893728733e-03
6.580000000000000000e+02 8.837642669677734375e+00 -7.290750741958618164e-01 5.911833286285400391e+00 1.456650733947753906e+00 2.210545301437377930e+00 2.983118057250976562e+00
6.590000000000000000e+02 8.703968048095703125e+00 -8.356453180313110352e-01 5.429371356964111328e+00 1.540389776229858398e+00 2.090928316116333008e+00 2.926884651184082031e+00
6.600000000000000000e+02 8.839380264282226562e+00 -8.827289342880249023e-01 6.066016197204589844e+00 2.185747146606445312e+00 2.475528955459594727e+00 3.736993074417114258e+00
6.610000000000000000e+02 7.849783420562744141e+00 -7.420578598976135254e-01 2.999418497085571289e+00 3.072457015514373779e-01 9.919992685317993164e-01 1.112372398376464844e+00
6.620000000000000000e+02 7.432171344757080078e+00 -8.125846982002258301e-01 2.368992090225219727e+00 2.769699990749359131e-01 7.937886714935302734e-01 9.518281817436218262e-01
6.630000000000000000e+02 7.247812271118164062e+00 -8.348821401596069336e-01 2.178792953491210938e+00 2.113133519887924194e-01 7.170318961143493652e-01 8.430966734886169434e-01
6.640000000000000000e+02 6.707566261291503906e+00 -1.137985229492187500e+00 1.944822430610656738e+00 2.707952857017517090e-01 6.646853089332580566e-01 9.249295592308044434e-01
6.650000000000000000e+02 6.152390956878662109e+00 9.818547368049621582e-01 -4.468857049942016602e-01 7.600741833448410034e-02 -1.112634837627410889e-01 5.733747780323028564e-02
6.660000000000000000e+02 5.166089534759521484e+00 8.400604128837585449e-01 -7.313907742500305176e-01 2.068104967474937439e-02 -2.132129222154617310e-01 2.075083255767822266e-01
6.670000000000000000e+02 4.488036632537841797e+00 7.870783209800720215e-01 -7.157773375511169434e-01 8.943936787545681000e-03 -2.120500206947326660e-01 2.351147979497909546e-01
6.680000000000000000e+02 3.789488315582275391e+00 9.651583433151245117e-01 -4.868052303791046143e-01 2.914712764322757721e-03 -1.451671570539474487e-01 2.846418023109436035e-01
6.690000000000000000e+02 3.485383033752441406e+00 9.789987802505493164e-01 -4.470387101173400879e-01 -1.879631192423403263e-03 -1.346755027770996094e-01 2.922918200492858887e-01
6.700000000000000000e+02 3.102208375930786133e+00 4.528451859951019287e-01 -5.858266353607177734e-01 -2.885664813220500946e-03 -1.766136884689331055e-01 1.625485271215438843e-01
6.710000000000000000e+02 2.668821096420288086e+00 7.853702306747436523e-01 -3.829573094844818115e-01 -1.730288378894329071e-02 -1.200780570507049561e-01 2.346597462892532349e-01
6.720000000000000000e+02 2.879905700683593750e+00 1.040180444717407227e+00 -3.284951150417327881e-01 -1.909018307924270630e-02 -1.042755916714668274e-01 2.933662831783294678e-01
6.730000000000000000e+02 2.283032178878784180e+00 8.337278962135314941e-01 -2.866336405277252197e-01 -2.899608202278614044e-02 -9.468891471624374390e-02 2.282698005437850952e-01
6.740000000000000000e+02 2.023591279983520508e+00 9.913223981857299805e-01 -2.242007106542587280e-01 -4.204817116260528564e-02 -7.987466454505920410e-02 2.472050935029983521e-01
6.750000000000000000e+02 1.773169398307800293e+00 1.094848155975341797e+00 -1.631538271903991699e-01 -6.382397562265396118e-02 -6.809333711862564087e-02 2.372809946537017822e-01
6.760000000000000000e+02 1.610540509223937988e+00 9.875396490097045898e-01 -1.533512920141220093e-01 -5.514773726463317871e-02 -6.254971027374267578e-02 2.081553786993026733e-01
6.770000000000000000e+02 7.322433948516845703e+00 -3.674551546573638916e-01 1.216453313827514648e+00 5.402307584881782532e-02 3.811429142951965332e-01 2.736545801162719727e-01
6.780000000000000000e+02 7.189186573028564453e+00 -6.365131139755249023e-01 1.699430823326110840e+00 1.152847856283187866e-01 5.444146990776062012e-01 5.723958611488342285e-01
6.790000000000000000e+02 6.494585990905761719e+00 -5.667870044708251953e-01 8.787278532981872559e-01 2.241441234946250916e-02 2.703426778316497803e-01 2.981455326080322266e-01
6.800000000000000000e+02 6.665716648101806641e+00 -6.086487770080566406e-01 1.125010490417480469e+00 8.742458373308181763e-02 3.637305200099945068e-01 3.992680609226226807e-01
6.810000000000000000e+02 5.662438392639160156e+00 -6.451626420021057129e-01 5.090922713279724121e-01 3.585588186979293823e-02 1.634844541549682617e-01 2.372430115938186646e-01
6.820000000000000000e+02 5.153976440429687500e+00 -6.769131422042846680e-01 3.445539772510528564e-01 4.499790072441101074e-02 1.168655604124069214e-01 1.895331740379333496e-01
6.830000000000000000e+02 4.689115524291992188e+00 -3.678166568279266357e-01 -1.153933480381965637e-01 8.450496941804885864e-03 -3.208285570144653320e-02 5.467391759157180786e-02
6.840000000000000000e+02 4.881676197052001953e+00 -8.163195252418518066e-01 3.618374168872833252e-01 5.421438068151473999e-02 1.248155385255813599e-01 1.960545033216476440e-01
6.850000000000000000e+02 4.461433410644531250e+00 -6.964415907859802246e-01 1.327465921640396118e-01 3.289170563220977783e-02 4.969149082899093628e-02 1.097209528088569641e-01
6.860000000000000000e+02 4.224597930908203125e+00 -6.622968316078186035e-01 5.355796590447425842e-02 3.677506372332572937e-02 2.709990926086902618e-02 8.591315895318984985e-02
6.870000000000000000e+02 3.801926136016845703e+00 -5.143706202507019043e-01 -1.253951936960220337e-01 1.285610068589448929e-02 -3.376172855496406555e-02 2.477691508829593658e-02
6.880000000000000000e+02 3.630661249160766602e+00 -6.272665858268737793e-01 -6.776551902294158936e-02 2.282644994556903839e-02 -1.348172128200531006e-02 2.573868818581104279e-02
6.890000000000000000e+02 2.568556547164916992e+00 -5.380747914314270020e-01 -1.637614518404006958e-01 1.347502600401639938e-02 -4.508592933416366577e-02 -4.497442767024040222e-02
6.900000000000000000e+02 1.276379942893981934e+00 9.805626869201660156e-01 -1.150068268179893494e-01 -6.433310359716415405e-02 -5.380197986960411072e-02 1.742241829633712769e-01
6.910000000000000000e+02 1.473438262939453125e+00 1.130170464515686035e+00 -1.260006129741668701e-01 -7.504922896623611450e-02 -6.031495332717895508e-02 2.195324748754501343e-01
6.920000000000000000e+02 6.174290180206298828e+00 -9.929761886596679688e-01 1.297716736793518066e+00 1.405358761548995972e-01 4.314757883548736572e-01 5.702931284904479980e-01
6.930000000000000000e+02 5.829972267150878906e+00 -8.968052864074707031e-01 9.185280203819274902e-01 8.733315765857696533e-02 3.017583489418029785e-01 4.116844832897186279e-01
6.940000000000000000e+02 5.305361270904541016e+00 -7.824894189834594727e-01 4.986692368984222412e-01 5.052062124013900757e-02 1.647569537162780762e-01 2.443429827690124512e-01
6.950000000000000000e+02 4.869118213653564453e+00 -1.037578105926513672e+00 5.709490776062011719e-01 9.116559475660324097e-02 1.986344009637832642e-01 2.836827337741851807e-01
6.960000000000000000e+02 4.970853805541992188e+00 -6.024886965751647949e-01 1.951075792312622070e-01 3.626207262277603149e-02 6.941089779138565063e-02 1.422659754753112793e-01
6.970000000000000000e+02 6.597208976745605469e+00 -9.410620927810668945e-01 1.559813141822814941e+00 1.467825770378112793e-01 5.119787454605102539e-01 6.595559120178222656e-01
6.980000000000000000e+02 1.099483966827392578e+00 6.637505888938903809e-01 -9.859477728605270386e-02 -3.655705973505973816e-02 -4.054555296897888184e-02 1.083710938692092896e-01
6.990000000000000000e+02 4.873821258544921875e+00 8.694833517074584961e-01 -6.787213683128356934e-01 1.575178280472755432e-02 -1.988908797502517700e-01 2.339322268962860107e-01
7.000000000000000000e+02 4.735702037811279297e+00 5.310602784156799316e-01 -1.013303399085998535e+00 -1.735237747197970748e-04 -3.040430843830108643e-01 1.645053476095199585e-01
7.010000000000000000e+02 4.781222641468048096e-01 7.325435876846313477e-01 -2.832522615790367126e-02 -5.317806079983711243e-02 -2.445098571479320526e-02 4.970152676105499268e-02
7.020000000000000000e+02 6.524793505668640137e-01 6.480366587638854980e-01 -4.168545454740524292e-02 -3.639448434114456177e-02 -2.342398278415203094e-02 5.941608548164367676e-02
7.030000000000000000e+02 5.329104065895080566e-01 -9.645437002182006836e-01 -9.891452267765998840e-03 -6.495709717273712158e-02 -2.245456539094448090e-02 -7.214910537004470825e-02
7.040000000000000000e+02 7.783585786819458008e-01 -7.012048959732055664e-01 -3.675799444317817688e-02 -2.663852274417877197e-02 -1.901895552873611450e-02 -7.238796353340148926e-02
7.050000000000000000e+02 6.917028427124023438e-01 -1.030764341354370117e+00 -2.907202020287513733e-02 -3.968394920229911804e-02 -2.062679082155227661e-02 -8.739882707595825195e-02
7.060000000000000000e+02 6.293925642967224121e-01 -7.808761000633239746e-01 -2.069582603871822357e-02 -3.355947881937026978e-02 -1.627659052610397339e-02 -6.502352654933929443e-02
7.070000000000000000e+02 9.472883939743041992e-01 -7.062159180641174316e-01 -4.339047148823738098e-02 -1.646818965673446655e-02 -1.795759797096252441e-02 -8.207023888826370239e-02
7.080000000000000000e+02 4.776030778884887695e-01 5.666073560714721680e-01 -2.402537502348423004e-02 -2.843802608549594879e-02 -1.573901996016502380e-02 3.004696406424045563e-02
7.090000000000000000e+02 1.538459300994873047e+00 6.425859332084655762e-01 -1.708312183618545532e-01 -2.816712111234664917e-02 -5.969950184226036072e-02 1.427933126688003540e-01
7.100000000000000000e+02 5.843770027160644531e+00 9.733428359031677246e-01 -5.671535134315490723e-01 5.380609259009361267e-02 -1.540042310953140259e-01 1.311144977807998657e-01
7.110000000000000000e+02 4.688058853149414062e+00 -7.520776391029357910e-01 2.319620847702026367e-01 4.392982646822929382e-02 8.276757597923278809e-02 1.447769254446029663e-01
7.120000000000000000e+02 1.718168497085571289e+00 -7.818244099617004395e-01 -6.871753185987472534e-02 1.130241248756647110e-02 -1.722453534603118896e-02 -8.614904433488845825e-02
7.130000000000000000e+02 2.141017913818359375e+00 -8.937534093856811523e-01 -4.099324718117713928e-02 3.193549811840057373e-02 -2.717324765399098396e-03 -7.234989851713180542e-02
7.140000000000000000e+02 3.295278072357177734e+00 4.408143162727355957e-01 -6.603469848632812500e-01 -5.753789562731981277e-03 -1.998302340507507324e-01 1.594756096601486206e-01
7.150000000000000000e+02 3.908945798873901367e+00 7.542336583137512207e-01 -6.520568728446960449e-01 -3.594281151890754700e-03 -1.966953426599502563e-01 2.366741597652435303e-01
7.160000000000000000e+02 4.898604869842529297e+00 3.364383876323699951e-01 -1.234897851943969727e+00 8.180153556168079376e-03 -3.680152893066406250e-01 1.278121620416641235e-01
7.170000000000000000e+02 4.172647476196289062e+00 -9.147674441337585449e-01 2.235366404056549072e-01 5.742141231894493103e-02 8.428741246461868286e-02 1.342482864856719971e-01
7.180000000000000000e+02 4.341487407684326172e+00 -1.208051443099975586e+00 4.801453649997711182e-01 1.146005168557167053e-01 1.784237623214721680e-01 2.515105903148651123e-01
7.190000000000000000e+02 3.930785894393920898e+00 -8.624976873397827148e-01 1.310163885354995728e-01 5.383365228772163391e-02 5.545501038432121277e-02 9.035679697990417480e-02
7.200000000000000000e+02 3.666007995605468750e+00 -1.085257411003112793e+00 2.091138660907745361e-01 7.538002729415893555e-02 8.534816652536392212e-02 1.069936454296112061e-01
7.210000000000000000e+02 3.434339046478271484e+00 -1.001948237419128418e+00 1.187797188758850098e-01 5.529141426086425781e-02 5.222133919596672058e-02 5.797792226076126099e-02
7.220000000000000000e+02 3.152985572814941406e+00 -1.041568875312805176e+00 9.066709876060485840e-02 6.096832081675529480e-02 4.549062624573707581e-02 3.138962015509605408e-02
7.230000000000000000e+02 3.014698266983032227e+00 -1.173652768135070801e+00 1.418949812650680542e-01 7.435563951730728149e-02 6.487518548965454102e-02 3.717255964875221252e-02
7.240000000000000000e+02 3.278838396072387695e+00 -6.853585243225097656e-01 -6.021135672926902771e-02 2.519937977194786072e-02 -1.050359290093183517e-02 4.022416658699512482e-03
7.250000000000000000e+02 5.003881931304931641e+00 7.624759674072265625e-01 -7.875332236289978027e-01 1.473741978406906128e-02 -2.318387329578399658e-01 2.088859677314758301e-01
7.260000000000000000e+02 4.868101119995117188e+00 7.044153809547424316e-01 -8.467223644256591797e-01 1.929847407154738903e-03 -2.534377574920654297e-01 2.008209079504013062e-01
7.270000000000000000e+02 2.721965551376342773e+00 -8.490000367164611816e-01 -3.562322258949279785e-02 3.710636124014854431e-02 4.449421248864382505e-04 -3.145506978034973145e-02
7.280000000000000000e+02 6.305780887603759766e+00 -5.861872434616088867e-01 8.090668320655822754e-01 4.844221472740173340e-02 2.572527229785919189e-01 2.880562841892242432e-01
7.290000000000000000e+02 6.341193199157714844e+00 -7.839299440383911133e-01 1.130684494972229004e+00 7.551789283752441406e-02 3.618607223033905029e-01 4.472378790378570557e-01
7.300000000000000000e+02 2.076251029968261719e+00 7.923982143402099609e-01 -2.516955137252807617e-01 -2.885976620018482208e-02 -8.416657894849777222e-02 2.106127887964248657e-01
7.310000000000000000e+02 3.048688173294067383e+00 -8.854083418846130371e-01 1.569442451000213623e-02 3.879425674676895142e-02 1.634660363197326660e-02 2.002722816541790962e-03
7.320000000000000000e+02 3.992599487304687500e+00 -6.138769388198852539e-01 -3.471747040748596191e-02 2.425662614405155182e-02 -3.138252766802906990e-03 5.488694831728935242e-02
7.330000000000000000e+02 4.893347263336181641e+00 5.319082140922546387e-01 -1.023419737815856934e+00 5.542232654988765717e-03 -3.053632676601409912e-01 1.716752201318740845e-01
7.340000000000000000e+02 4.594274997711181641e+00 5.978508591651916504e-01 -9.042885303497314453e-01 4.317895043641328812e-03 -2.699911892414093018e-01 1.856532692909240723e-01
7.350000000000000000e+02 3.709774494171142578e+00 6.789032220840454102e-01 -6.603175997734069824e-01 -5.210397765040397644e-03 -1.996584087610244751e-01 2.170252203941345215e-01
7.360000000000000000e+02 5.307242870330810547e-01 -1.031174850463867188e+01 -1.500007323920726776e-02 2.893012762069702148e+00 8.634037971496582031e-01 2.251882851123809814e-01
7.370000000000000000e+02 9.927767753601074219e+00 -1.645821380615234375e+01 -7.130484580993652344e-01 1.720025897026062012e+00 3.020932376384735107e-01 1.536363244056701660e+00
7.380000000000000000e+02 1.136532592773437500e+01 -1.616921997070312500e+01 -4.402960300445556641e+00 -3.803651547059416771e-03 -1.322029232978820801e+00 4.521058201789855957e-01
7.390000000000000000e+02 1.278046226501464844e+01 -1.612652015686035156e+01 -6.602526664733886719e+00 -4.230306148529052734e-01 -2.107667207717895508e+00 1.009724855422973633e+00
7.400000000000000000e+02 1.618911170959472656e+01 -1.575337028503417969e+01 -3.799229860305786133e+00 -1.319193281233310699e-02 -1.143726587295532227e+00 5.196499228477478027e-01
7.410000000000000000e+02 1.860540390014648438e+01 -1.450285625457763672e+01 -2.214586257934570312e+00 5.948581695556640625e-01 -4.859184622764587402e-01 -1.937956362962722778e-01
7.420000000000000000e+02 1.973571586608886719e+01 -8.473566770553588867e-01 3.531385898590087891e+00 1.472433805465698242e+00 1.501145839691162109e+00 -1.639583826065063477e+00
7.430000000000000000e+02 2.071782302856445312e+01 3.806708574295043945e+00 3.300242125988006592e-01 8.820633888244628906e-01 3.636262714862823486e-01 -4.853735864162445068e-01
7.440000000000000000e+02 2.003283309936523438e+01 5.012685298919677734e+00 2.372481971979141235e-01 1.322107553482055664e+00 4.678066968917846680e-01 -4.223397076129913330e-01
7.450000000000000000e+02 1.843186187744140625e+01 5.643225669860839844e+00 1.550260484218597412e-01 3.463774919509887695e+00 1.085640311241149902e+00 -4.730226099491119385e-01
7.460000000000000000e+02 1.936192131042480469e+01 6.241556167602539062e+00 1.700550317764282227e-01 2.219724178314208984e+00 7.169337272644042969e-01 -5.865767598152160645e-01
7.470000000000000000e+02 1.571411037445068359e+01 1.258828639984130859e+01 2.958750128746032715e-01 7.688898086547851562e+00 2.395431995391845703e+00 -1.427272200584411621e+00
7.480000000000000000e+02 1.442864894866943359e+01 1.664611053466796875e+01 7.148355841636657715e-01 9.187660217285156250e+00 2.970748662948608398e+00 -1.137618660926818848e+00
7.490000000000000000e+02 5.727694630622863770e-01 1.906596374511718750e+01 1.076462771743535995e-02 4.285739958286285400e-01 1.318015903234481812e-01 -9.302782267332077026e-02
7.500000000000000000e+02 1.673370122909545898e+00 1.609690666198730469e+01 1.178108528256416321e-02 7.580530047416687012e-01 2.309502363204956055e-01 -1.799495965242385864e-01
7.510000000000000000e+02 5.381600260734558105e-01 1.486465835571289062e+01 5.344401113688945770e-03 -9.703230112791061401e-02 -2.750637009739875793e-02 -5.757988989353179932e-02
7.520000000000000000e+02 1.416445732116699219e+00 9.318092346191406250e+00 2.986917272210121155e-03 -4.626397415995597839e-02 -1.298311725258827209e-02 -1.461728066205978394e-01
7.530000000000000000e+02 1.115537548065185547e+01 1.261231184005737305e+00 3.523774862289428711e+00 1.328450775146484375e+01 5.042484760284423828e+00 1.718370914459228516e+00
7.540000000000000000e+02 1.091452407836914062e+01 -1.373517155647277832e+00 4.476505756378173828e+00 1.332512283325195312e+01 5.340488433837890625e+00 -3.849864006042480469e-01
7.550000000000000000e+02 2.055237007141113281e+01 -3.050670385360717773e+00 3.591095685958862305e+00 1.196394205093383789e+00 1.436246991157531738e+00 -1.596046447753906250e+00
7.560000000000000000e+02 1.601914167404174805e+00 -1.156457424163818359e+01 -1.904193460941314697e-01 3.516697168350219727e+00 9.978833198547363281e-01 4.621810615062713623e-01
7.570000000000000000e+02 7.685859680175781250e+00 -1.795505905151367188e+01 3.453341484069824219e+00 9.906415939331054688e+00 4.007927417755126953e+00 4.785148143768310547e+00
7.580000000000000000e+02 5.977750420570373535e-01 -1.715193748474121094e+01 -3.064181096851825714e-02 2.523892402648925781e+00 7.479751706123352051e-01 -2.724408805370330811e-01
7.590000000000000000e+02 8.649146080017089844e+00 -1.707020759582519531e+01 2.312579631805419922e+00 4.606892108917236328e+00 2.075841426849365234e+00 3.683936834335327148e+00
7.600000000000000000e+02 6.266526699066162109e+00 -2.102114677429199219e+01 1.477227449417114258e+00 1.570193290710449219e+01 5.153748035430908203e+00 3.718907833099365234e+00
7.610000000000000000e+02 1.917313933372497559e+00 -2.488922882080078125e+01 3.297522664070129395e-01 6.184373855590820312e+00 1.954237818717956543e+00 1.803504943847656250e+00
7.620000000000000000e+02 5.982231616973876953e+00 -2.240070724487304688e+01 1.068685770034790039e+00 1.660651397705078125e+01 5.302560329437255859e+00 2.514750003814697266e+00
7.630000000000000000e+02 6.211915016174316406e-01 -2.938031959533691406e+01 -9.850146621465682983e-02 9.204477310180664062e+00 2.731792926788330078e+00 5.701548457145690918e-01
7.640000000000000000e+02 7.200757503509521484e+00 -2.833875465393066406e+01 -7.123107314109802246e-01 3.452862739562988281e+00 8.221656084060668945e-01 -3.698888123035430908e-01
7.650000000000000000e+02 6.178292274475097656e+00 -2.662730407714843750e+01 2.250516563653945923e-01 9.840620994567871094e+00 3.019701957702636719e+00 -8.881825208663940430e-01
7.660000000000000000e+02 5.782052993774414062e+00 -2.960802078247070312e+01 -2.316250085830688477e+00 6.053738594055175781e+00 1.121246576309204102e+00 6.958348751068115234e-01
7.670000000000000000e+02 1.002363872528076172e+01 -3.067269897460937500e+01 -4.366961002349853516e+00 -9.867060184478759766e-01 -1.606100082397460938e+00 1.401592373847961426e+00
7.680000000000000000e+02 8.117223739624023438e+00 -2.910499763488769531e+01 -1.757969498634338379e+00 -2.645363286137580872e-02 -5.353269577026367188e-01 7.564988732337951660e-01
7.690000000000000000e+02 7.459581851959228516e+00 -3.026504707336425781e+01 -2.387064695358276367e+00 3.484534263610839844e+00 3.292408287525177002e-01 -3.770040571689605713e-01
7.700000000000000000e+02 2.311378002166748047e+00 -3.674462127685546875e+01 -8.171107620000839233e-02 8.695398330688476562e+00 2.584106206893920898e+00 -4.199031293392181396e-01
7.710000000000000000e+02 8.324993252754211426e-01 -3.742857360839843750e+01 -9.143447875976562500e-02 9.794672966003417969e+00 2.910971403121948242e+00 -2.733521163463592529e-01
7.720000000000000000e+02 1.662402868270874023e+00 -3.451816558837890625e+01 -1.072281152009963989e-01 9.577238082885742188e+00 2.841002941131591797e+00 -1.842142492532730103e-01
7.730000000000000000e+02 5.231015682220458984e+00 -4.022058105468750000e+01 4.727960526943206787e-01 5.911623954772949219e+00 1.915325999259948730e+00 4.190307855606079102e-02
7.740000000000000000e+02 1.054024314880371094e+01 -3.557044982910156250e+01 -2.501394748687744141e-01 9.541403651237487793e-01 2.112002670764923096e-01 -2.453272230923175812e-02
7.750000000000000000e+02 1.469176769256591797e+01 -3.190325355529785156e+01 -3.416435241699218750e+00 -2.655900120735168457e-01 -1.104607582092285156e+00 7.731544971466064453e-01
7.760000000000000000e+02 8.941519737243652344e+00 -3.169631767272949219e+01 -2.066091537475585938e+00 8.822080492973327637e-01 -3.551650345325469971e-01 -1.946815401315689087e-01
7.770000000000000000e+02 1.757019042968750000e+01 -3.879890823364257812e+01 1.315516978502273560e-01 -5.388314723968505859e-01 -1.221839338541030884e-01 3.399987518787384033e-01
7.780000000000000000e+02 1.754925727844238281e+01 -4.130020523071289062e+01 4.143163561820983887e-01 -6.693900823593139648e-01 -7.652211934328079224e-02 9.436465054750442505e-02
7.790000000000000000e+02 1.750124931335449219e+01 -3.209260940551757812e+01 -2.919002771377563477e+00 -1.441686004400253296e-01 -9.189514517784118652e-01 2.885586917400360107e-01
7.800000000000000000e+02 2.484958267211914062e+01 -3.748658370971679688e+01 -4.784015417098999023e-01 4.392823576927185059e-01 -1.173575222492218018e-02 3.854122757911682129e-01
7.810000000000000000e+02 2.379589843750000000e+01 -3.544216918945312500e+01 -7.719990611076354980e-01 -3.753582714125514030e-03 -2.327257841825485229e-01 3.155252337455749512e-01
7.820000000000000000e+02 2.850293159484863281e+01 -3.311452484130859375e+01 -5.112537145614624023e-01 9.382849335670471191e-01 1.281093508005142212e-01 9.676703810691833496e-01
7.830000000000000000e+02 2.415137481689453125e+01 -3.158864212036132812e+01 -1.784410476684570312e+00 -1.440879795700311661e-02 -5.396457910537719727e-01 -1.158892214298248291e-01
7.840000000000000000e+02 3.091364479064941406e+01 -3.067516326904296875e+01 1.054246306419372559e+00 2.292845726013183594e+00 1.004127621650695801e+00 1.690597653388977051e+00
7.850000000000000000e+02 3.108168792724609375e+01 -3.677409744262695312e+01 -1.076258063316345215e+00 2.991694927215576172e+00 5.746310353279113770e-01 9.310130476951599121e-01
7.860000000000000000e+02 3.537746429443359375e+01 -3.818396377563476562e+01 -1.726392865180969238e+00 4.664465427398681641e+00 8.814217448234558105e-01 2.386297434568405151e-01
7.870000000000000000e+02 3.784316635131835938e+01 -3.654634857177734375e+01 -1.721526265144348145e+00 5.201529026031494141e+00 1.044000864028930664e+00 -9.346628189086914062e-02
7.880000000000000000e+02 4.495405960083007812e+01 -3.083665466308593750e+01 -1.430345475673675537e-01 3.443868875503540039e+00 9.902502894401550293e-01 -1.404328703880310059e+00
7.890000000000000000e+02 4.359639739990234375e+01 -2.034501266479492188e+01 7.067827582359313965e-01 3.527563333511352539e+00 1.270303845405578613e+00 -1.634913682937622070e+00
7.900000000000000000e+02 4.442996597290039062e+01 -1.989590835571289062e+01 7.851849198341369629e-01 1.761221528053283691e+00 7.639219164848327637e-01 -1.086476087570190430e+00
7.910000000000000000e+02 4.255786132812500000e+01 -1.780759620666503906e+01 1.472351908683776855e+00 8.684863090515136719e+00 3.047164678573608398e+00 -2.516463756561279297e+00
7.920000000000000000e+02 4.194184112548828125e+01 -1.642369461059570312e+01 1.054960370063781738e+00 1.207618808746337891e+01 3.939344406127929688e+00 -2.150009870529174805e+00
7.930000000000000000e+02 3.536717987060546875e+01 -2.144092178344726562e+01 5.813116431236267090e-01 1.650764465332031250e+01 5.126686573028564453e+00 -9.923093914985656738e-01
7.940000000000000000e+02 3.513167953491210938e+01 -2.016544151306152344e+01 1.804323911666870117e+00 1.458166694641113281e+01 4.915797233581542969e+00 -2.426406621932983398e+00
7.950000000000000000e+02 3.627457427978515625e+01 -2.394386863708496094e+01 1.831177473068237305e+00 1.451199626922607422e+01 4.902952194213867188e+00 1.066046953201293945e+00
7.960000000000000000e+02 3.537668609619140625e+01 -2.491527748107910156e+01 2.093952894210815430e+00 1.628514671325683594e+01 5.513729572296142578e+00 2.680115461349487305e+00
7.970000000000000000e+02 3.483801651000976562e+01 -2.611089897155761719e+01 2.276475667953491211e+00 1.290242290496826172e+01 4.553669452667236328e+00 4.319974899291992188e+00
7.980000000000000000e+02 3.416387557983398438e+01 -2.731220054626464844e+01 2.498080730438232422e+00 9.346643447875976562e+00 3.553417444229125977e+00 4.183174133300781250e+00
7.990000000000000000e+02 3.217887496948242188e+01 -3.064454078674316406e+01 9.354199171066284180e-01 3.887181997299194336e+00 1.446780562400817871e+00 2.020962715148925781e+00
8.000000000000000000e+02 3.341587829589843750e+01 -2.843219184875488281e+01 2.358958721160888672e+00 6.668296337127685547e+00 2.708176374435424805e+00 3.620046138763427734e+00
8.010000000000000000e+02 3.552666854858398438e+01 -3.216038131713867188e+01 -1.001270771026611328e+00 6.414499282836914062e+00 1.623968601226806641e+00 6.043442487716674805e-01
8.020000000000000000e+02 4.115116882324218750e+01 -3.769019699096679688e+01 -1.498007416725158691e+00 4.633297920227050781e+00 9.405872225761413574e-01 -4.948785901069641113e-01
8.030000000000000000e+02 4.109929656982421875e+01 -3.490654754638671875e+01 -1.233423113822937012e+00 5.010778903961181641e+00 1.133206844329833984e+00 -8.826406598091125488e-01
8.040000000000000000e+02 5.155722427368164062e+01 -2.975869941711425781e+01 -5.882740765810012817e-02 6.084959506988525391e-01 1.649005562067031860e-01 -2.981182932853698730e-01
8.050000000000000000e+02 5.296945190429687500e+01 -2.891972541809082031e+01 -6.290417909622192383e-02 1.147625967860221863e-01 1.555752474814653397e-02 -4.113914817571640015e-02
8.060000000000000000e+02 5.318663406372070312e+01 -3.185373306274414062e+01 -5.523511171340942383e-01 6.248103380203247070e-01 2.173777297139167786e-02 -2.617320120334625244e-01
8.070000000000000000e+02 4.585811996459960938e+01 -2.353225326538085938e+01 7.041055560111999512e-01 1.622190594673156738e+00 6.978888511657714844e-01 -9.854382872581481934e-01
8.080000000000000000e+02 4.642019271850585938e+01 -4.075464630126953125e+01 -8.621127009391784668e-01 3.005964279174804688e+00 6.431554555892944336e-01 -2.548491954803466797e-01
8.090000000000000000e+02 4.968174362182617188e+01 -3.942775344848632812e+01 -4.355191588401794434e-01 1.981866121292114258e+00 4.639040827751159668e-01 -4.178869724273681641e-01
8.100000000000000000e+02 5.475951004028320312e+01 -3.099472045898437500e+01 -5.284724831581115723e-01 -1.930340006947517395e-02 -1.643327623605728149e-01 1.493011116981506348e-01
8.110000000000000000e+02 5.730945587158203125e+01 -3.866387939453125000e+01 2.961418926715850830e-01 3.334530591964721680e-01 1.888784915208816528e-01 -2.594047188758850098e-01
8.120000000000000000e+02 5.724927902221679688e+01 -3.660585403442382812e+01 -2.032102495431900024e-01 3.508369624614715576e-02 -5.043796449899673462e-02 -4.861000180244445801e-01
8.130000000000000000e+02 5.790485382080078125e+01 -3.282355880737304688e+01 -2.100026845932006836e+00 -1.469410061836242676e-01 -6.740903258323669434e-01 1.471387743949890137e-01
8.140000000000000000e+02 5.944789505004882812e+01 -3.304290390014648438e+01 -2.591647386550903320e+00 -2.418020665645599365e-01 -8.500348329544067383e-01 -1.080654114484786987e-01
8.150000000000000000e+02 5.770635604858398438e+01 -3.469856262207031250e+01 -7.629521489143371582e-01 -9.210922569036483765e-02 -2.565184235572814941e-01 -4.645672142505645752e-01
8.160000000000000000e+02 5.517140579223632812e+01 -3.259601593017578125e+01 -8.576652407646179199e-01 1.964985430240631104e-01 -1.983500123023986816e-01 -3.855036944150924683e-02
8.170000000000000000e+02 6.237600326538085938e+01 -4.111141967773437500e+01 5.202319622039794922e-01 1.374189615249633789e+00 5.683264732360839844e-01 1.116186305880546570e-01
8.180000000000000000e+02 6.353239059448242188e+01 -3.153019523620605469e+01 -1.454354047775268555e+00 -2.348183281719684601e-02 -4.433507621288299561e-01 -2.835257947444915771e-01
8.190000000000000000e+02 6.231497192382812500e+01 -3.225523757934570312e+01 -2.167339563369750977e+00 -7.298740744590759277e-02 -6.720980405807495117e-01 -5.840312838554382324e-01
8.200000000000000000e+02 6.095141601562500000e+01 -3.283510589599609375e+01 -2.610991954803466797e+00 -2.963274121284484863e-01 -8.721957802772521973e-01 -4.296131432056427002e-01
8.210000000000000000e+02 7.181498718261718750e+01 -4.099283599853515625e+01 -2.707634568214416504e-01 7.258333683013916016e+00 2.096271038055419922e+00 3.614411689341068268e-03
8.220000000000000000e+02 7.933815765380859375e+01 -3.335690689086914062e+01 -1.153033692389726639e-02 1.031720924377441406e+01 3.091703653335571289e+00 -2.104532420635223389e-01
8.230000000000000000e+02 7.808917999267578125e+01 -3.047518730163574219e+01 -1.121536120772361755e-01 9.195916175842285156e+00 2.725128889083862305e+00 -7.493669390678405762e-01
8.240000000000000000e+02 7.941519927978515625e+01 -2.649240684509277344e+01 -3.226253762841224670e-02 7.401753902435302734e+00 2.210847377777099609e+00 -2.644620835781097412e-01
8.250000000000000000e+02 7.827619171142578125e+01 -2.378899574279785156e+01 1.066022366285324097e-01 7.173698902130126953e+00 2.184090375900268555e+00 -5.275322794914245605e-01
8.260000000000000000e+02 7.942968750000000000e+01 -2.233400917053222656e+01 4.823669791221618652e-02 5.921127319335937500e+00 1.790809154510498047e+00 -1.526326090097427368e-01
8.270000000000000000e+02 6.860774993896484375e+01 -1.486007404327392578e+01 9.361572861671447754e-01 1.733543395996093750e+01 5.481477260589599609e+00 -2.237450599670410156e+00
8.280000000000000000e+02 6.879875183105468750e+01 -1.762817192077636719e+01 7.296526432037353516e-02 1.585695075988769531e+01 4.778974533081054688e+00 -3.406472802162170410e-01
8.290000000000000000e+02 6.890221405029296875e+01 -2.174581146240234375e+01 9.538721293210983276e-02 1.498189640045166016e+01 4.523185253143310547e+00 3.075684234499931335e-02
8.300000000000000000e+02 7.060239410400390625e+01 -2.394348144531250000e+01 1.260939121246337891e+00 1.187770080566406250e+01 3.941591978073120117e+00 2.030257135629653931e-01
8.310000000000000000e+02 6.843441009521484375e+01 -2.679702949523925781e+01 1.303933739662170410e+00 1.141885471343994141e+01 3.816836595535278320e+00 2.610540628433227539e+00
8.320000000000000000e+02 6.682328796386718750e+01 -2.903394126892089844e+01 1.258366703987121582e+00 5.124922752380371094e+00 1.914986968040466309e+00 2.294905662536621094e+00
8.330000000000000000e+02 6.684489440917968750e+01 -3.287055206298828125e+01 -1.028407931327819824e+00 4.544271469116210938e+00 1.054759144783020020e+00 9.952192306518554688e-01
8.340000000000000000e+02 6.467334747314453125e+01 -3.076624679565429688e+01 -3.930393457412719727e-01 8.570365905761718750e-01 1.391991823911666870e-01 2.237811684608459473e-01
8.350000000000000000e+02 7.797183227539062500e+01 -4.164638900756835938e+01 1.398403942584991455e-01 1.068110179901123047e+01 3.246282815933227539e+00 3.950462490320205688e-02
8.360000000000000000e+02 7.773471069335937500e+01 -3.702460098266601562e+01 -1.093442887067794800e-01 1.029013156890869141e+01 3.054236173629760742e+00 -2.070186138153076172e-01
8.370000000000000000e+02 7.820329284667968750e+01 -1.689482498168945312e+01 9.669119864702224731e-02 6.442305088043212891e+00 1.961698889732360840e+00 7.286722213029861450e-02
8.380000000000000000e+02 7.934694671630859375e+01 -1.258351802825927734e+01 2.481194958090782166e-02 6.078248500823974609e+00 1.830918192863464355e+00 1.979109495878219604e-01
8.390000000000000000e+02 6.740976715087890625e+01 -1.084994411468505859e+01 1.243265271186828613e+00 9.684512138366699219e+00 3.278333187103271484e+00 -3.332311153411865234e+00
8.400000000000000000e+02 7.799762725830078125e+01 -9.795483589172363281e+00 5.051155574619770050e-03 7.453852653503417969e+00 2.237671136856079102e+00 5.837011337280273438e-01
8.410000000000000000e+02 7.934317016601562500e+01 -5.551683425903320312e+00 -2.840682864189147949e-02 8.254222869873046875e+00 2.467744588851928711e+00 2.012952715158462524e-01
8.420000000000000000e+02 7.207831573486328125e+01 1.383358478546142578e+00 -6.814459562301635742e-01 7.209806919097900391e+00 1.958508372306823730e+00 -4.247778058052062988e-01
8.430000000000000000e+02 4.947037124633789062e+01 2.221404457092285156e+01 8.590630888938903809e-01 4.196601390838623047e+00 1.516699314117431641e+00 1.132844686508178711e+00
8.440000000000000000e+02 4.152703857421875000e+01 2.823146629333496094e+01 3.234303593635559082e-01 5.002446174621582031e+00 1.597762942314147949e+00 -4.924487769603729248e-01
8.450000000000000000e+02 4.297805786132812500e+01 2.687912940979003906e+01 2.916616499423980713e-01 4.623434066772460938e+00 1.474528789520263672e+00 -1.317378971725702286e-02
8.460000000000000000e+02 4.167479705810546875e+01 2.540549468994140625e+01 3.413467481732368469e-02 4.999485969543457031e+00 1.510086178779602051e+00 3.895651176571846008e-02
8.470000000000000000e+02 4.277091979980468750e+01 1.686376190185546875e+01 4.949871301651000977e-01 7.207906246185302734e+00 2.310868024826049805e+00 1.299237251281738281e+00
8.480000000000000000e+02 4.870617294311523438e+01 1.193393898010253906e+01 1.874455332756042480e+00 3.182037353515625000e+00 1.516947865486145020e+00 1.824147939682006836e+00
8.490000000000000000e+02 5.872906112670898438e+01 9.013202786445617676e-01 -2.266940116882324219e+00 3.453196287155151367e-01 -5.764861702919006348e-01 -2.800715565681457520e-01
8.500000000000000000e+02 6.053770828247070312e+01 -2.144349575042724609e+00 -3.054132938385009766e+00 -1.744434684514999390e-01 -9.685729146003723145e-01 7.867518067359924316e-01
8.510000000000000000e+02 6.413399505615234375e+01 -4.396808147430419922e+00 6.226399540901184082e-01 2.856311798095703125e+00 1.043685555458068848e+00 -1.465405702590942383e+00
8.520000000000000000e+02 6.517327117919921875e+01 -5.465522766113281250e+00 1.071168780326843262e+00 5.378074169158935547e+00 1.934772849082946777e+00 -1.968378782272338867e+00
8.530000000000000000e+02 6.591809082031250000e+01 -6.803399085998535156e+00 8.633204102516174316e-01 6.470528125762939453e+00 2.200154542922973633e+00 -2.083430290222167969e+00
8.540000000000000000e+02 6.690131378173828125e+01 -9.555028915405273438e+00 9.795111417770385742e-01 7.999386310577392578e+00 2.693669080734252930e+00 -2.842232942581176758e+00
8.550000000000000000e+02 6.605654144287109375e+01 -4.201334953308105469e+00 -3.200533390045166016e-01 5.598645210266113281e+00 1.583577632904052734e+00 -1.004890561103820801e+00
8.560000000000000000e+02 6.743107604980468750e+01 -4.722404003143310547e+00 -2.131856679916381836e-01 6.453537464141845703e+00 1.872105479240417480e+00 -8.919420838356018066e-01
8.570000000000000000e+02 7.806391906738281250e+01 -2.670674085617065430e+00 -6.506253778934478760e-02 8.605585098266601562e+00 2.562156915664672852e+00 3.000047802925109863e-01
8.580000000000000000e+02 7.935034179687500000e+01 2.825953960418701172e+00 -2.655448392033576965e-02 9.217825889587402344e+00 2.757381439208984375e+00 -7.375475019216537476e-03
8.590000000000000000e+02 7.313468170166015625e+01 1.038835811614990234e+01 -2.496745251119136810e-02 6.549841880798339844e+00 1.957462310791015625e+00 -8.028294444084167480e-01
8.600000000000000000e+02 6.666557312011718750e+01 1.885830688476562500e+01 6.107165813446044922e-01 4.702678203582763672e+00 1.594018459320068359e+00 -4.886410534381866455e-01
8.610000000000000000e+02 5.605854034423828125e+01 2.303443717956542969e+01 9.749709963798522949e-01 3.772256851196289062e+00 1.424168348312377930e+00 6.507845520973205566e-01
8.620000000000000000e+02 5.199979019165039062e+01 3.281990051269531250e+01 -1.727602630853652954e-01 4.221764564514160156e+00 1.214701175689697266e+00 6.469265222549438477e-01
8.630000000000000000e+02 4.065875244140625000e+01 3.093220520019531250e+01 2.127495557069778442e-01 2.716642618179321289e+00 8.788176774978637695e-01 -7.188267111778259277e-01
8.640000000000000000e+02 3.551845169067382812e+01 3.600523376464843750e+01 -1.775526404380798340e+00 -1.738420426845550537e-01 -5.848105549812316895e-01 5.525668263435363770e-01
8.650000000000000000e+02 3.915959930419921875e+01 3.334988784790039062e+01 -4.402293562889099121e-01 6.297805905342102051e-01 5.686536803841590881e-02 -4.922637250274419785e-03
8.660000000000000000e+02 7.805934906005859375e+01 4.318286895751953125e+00 -6.264881789684295654e-02 8.637699127197265625e+00 2.572515249252319336e+00 -1.395563185214996338e-01
8.670000000000000000e+02 7.935082244873046875e+01 8.398636817932128906e+00 -9.715893305838108063e-03 8.625594139099121094e+00 2.584763526916503906e+00 -8.594289422035217285e-02
8.680000000000000000e+02 7.304280090332031250e+01 1.649068069458007812e+01 1.764774471521377563e-01 6.164929866790771484e+00 1.902422189712524414e+00 -6.144856810569763184e-01
8.690000000000000000e+02 6.453622436523437500e+01 2.181369018554687500e+01 6.958279013633728027e-01 4.477544307708740234e+00 1.552011609077453613e+00 -1.619450151920318604e-01
8.700000000000000000e+02 5.420117187500000000e+01 3.011441993713378906e+01 2.046142220497131348e-01 4.227952480316162109e+00 1.329769968986511230e+00 6.943957209587097168e-01
8.710000000000000000e+02 4.771955490112304688e+01 3.750876235961914062e+01 -9.101084470748901367e-01 3.762166500091552734e+00 8.556174635887145996e-01 3.165768682956695557e-01
8.720000000000000000e+02 4.029209518432617188e+01 4.011579895019531250e+01 -1.251286387443542480e+00 1.678178191184997559e+00 1.280675232410430908e-01 -1.725737750530242920e-02
8.730000000000000000e+02 3.683120346069335938e+01 3.908795547485351562e+01 -1.268972516059875488e+00 3.594134747982025146e-01 -2.728677392005920410e-01 -2.128036692738533020e-02
8.740000000000000000e+02 3.831542587280273438e+01 3.669591140747070312e+01 -1.232439637184143066e+00 7.066938877105712891e-01 -1.577237099409103394e-01 -3.696277053677476943e-05
8.750000000000000000e+02 3.410045623779296875e+01 3.656740951538085938e+01 -1.887272119522094727e+00 -1.964736133813858032e-01 -6.251237392425537109e-01 5.333684086799621582e-01
8.760000000000000000e+02 3.078073692321777344e+01 3.858552551269531250e+01 -1.846295714378356934e+00 -3.123736083507537842e-01 -6.476008296012878418e-01 1.659840047359466553e-01
8.770000000000000000e+02 2.974992179870605469e+01 3.738842010498046875e+01 -2.252943992614746094e+00 -2.298108339309692383e-01 -7.448264360427856445e-01 1.594314277172088623e-01
8.780000000000000000e+02 2.163020515441894531e+01 3.946023178100585938e+01 -1.223573327064514160e+00 4.551007151603698730e-01 -2.305417656898498535e-01 -1.497349049896001816e-02
8.790000000000000000e+02 2.253376197814941406e+01 3.604307174682617188e+01 -1.674968600273132324e+00 -1.111680716276168823e-01 -5.358409881591796875e-01 -6.004633903503417969e-01
8.800000000000000000e+02 1.670971107482910156e+01 3.275794601440429688e+01 -6.121535301208496094e-01 3.137262105941772461e+00 7.575325965881347656e-01 1.889966130256652832e-01
8.810000000000000000e+02 1.616382789611816406e+01 3.128687667846679688e+01 -3.632664978504180908e-01 3.832633495330810547e+00 1.040810108184814453e+00 3.591875433921813965e-01
8.820000000000000000e+02 1.588129901885986328e+01 2.673706054687500000e+01 6.322585940361022949e-01 7.159631252288818359e+00 2.337566852569580078e+00 1.752228379249572754e+00
8.830000000000000000e+02 1.691384506225585938e+01 2.938150405883789062e+01 5.112498998641967773e-01 4.090645790100097656e+00 1.380568623542785645e+00 1.348874211311340332e+00
8.840000000000000000e+02 7.806501007080078125e+01 1.125032138824462891e+01 3.713608952239155769e-03 7.832417964935302734e+00 2.350839614868164062e+00 -2.860020697116851807e-01
8.850000000000000000e+02 7.936286926269531250e+01 1.672725868225097656e+01 -4.062777152284979820e-04 7.360964775085449219e+00 2.208167552947998047e+00 -7.640392333269119263e-02
8.860000000000000000e+02 7.213822174072265625e+01 2.402332305908203125e+01 2.148817777633666992e-01 5.803692817687988281e+00 1.805572271347045898e+00 -2.727809548377990723e-01
8.870000000000000000e+02 6.416986083984375000e+01 2.985681152343750000e+01 2.939645946025848389e-01 4.911643028259277344e+00 1.561682343482971191e+00 1.539433449506759644e-01
8.880000000000000000e+02 5.355992126464843750e+01 3.661930847167968750e+01 -4.781700968742370605e-01 4.362900257110595703e+00 1.165418982505798340e+00 3.906625807285308838e-01
8.890000000000000000e+02 4.787169265747070312e+01 4.069869995117187500e+01 -1.040112257003784180e+00 3.771007061004638672e+00 8.192684054374694824e-01 1.296844780445098877e-01
8.900000000000000000e+02 7.808332824707031250e+01 1.946531105041503906e+01 2.279325388371944427e-02 6.886954784393310547e+00 2.072924375534057617e+00 -1.781786382198333740e-01
8.910000000000000000e+02 7.933546447753906250e+01 2.364892387390136719e+01 7.088191807270050049e-03 6.714835166931152344e+00 2.016577005386352539e+00 -3.549236804246902466e-02
8.920000000000000000e+02 7.368108367919921875e+01 3.329768371582031250e+01 2.993497252464294434e-02 5.978449344635009766e+00 1.802515268325805664e+00 -5.138250533491373062e-03
8.930000000000000000e+02 6.272028350830078125e+01 4.060465240478515625e+01 -1.651396304368972778e-01 5.073560237884521484e+00 1.472526192665100098e+00 5.598963424563407898e-02
8.940000000000000000e+02 5.774887466430664062e+01 4.044046020507812500e+01 -3.627732396125793457e-01 4.748434543609619141e+00 1.315698385238647461e+00 1.109801679849624634e-01
8.950000000000000000e+02 7.666045379638671875e+01 2.343119239807128906e+01 5.210381373763084412e-02 6.448760032653808594e+00 1.950259208679199219e+00 -1.753561645746231079e-01
8.960000000000000000e+02 7.923670959472656250e+01 2.920533943176269531e+01 2.945272717624902725e-03 6.521365165710449219e+00 1.957293152809143066e+00 -1.040624734014272690e-02
8.970000000000000000e+02 6.773712158203125000e+01 3.791362762451171875e+01 -3.220435976982116699e-02 5.464652061462402344e+00 1.629734396934509277e+00 5.652269348502159119e-02
8.980000000000000000e+02 7.917869567871093750e+01 3.200479125976562500e+01 -5.954782827757298946e-04 6.489840507507324219e+00 1.946773529052734375e+00 -5.350326653569936752e-03
8.990000000000000000e+02 7.900878906250000000e+01 3.754365158081054688e+01 8.737291209399700165e-03 6.456837177276611328e+00 1.939672350883483887e+00 -1.160717918537557125e-03
9.000000000000000000e+02 7.154537200927734375e+01 3.799327087402343750e+01 -3.240931546315550804e-03 5.821745872497558594e+00 1.745551466941833496e+00 1.720842160284519196e-02
9.010000000000000000e+02 7.625083160400390625e+01 3.859189605712890625e+01 -2.451685443520545959e-02 6.224066257476806641e+00 1.859864711761474609e+00 2.495128195732831955e-03
9.020000000000000000e+02 1.846902275085449219e+01 3.896979141235351562e+01 -1.314087629318237305e+00 1.890888094902038574e+00 1.730401664972305298e-01 9.575751423835754395e-02
9.030000000000000000e+02 1.627619552612304688e+01 3.731744384765625000e+01 -1.244040250778198242e+00 2.813064813613891602e+00 4.707073867321014404e-01 -5.059378594160079956e-02
9.040000000000000000e+02 8.074931144714355469e+00 4.099714279174804688e+01 -6.892303824424743652e-01 4.541003704071044922e+00 1.155532121658325195e+00 -1.974303871393203735e-01
9.050000000000000000e+02 2.910334348678588867e+00 3.745406341552734375e+01 -1.632092446088790894e-01 5.124122142791748047e+00 1.488273978233337402e+00 -3.849833905696868896e-01
9.060000000000000000e+02 7.360066175460815430e-01 3.318244552612304688e+01 -1.388345565646886826e-02 4.514165401458740234e+00 1.350084543228149414e+00 -2.014582157135009766e-01
9.070000000000000000e+02 1.936671733856201172e+00 3.011268806457519531e+01 -1.319142431020736694e-02 3.722007513046264648e+00 1.112644791603088379e+00 -5.872786045074462891e-01
9.080000000000000000e+02 6.330531835556030273e-01 2.754377365112304688e+01 -1.079174573533236980e-03 2.711927175521850586e+00 8.132544159889221191e-01 -2.126576006412506104e-01
9.090000000000000000e+02 1.879691600799560547e+00 2.589896583557128906e+01 2.329865284264087677e-02 2.629515886306762695e+00 7.958443760871887207e-01 -5.626299381256103516e-01
9.100000000000000000e+02 1.326713180541992188e+01 1.635528373718261719e+01 6.200827360153198242e-01 8.086151123046875000e+00 2.611870050430297852e+00 -8.407580256462097168e-01
9.110000000000000000e+02 1.635833930969238281e+01 1.416649341583251953e+01 5.535897612571716309e-01 8.647948265075683594e+00 2.760461330413818359e+00 -2.175520896911621094e+00
9.120000000000000000e+02 1.532980632781982422e+01 1.826955223083496094e+01 4.784615635871887207e-01 1.138986206054687500e+01 3.560497045516967773e+00 -1.321456432342529297e+00
9.130000000000000000e+02 1.390241909027099609e+01 2.118185424804687500e+01 4.323932230472564697e-01 9.130085945129394531e+00 2.868743658065795898e+00 -5.773836374282836914e-01
9.140000000000000000e+02 1.529810810089111328e+01 2.395923614501953125e+01 3.597423136234283447e-01 1.012913322448730469e+01 3.146662712097167969e+00 5.875067114830017090e-01
9.150000000000000000e+02 1.267814826965332031e+01 2.930278015136718750e+01 -2.653169035911560059e-01 5.425500869750976562e+00 1.548055171966552734e+00 -7.173516154289245605e-01
9.160000000000000000e+02 1.355345344543457031e+01 2.740657997131347656e+01 2.027014046907424927e-01 6.258629322052001953e+00 1.938399195671081543e+00 -3.425169289112091064e-01
9.170000000000000000e+02 1.439903259277343750e+01 2.562661743164062500e+01 6.633532047271728516e-01 7.648968219757080078e+00 2.493696451187133789e+00 2.020404785871505737e-01
9.180000000000000000e+02 1.940979003906250000e+00 4.163273620605468750e+01 5.046791397035121918e-03 5.528323173522949219e+00 1.660011053085327148e+00 1.427864423021674156e-03
9.190000000000000000e+02 4.704394638538360596e-01 7.886920452117919922e+00 9.198177605867385864e-03 -8.276073932647705078e-01 -2.455227524042129517e-01 -4.269012808799743652e-02
9.200000000000000000e+02 1.515621066093444824e+00 3.367387771606445312e+00 6.228320300579071045e-02 -2.911590933799743652e-01 -6.866277009248733521e-02 2.395003885030746460e-01
9.210000000000000000e+02 1.069411563873291016e+01 -1.874954700469970703e+00 2.811290502548217773e+00 1.211678981781005859e+01 4.478424072265625000e+00 1.181511998176574707e+00
9.220000000000000000e+02 9.523712158203125000e+00 -1.695679903030395508e+00 3.787206649780273438e+00 8.616117477416992188e+00 3.720997333526611328e+00 5.040444374084472656e+00
9.230000000000000000e+02 1.103894042968750000e+01 -1.396916866302490234e+01 -1.843644857406616211e+00 1.759827971458435059e+00 -2.514503709971904755e-02 2.829952478408813477e+00
9.240000000000000000e+02 1.442505359649658203e+01 -1.421259689331054688e+01 -2.479804992675781250e+00 -6.673057377338409424e-02 -7.639606595039367676e-01 6.201071739196777344e-01
9.250000000000000000e+02 1.682116508483886719e+01 -1.746133995056152344e+01 -3.759429454803466797e+00 -4.122411012649536133e-01 -1.251501202583312988e+00 1.373080968856811523e+00
9.260000000000000000e+02 2.442767524719238281e+01 -1.862912750244140625e+01 -3.109810352325439453e+00 -2.160830795764923096e-02 -9.394255876541137695e-01 -3.203543424606323242e-01
9.270000000000000000e+02 2.643334579467773438e+01 -1.695997810363769531e+01 -2.445653676986694336e+00 7.400069385766983032e-02 -7.114959359169006348e-01 -3.252232372760772705e-01
9.280000000000000000e+02 3.046450233459472656e+01 -1.654572296142578125e+01 -2.215372323989868164e+00 -3.267349898815155029e-01 -7.626321911811828613e-01 -4.907522797584533691e-01
9.290000000000000000e+02 3.268134689331054688e+01 -1.806754112243652344e+01 -1.788776278495788574e+00 2.421272397041320801e-01 -4.639947116374969482e-01 1.117364540696144104e-01
9.300000000000000000e+02 3.660867309570312500e+01 -1.648397827148437500e+01 -1.011245489120483398e+00 9.724808692932128906e+00 2.614068984985351562e+00 -3.892735838890075684e-01
9.310000000000000000e+02 4.029620361328125000e+01 -1.214324855804443359e+01 4.795034825801849365e-01 1.339944362640380859e+01 4.163684368133544922e+00 -4.711035192012786865e-01
9.320000000000000000e+02 3.124785614013671875e+01 -1.790874481201171875e+00 -4.979217350482940674e-01 -4.920990467071533203e-01 -2.970062494277954102e-01 -1.035539031028747559e+00
9.330000000000000000e+02 2.668849182128906250e+01 -2.233972787857055664e+00 5.161317825317382812e+00 1.002530097961425781e+00 1.849154353141784668e+00 -1.611832261085510254e+00
9.340000000000000000e+02 2.523148155212402344e+01 -1.710648655891418457e+00 5.451002120971679688e+00 2.039283037185668945e+00 2.247085571289062500e+00 -2.528285980224609375e+00
9.350000000000000000e+02 2.164362144470214844e+01 -1.512138938903808594e+01 -1.918426871299743652e+00 5.713539123535156250e-01 -4.041218757629394531e-01 -2.296767830848693848e-01
9.360000000000000000e+02 2.402840042114257812e+01 -1.394099617004394531e+01 -8.699147701263427734e-01 3.721039295196533203e-01 -1.493432521820068359e-01 -6.001454591751098633e-01
9.370000000000000000e+02 2.826602935791015625e+01 -1.410389900207519531e+01 -6.785273551940917969e-02 1.022357717156410217e-01 1.031491067260503769e-02 -7.233637571334838867e-01
9.380000000000000000e+02 2.942218780517578125e+01 -1.743908309936523438e+01 -3.776503562927246094e+00 -2.936117053031921387e-01 -1.221034646034240723e+00 -3.399963378906250000e-01
9.390000000000000000e+02 5.873765468597412109e+00 -2.532041358947753906e+01 6.328477263450622559e-01 1.339279079437255859e+01 4.207691669464111328e+00 -7.365927845239639282e-02
9.400000000000000000e+02 4.117496490478515625e+01 2.960577964782714844e+01 3.063898086547851562e-01 3.907579660415649414e+00 1.264190912246704102e+00 -7.890233993530273438e-01
9.410000000000000000e+02 3.999512863159179688e+01 3.218397140502929688e+01 1.790387555956840515e-02 1.617273330688476562e+00 4.905531704425811768e-01 -4.118245542049407959e-01
9.420000000000000000e+02 4.157816314697265625e+01 1.700411415100097656e+01 1.341767311096191406e-01 7.803755283355712891e+00 2.381379604339599609e+00 6.908664107322692871e-01
9.430000000000000000e+02 4.086294555664062500e+01 1.142376613616943359e+01 6.319547891616821289e-01 1.085017490386962891e+01 3.444638967514038086e+00 2.458344221115112305e+00
9.440000000000000000e+02 5.047858428955078125e+01 1.992619752883911133e+00 -3.795731067657470703e+00 5.176086351275444031e-02 -1.123191118240356445e+00 5.472235083580017090e-01
9.450000000000000000e+02 5.115028381347656250e+01 1.073217168450355530e-01 -4.219795703887939453e+00 -2.783934175968170166e-01 -1.349456787109375000e+00 1.310014367103576660e+00
9.460000000000000000e+02 5.244175720214843750e+01 -3.203558325767517090e-01 -3.929795503616333008e+00 1.825784146785736084e-02 -1.173461318016052246e+00 9.466354846954345703e-01
9.470000000000000000e+02 5.649406051635742188e+01 -1.027429699897766113e+00 -4.784774780273437500e+00 -1.955612897872924805e-01 -1.494100809097290039e+00 7.290547490119934082e-01
9.480000000000000000e+02 5.921235656738281250e+01 -1.671668291091918945e+00 -4.029262065887451172e+00 -2.929223775863647461e-01 -1.296655297279357910e+00 8.886452913284301758e-01
9.490000000000000000e+02 6.182452774047851562e+01 -2.734808444976806641e+00 -1.835697531700134277e+00 1.572865992784500122e-01 -5.035232901573181152e-01 3.208740651607513428e-01
9.500000000000000000e+02 4.112995910644531250e+01 1.280708503723144531e+01 5.176479816436767578e-01 9.974490165710449219e+00 3.147641420364379883e+00 2.105040788650512695e+00
9.510000000000000000e+02 3.972590255737304688e+01 7.361682415008544922e+00 1.899742960929870605e+00 1.299809646606445312e+01 4.469351768493652344e+00 4.504001617431640625e+00
9.520000000000000000e+02 4.302322006225585938e+01 -1.191927552223205566e+00 2.926409721374511719e+00 1.225196743011474609e+01 4.553513050079345703e+00 5.022864341735839844e+00
9.530000000000000000e+02 4.410266494750976562e+01 1.257070541381835938e+00 -1.326915383338928223e+00 6.060346126556396484e+00 1.420029282569885254e+00 2.491373300552368164e+00
9.540000000000000000e+02 4.010026931762695312e+01 5.668135643005371094e+00 1.198281168937683105e+00 1.051854991912841797e+01 3.515049219131469727e+00 3.322499513626098633e+00
9.550000000000000000e+02 3.920040512084960938e+01 6.060726165771484375e+00 1.991379022598266602e+00 1.176783752441406250e+01 4.127765178680419922e+00 4.694568157196044922e+00
9.560000000000000000e+02 3.860831069946289062e+01 4.774110794067382812e+00 1.782061219215393066e+00 9.606990814208984375e+00 3.416715621948242188e+00 4.047865390777587891e+00
9.570000000000000000e+02 3.703762435913085938e+01 2.347234249114990234e+00 3.426194489002227783e-01 3.951312541961669922e+00 1.288179636001586914e+00 1.600442290306091309e+00
9.580000000000000000e+02 3.375597381591796875e+01 -3.782761096954345703e-01 -2.258476495742797852e+00 -7.086588740348815918e-01 -8.901406526565551758e-01 -1.269057273864746094e+00
9.590000000000000000e+02 3.552473068237304688e+01 -4.050362408161163330e-01 -9.449918270111083984e-01 2.032107591629028320e+00 3.261347115039825439e-01 3.782449662685394287e-01
9.600000000000000000e+02 3.492707443237304688e+01 4.058310091495513916e-01 -1.740648150444030762e+00 5.224852263927459717e-02 -5.065199136734008789e-01 -8.038167357444763184e-01
9.610000000000000000e+02 3.216604232788085938e+01 -2.937160730361938477e+00 1.357483148574829102e+00 -3.154147267341613770e-01 3.126205205917358398e-01 -1.016029715538024902e+00
9.620000000000000000e+02 2.406311416625976562e+01 -7.061303257942199707e-01 3.362534046173095703e+00 1.960313200950622559e+00 1.596854209899902344e+00 -2.524649143218994141e+00
9.630000000000000000e+02 2.305720901489257812e+01 -1.532230496406555176e+00 4.165551662445068359e+00 1.034229159355163574e+00 1.559934258460998535e+00 -1.915341019630432129e+00
9.640000000000000000e+02 2.220559692382812500e+01 1.455039143562316895e+00 1.512624382972717285e+00 1.292518615722656250e+00 8.415429592132568359e-01 -1.355243682861328125e+00
9.650000000000000000e+02 1.901067924499511719e+01 3.319105148315429688e+01 -2.723796665668487549e-01 1.171695351600646973e+00 2.697947323322296143e-01 2.282461225986480713e-01
9.660000000000000000e+02 1.994396972656250000e+01 3.435571289062500000e+01 -8.173668384552001953e-01 5.580276846885681152e-01 -7.780174911022186279e-02 -1.010111868381500244e-01
9.670000000000000000e+02 2.114395523071289062e+01 3.529364776611328125e+01 -1.300241827964782715e+00 1.117981225252151489e-01 -3.565331101417541504e-01 -3.589847385883331299e-01
9.680000000000000000e+02 2.835807037353515625e+01 3.738492202758789062e+01 -2.249816656112670898e+00 -2.208340615034103394e-01 -7.411952614784240723e-01 -1.394226849079132080e-01
9.690000000000000000e+02 4.560898208618164062e+01 1.306666016578674316e+00 -2.934291601181030273e+00 2.077702045440673828e+00 -2.569769024848937988e-01 1.618733525276184082e+00
9.700000000000000000e+02 4.017332839965820312e+01 8.694057464599609375e+00 1.343068957328796387e+00 1.295685386657714844e+01 4.289976596832275391e+00 3.835433006286621094e+00
9.710000000000000000e+02 4.169999313354492188e+01 -1.493834686279296875e+01 3.025934100151062012e-01 1.401351737976074219e+01 4.294833183288574219e+00 -1.596064448356628418e+00
9.720000000000000000e+02 4.135604858398437500e+01 -1.074916553497314453e+01 4.420792460441589355e-01 1.559901809692382812e+01 4.812329292297363281e+00 -5.281404256820678711e-01
9.730000000000000000e+02 4.024672698974609375e+01 -1.073475742340087891e+01 5.265111327171325684e-01 1.337392139434814453e+01 4.170129776000976562e+00 -2.838832885026931763e-02
9.740000000000000000e+02 4.183964538574218750e+01 -5.208906650543212891e+00 8.145904541015625000e-01 1.499043083190917969e+01 4.741506576538085938e+00 3.492421150207519531e+00
9.750000000000000000e+02 4.214558029174804688e+01 -3.847670793533325195e+00 1.012754917144775391e+00 1.522881126403808594e+01 4.872469902038574219e+00 3.682670831680297852e+00
9.760000000000000000e+02 2.999740600585937500e+01 -1.419639015197753906e+01 2.874945402145385742e-01 1.579518318176269531e-01 1.336339116096496582e-01 -9.540316462516784668e-01
9.770000000000000000e+02 4.469115447998046875e+01 -2.928100585937500000e+01 2.432319074869155884e-01 3.381114006042480469e+00 1.087303757667541504e+00 -1.481205821037292480e+00
9.780000000000000000e+02 6.863996887207031250e+01 -2.934377670288085938e+01 -3.312776982784271240e-01 8.520157814025878906e+00 2.456664085388183594e+00 9.395003318786621094e-01
9.790000000000000000e+02 6.195908355712890625e+01 1.189805030822753906e+00 -1.506303787231445312e+00 1.977629661560058594e+00 1.413977742195129395e-01 -1.215490460395812988e+00
9.800000000000000000e+02 6.010450744628906250e+01 4.773244261741638184e-01 -2.102445363998413086e+00 6.958463191986083984e-01 -4.219797253608703613e-01 -5.758692622184753418e-01
9.810000000000000000e+02 5.827589797973632812e+01 -2.343928664922714233e-01 -3.249752998352050781e+00 -6.327537447214126587e-02 -9.939085245132446289e-01 2.424158155918121338e-01
9.820000000000000000e+02 7.330061340332031250e+01 5.082644462585449219e+00 -3.232322335243225098e-01 7.144515037536621094e+00 2.046384811401367188e+00 -6.116514205932617188e-01
9.830000000000000000e+02 5.510456085205078125e+01 9.642557144165039062e+00 1.073785901069641113e+00 1.522608637809753418e+00 7.789183855056762695e-01 4.393366724252700806e-02
9.840000000000000000e+02 5.959898757934570312e+01 7.798218250274658203e+00 3.076261281967163086e-01 2.001621723175048828e+00 6.927743554115295410e-01 -9.132934808731079102e-01
9.850000000000000000e+02 4.887731933593750000e+01 9.899892807006835938e+00 1.746731758117675781e+00 2.509774446487426758e+00 1.276951909065246582e+00 1.677112579345703125e+00
9.860000000000000000e+02 4.549308776855468750e+01 2.798929452896118164e+00 -2.259598731994628906e+00 3.321873903274536133e+00 3.186825215816497803e-01 3.332962512969970703e+00
9.870000000000000000e+02 7.312516784667968750e+01 1.168409729003906250e+01 4.487664252519607544e-02 6.435389518737792969e+00 1.944079756736755371e+00 -7.938396334648132324e-01
9.880000000000000000e+02 6.460678100585937500e+01 1.115040493011474609e+01 4.387398064136505127e-01 3.871157646179199219e+00 1.292969226837158203e+00 -1.052257657051086426e+00
9.890000000000000000e+02 4.616466903686523438e+01 1.803670883178710938e+01 9.847649335861206055e-01 5.187580108642578125e+00 1.851703405380249023e+00 1.607214331626892090e+00
9.900000000000000000e+02 4.627167510986328125e+01 1.665559387207031250e+01 1.212858080863952637e+00 5.118780612945556641e+00 1.899491667747497559e+00 1.810347318649291992e+00
9.910000000000000000e+02 7.112766265869140625e+01 1.866669654846191406e+01 3.012699186801910400e-01 5.651870727539062500e+00 1.785942077636718750e+00 -5.559571385383605957e-01
9.920000000000000000e+02 6.557192230224609375e+01 1.692298126220703125e+01 6.881927847862243652e-01 4.398666858673095703e+00 1.526057839393615723e+00 -5.918796062469482422e-01
9.930000000000000000e+02 5.460086822509765625e+01 1.822033500671386719e+01 1.440935134887695312e+00 3.187138795852661133e+00 1.388422131538391113e+00 7.489418387413024902e-01
9.940000000000000000e+02 7.228765106201171875e+01 2.758034324645996094e+01 1.577164977788925171e-01 5.797595500946044922e+00 1.786593556404113770e+00 -1.297138184309005737e-01
9.950000000000000000e+02 5.574929809570312500e+01 2.540743255615234375e+01 7.300605177879333496e-01 3.982044696807861328e+00 1.413631558418273926e+00 6.798682212829589844e-01
9.960000000000000000e+02 4.723946762084960938e+01 2.453647994995117188e+01 4.912519454956054688e-01 4.427892684936523438e+00 1.475743412971496582e+00 8.553313016891479492e-01
9.970000000000000000e+02 7.208655548095703125e+01 3.114536857604980469e+01 9.341607242822647095e-02 5.787417888641357422e+00 1.764250159263610840e+00 -2.448389679193496704e-02
9.980000000000000000e+02 6.328691101074218750e+01 3.299114227294921875e+01 1.175125092267990112e-01 4.959124088287353516e+00 1.522990942001342773e+00 2.135985791683197021e-01
9.990000000000000000e+02 5.662649917602539062e+01 2.973635482788085938e+01 3.024050593376159668e-01 4.284791946411132812e+00 1.376159071922302246e+00 5.815873742103576660e-01
1.000000000000000000e+03 4.771557617187500000e+01 3.165708732604980469e+01 -2.731031179428100586e-01 3.939110994338989258e+00 1.099802374839782715e+00 6.742474436759948730e-01
1.001000000000000000e+03 1.130255317687988281e+01 3.491990280151367188e+01 -9.622464179992675781e-01 4.343982219696044922e+00 1.014520764350891113e+00 -6.985605359077453613e-01
1.002000000000000000e+03 1.335194301605224609e+01 9.102746009826660156e+00 -7.483012080192565918e-01 7.093471050262451172e+00 1.903550982475280762e+00 -3.504301905632019043e-01
1.003000000000000000e+03 1.219974803924560547e+01 1.303036689758300781e+01 -1.086736992001533508e-01 6.934085369110107422e+00 2.047623395919799805e+00 -4.920348227024078369e-01
1.004000000000000000e+03 4.532048416137695312e+01 -2.088599586486816406e+01 5.007626414299011230e-01 9.229819774627685547e-01 4.271233677864074707e-01 -6.786673665046691895e-01
1.005000000000000000e+03 3.659973144531250000e-01 -1.803753614425659180e+00 2.747524715960025787e-02 -1.294197291135787964e-01 -3.058334626257419586e-02 -4.912065342068672180e-02
1.006000000000000000e+03 7.686400413513183594e-01 -1.705190300941467285e+00 4.065578430891036987e-02 -5.380992218852043152e-02 -3.946241457015275955e-03 -6.288872659206390381e-02
1.007000000000000000e+03 2.535397291183471680e+00 -1.674995303153991699e+00 2.235771417617797852e-01 1.152850165963172913e-01 1.016586497426033020e-01 5.244836211204528809e-02
1.008000000000000000e+03 2.667584180831909180e+00 -1.942242860794067383e+00 2.913587093353271484e-01 1.750252693891525269e-01 1.399151980876922607e-01 1.262805461883544922e-01
1.009000000000000000e+03 2.080352306365966797e+00 -4.162621688842773438e+01 5.138573050498962402e-01 8.631139755249023438e+00 2.743499279022216797e+00 -1.416315138339996338e-01
1.010000000000000000e+03 1.437865376472473145e+00 -4.006098556518554688e+01 -1.201728135347366333e-01 8.815990447998046875e+00 2.608745336532592773e+00 -4.491132795810699463e-01
1.011000000000000000e+03 2.884903669357299805e+00 -3.781721496582031250e+01 -1.454578489065170288e-01 8.010724067687988281e+00 2.359579801559448242e+00 -5.952634811401367188e-01
1.012000000000000000e+03 6.737909913063049316e-01 -3.613594818115234375e+01 -1.257979683578014374e-02 1.025429534912109375e+01 3.072514533996582031e+00 -1.505329012870788574e-01
1.013000000000000000e+03 5.779021382331848145e-01 -3.483118438720703125e+01 -4.259258508682250977e-02 1.059689998626708984e+01 3.166292190551757812e+00 -9.775270521640777588e-02
1.014000000000000000e+03 1.939186930656433105e+00 -3.561651611328125000e+01 -1.184949800372123718e-01 9.153186798095703125e+00 2.710407495498657227e+00 -3.703085780143737793e-01
1.015000000000000000e+03 5.802415609359741211e-01 -3.351340866088867188e+01 -6.038019433617591858e-02 1.077625370025634766e+01 3.214762210845947266e+00 2.705476619303226471e-02
1.016000000000000000e+03 1.837442278861999512e+00 -2.909427261352539062e+01 -3.407997786998748779e-01 8.416841506958007812e+00 2.422812700271606445e+00 1.410393595695495605e+00
1.017000000000000000e+03 6.051826477050781250e-01 -2.798811340332031250e+01 -5.505323037505149841e-02 7.823833465576171875e+00 2.330634117126464844e+00 7.623910307884216309e-01
1.018000000000000000e+03 5.799550056457519531e+00 -2.387450408935546875e+01 6.584006547927856445e-01 1.544003582000732422e+01 4.829530715942382812e+00 1.079843401908874512e+00
1.019000000000000000e+03 5.574005246162414551e-01 -2.257079505920410156e+01 1.256812810897827148e-01 2.013292789459228516e+00 6.416922211647033691e-01 2.781184017658233643e-01
1.020000000000000000e+03 6.602221965789794922e+00 -1.973668289184570312e+01 2.173006534576416016e+00 1.349772167205810547e+01 4.701218605041503906e+00 4.360627174377441406e+00
1.021000000000000000e+03 1.663134098052978516e+00 -2.106627655029296875e+01 3.207984864711761475e-01 4.008636474609375000e+00 1.298830509185791016e+00 2.695955634117126465e-01
1.022000000000000000e+03 1.751110196113586426e+00 -1.841528892517089844e+01 1.741774231195449829e-01 4.008501052856445312e+00 1.254803538322448730e+00 -4.520579278469085693e-01
1.023000000000000000e+03 5.977821946144104004e-01 -1.578484821319580078e+01 -1.836728118360042572e-02 3.070188283920288086e+00 9.155462980270385742e-01 -2.145833373069763184e-01
1.024000000000000000e+03 5.793855786323547363e-01 -1.442034244537353516e+01 -6.317249685525894165e-02 3.456013441085815430e+00 1.017852306365966797e+00 -1.243229210376739502e-01
1.025000000000000000e+03 1.744925260543823242e+00 -1.428230094909667969e+01 -2.509635984897613525e-01 4.087710857391357422e+00 1.151024103164672852e+00 -1.636030673980712891e-01
1.026000000000000000e+03 5.557892322540283203e-01 -1.305468368530273438e+01 -5.362518504261970520e-02 3.580474138259887695e+00 1.058054685592651367e+00 1.812165230512619019e-02
1.027000000000000000e+03 4.874833226203918457e-01 -8.949390411376953125e+00 -3.034666180610656738e-03 2.263798952102661133e+00 6.782292723655700684e-01 2.489919513463973999e-01
1.028000000000000000e+03 4.171778261661529541e-01 -7.607371330261230469e+00 1.071314606815576553e-02 1.509512305259704590e+00 4.560676217079162598e-01 2.374302744865417480e-01
1.029000000000000000e+03 1.101060628890991211e+00 -6.249226570129394531e+00 5.747212469577789307e-02 1.094981908798217773e+00 3.457362353801727295e-01 5.214663147926330566e-01
1.030000000000000000e+03 7.385375213623046875e+01 -3.837015151977539062e+01 -4.180462062358856201e-01 8.268292427062988281e+00 2.355073928833007812e+00 -3.550769984722137451e-01
1.031000000000000000e+03 5.312505722045898438e+01 -4.102640151977539062e+01 1.419945154339075089e-02 1.099661231040954590e+00 3.341582119464874268e-01 -1.767956614494323730e-01
1.032000000000000000e+03 3.168253135681152344e+01 -3.898416137695312500e+01 -1.316392183303833008e+00 3.262759685516357422e+00 5.839102864265441895e-01 5.522187948226928711e-01
1.033000000000000000e+03 7.591120147705078125e+01 4.055726623535156250e+01 2.947274595499038696e-03 6.262212753295898438e+00 1.879547953605651855e+00 3.664278984069824219e-02
1.034000000000000000e+03 7.807733917236328125e+01 4.175995254516601562e+01 5.289983376860618591e-02 6.381032943725585938e+00 1.930179834365844727e+00 -1.477963849902153015e-02
1.035000000000000000e+03 7.877057647705078125e+01 3.893717956542968750e+01 -3.180918470025062561e-02 6.441889286041259766e+00 1.923024058341979980e+00 -1.905053481459617615e-02
1.036000000000000000e+03 7.720193481445312500e+01 3.721281814575195312e+01 -7.131573744118213654e-03 6.289461612701416016e+00 1.884698987007141113e+00 -6.512385327368974686e-03
1.037000000000000000e+03 7.916675567626953125e+01 3.478689956665039062e+01 1.614040345884859562e-03 6.471384048461914062e+00 1.941899418830871582e+00 -1.787961227819323540e-03
1.038000000000000000e+03 7.745877075195312500e+01 3.333484268188476562e+01 2.734219888225197792e-03 6.345390796661376953e+00 1.904437541961669922e+00 -9.355887770652770996e-03
1.039000000000000000e+03 7.916563415527343750e+01 3.340085601806640625e+01 1.550559420138597488e-03 6.478873729705810547e+00 1.944127321243286133e+00 -4.478574264794588089e-03
1.040000000000000000e+03 7.920561981201171875e+01 3.060467529296875000e+01 1.785426749847829342e-03 6.502972602844238281e+00 1.951427459716796875e+00 -6.273474544286727905e-03
1.041000000000000000e+03 7.770750427246093750e+01 2.906656837463378906e+01 1.218326110392808914e-02 6.392925262451171875e+00 1.921532630920410156e+00 -3.391993790864944458e-02
1.042000000000000000e+03 7.929544067382812500e+01 2.641926002502441406e+01 5.579215940088033676e-03 6.588407516479492188e+00 1.978196024894714355e+00 -2.144521661102771759e-02
1.043000000000000000e+03 7.645921325683593750e+01 2.611188888549804688e+01 4.881583154201507568e-02 6.334247589111328125e+00 1.914919018745422363e+00 -1.144995689392089844e-01
1.044000000000000000e+03 7.931795501708984375e+01 2.503341102600097656e+01 5.075472872704267502e-04 6.643288135528564453e+00 1.993138670921325684e+00 -2.805828116834163666e-02
1.045000000000000000e+03 7.935688018798828125e+01 2.087829589843750000e+01 7.115769200026988983e-03 6.914154052734375000e+00 2.076380968093872070e+00 -5.087966099381446838e-02
1.046000000000000000e+03 7.936157989501953125e+01 1.949495506286621094e+01 5.788085982203483582e-04 7.042708873748779297e+00 2.112986326217651367e+00 -5.964946374297142029e-02
1.047000000000000000e+03 7.807054138183593750e+01 2.082420730590820312e+01 1.653012260794639587e-02 6.775459289550781250e+00 2.037596940994262695e+00 -1.546550691127777100e-01
1.048000000000000000e+03 7.936305236816406250e+01 1.811193466186523438e+01 7.502944674342870712e-03 7.192048549652099609e+00 2.159865379333496094e+00 -6.840807944536209106e-02
1.049000000000000000e+03 7.935816955566406250e+01 1.395339298248291016e+01 -2.263778820633888245e-03 7.752090454101562500e+00 2.324948072433471680e+00 -9.041948616504669189e-02
1.050000000000000000e+03 7.935620880126953125e+01 1.256574344635009766e+01 5.744720343500375748e-03 7.968004226684570312e+00 2.392124652862548828e+00 -9.450338035821914673e-02
1.051000000000000000e+03 7.935362243652343750e+01 1.117762851715087891e+01 -5.467314738780260086e-03 8.189514160156250000e+00 2.455214023590087891e+00 -9.471315145492553711e-02
1.052000000000000000e+03 7.935078430175781250e+01 7.006641864776611328e+00 1.295187859795987606e-03 8.826356887817382812e+00 2.648295640945434570e+00 -7.755923271179199219e-02
1.053000000000000000e+03 7.935134124755859375e+01 5.614241123199462891e+00 -1.901674829423427582e-02 8.999756813049316406e+00 2.694221973419189453e+00 -5.767124891281127930e-02
1.054000000000000000e+03 7.806066131591796875e+01 5.712083816528320312e+00 -3.365559130907058716e-02 8.513637542724609375e+00 2.543994426727294922e+00 -2.034079432487487793e-01
1.055000000000000000e+03 7.935092163085937500e+01 4.220582008361816406e+00 -5.089133628644049168e-04 9.134305000305175781e+00 2.740138769149780273e+00 -3.769937530159950256e-02
1.056000000000000000e+03 7.935298156738281250e+01 3.704582154750823975e-02 -3.080278076231479645e-02 9.196413040161132812e+00 2.749682903289794922e+00 5.878488346934318542e-02
1.057000000000000000e+03 7.935363006591796875e+01 -1.355728387832641602e+00 -3.939524758607149124e-03 9.075203895568847656e+00 2.721379280090332031e+00 9.554819017648696899e-02
1.058000000000000000e+03 7.934848785400390625e+01 -4.152018547058105469e+00 -1.647246652282774448e-03 8.600058555603027344e+00 2.579523324966430664e+00 1.676533371210098267e-01
1.059000000000000000e+03 7.933349609375000000e+01 -8.361580848693847656e+00 -1.790469326078891754e-02 7.405628681182861328e+00 2.216317176818847656e+00 2.387194037437438965e-01
1.060000000000000000e+03 7.933413696289062500e+01 -1.117784023284912109e+01 2.060506027191877365e-03 6.492689609527587891e+00 1.948425054550170898e+00 2.232349514961242676e-01
1.061000000000000000e+03 7.938176727294921875e+01 -1.538246536254882812e+01 2.164562791585922241e-02 5.474918842315673828e+00 1.648969292640686035e+00 9.630022943019866943e-02
1.062000000000000000e+03 7.941123962402343750e+01 -1.816441726684570312e+01 4.367290996015071869e-03 5.316513538360595703e+00 1.596264243125915527e+00 -1.252256520092487335e-02
1.063000000000000000e+03 7.942436218261718750e+01 -2.372585487365722656e+01 -1.518578268587589264e-02 6.332079887390136719e+00 1.895068287849426270e+00 -1.963597238063812256e-01
1.064000000000000000e+03 7.941778564453125000e+01 -2.511303329467773438e+01 5.285333096981048584e-02 6.828736782073974609e+00 2.064476966857910156e+00 -2.371913492679595947e-01
1.065000000000000000e+03 7.938977050781250000e+01 -2.923397827148437500e+01 -5.501864105463027954e-02 8.696685791015625000e+00 2.592499971389770508e+00 -3.015108406543731689e-01
1.066000000000000000e+03 7.935114288330078125e+01 -3.197657585144042969e+01 -3.895793855190277100e-02 9.858420372009277344e+00 2.945838689804077148e+00 -2.623021006584167480e-01
1.067000000000000000e+03 7.926844024658203125e+01 -3.608456420898437500e+01 2.155425772070884705e-02 1.082471370697021484e+01 3.253880500793457031e+00 -1.040519848465919495e-01
1.068000000000000000e+03 7.920481109619140625e+01 -3.743006896972656250e+01 -8.929439634084701538e-02 1.089833927154541016e+01 3.242713451385498047e+00 -1.713292114436626434e-02
1.069000000000000000e+03 7.903290557861328125e+01 -3.875413894653320312e+01 5.379102192819118500e-03 1.085785484313964844e+01 3.258970260620117188e+00 2.919427864253520966e-02
1.070000000000000000e+03 7.867300415039062500e+01 -4.009983444213867188e+01 -8.870936185121536255e-02 1.074149894714355469e+01 3.195837020874023438e+00 1.076330542564392090e-01
1.071000000000000000e+03 7.710559368133544922e+00 3.660476684570312500e+01 -6.445439457893371582e-01 4.579365730285644531e+00 1.180446505546569824e+00 -7.252413034439086914e-01
1.072000000000000000e+03 6.751866149902343750e+01 4.096990585327148438e+01 -4.800452291965484619e-02 5.471426010131835938e+00 1.627026438713073730e+00 1.696640253067016602e-02
1.073000000000000000e+03 8.786538839340209961e-01 2.084976673126220703e+00 -9.076763875782489777e-03 -2.765352427959442139e-01 -8.568359911441802979e-02 1.769901216030120850e-01
1.074000000000000000e+03 4.755495548248291016e+00 1.923368334770202637e+00 9.121450036764144897e-02 1.403793692588806152e-01 6.947816163301467896e-02 1.597196906805038452e-01
1.075000000000000000e+03 1.359073042869567871e+00 6.562945365905761719e+00 5.706585571169853210e-02 -3.109461665153503418e-01 -7.616409659385681152e-02 -5.391686409711837769e-02
1.076000000000000000e+03 4.726532995700836182e-01 9.285324096679687500e+00 -1.099681016057729721e-03 -6.876088380813598633e-01 -2.066125571727752686e-01 -5.549144744873046875e-02
1.077000000000000000e+03 4.964362680912017822e-01 1.207075977325439453e+01 5.556614996748976409e-05 -3.827622532844543457e-01 -1.148120015859603882e-01 -5.147093161940574646e-02
1.078000000000000000e+03 1.493619322776794434e+00 1.199779987335205078e+01 -3.086125710979104042e-03 2.587884366512298584e-01 7.671069353818893433e-02 -1.449109315872192383e-01
1.079000000000000000e+03 5.559085607528686523e-01 1.626409530639648438e+01 -2.035456709563732147e-03 5.603129044175148010e-02 1.619875058531761169e-02 -6.107048317790031433e-02
1.080000000000000000e+03 5.657622814178466797e-01 1.766471099853515625e+01 7.497834041714668274e-03 2.218309789896011353e-01 6.879864633083343506e-02 -6.953690946102142334e-02
1.081000000000000000e+03 6.016666889190673828e-01 2.188297653198242188e+01 1.054468378424644470e-02 1.017425656318664551e+00 3.083910942077636719e-01 -1.457674503326416016e-01
1.082000000000000000e+03 6.147075295448303223e-01 2.329470252990722656e+01 1.055825874209403992e-02 1.389030098915100098e+00 4.198765158653259277e-01 -1.702159643173217773e-01
1.083000000000000000e+03 1.841216444969177246e+00 2.304736709594726562e+01 3.868374973535537720e-02 1.937764286994934082e+00 5.929344296455383301e-01 -4.573810994625091553e-01
1.084000000000000000e+03 6.234920620918273926e-01 2.470928764343261719e+01 5.831406917423009872e-03 1.799895763397216797e+00 5.417181253433227539e-01 -1.879726499319076538e-01
1.085000000000000000e+03 6.376712918281555176e-01 2.895522308349609375e+01 2.674640621989965439e-03 3.183923006057739258e+00 9.559792876243591309e-01 -2.146686911582946777e-01
1.086000000000000000e+03 6.485309004783630371e-01 3.036123466491699219e+01 -3.928112331777811050e-03 3.648885726928710938e+00 1.093487262725830078e+00 -2.118451595306396484e-01
1.087000000000000000e+03 3.186365842819213867e+00 2.851138114929199219e+01 -5.431078840047121048e-03 3.580041170120239258e+00 1.072383046150207520e+00 -8.825978040695190430e-01
1.088000000000000000e+03 6.773551106452941895e-01 3.176820945739746094e+01 4.951930604875087738e-03 4.101897239685058594e+00 1.232054710388183594e+00 -2.141805440187454224e-01
1.089000000000000000e+03 9.003092646598815918e-01 3.603762817382812500e+01 -4.626039043068885803e-02 5.150988101959228516e+00 1.531418323516845703e+00 -1.563220471143722534e-01
1.090000000000000000e+03 9.556965827941894531e-01 3.749252700805664062e+01 -4.250746592879295349e-02 5.326585769653320312e+00 1.585223436355590820e+00 -8.926707506179809570e-02
1.091000000000000000e+03 9.039569497108459473e-01 3.887966918945312500e+01 3.374876827001571655e-02 5.449654579162597656e+00 1.645020961761474609e+00 -8.598970621824264526e-02
1.092000000000000000e+03 1.109075665473937988e+00 4.015194320678710938e+01 -8.870118856430053711e-02 5.526827812194824219e+00 1.631438016891479492e+00 -1.969409361481666565e-02
1.093000000000000000e+03 2.895141124725341797e+00 1.657283186912536621e+00 -1.413368433713912964e-01 -2.533338591456413269e-02 -5.000106990337371826e-02 3.385130465030670166e-01
1.094000000000000000e+03 2.257077455520629883e+00 1.677551984786987305e+00 -1.071983352303504944e-01 -7.427814602851867676e-02 -5.444294586777687073e-02 3.190864324569702148e-01
1.095000000000000000e+03 1.696938276290893555e+00 1.594651818275451660e+00 -9.505530446767807007e-02 -1.091017350554466248e-01 -6.124711036682128906e-02 2.726786732673645020e-01
1.096000000000000000e+03 1.507008075714111328e+00 1.607499480247497559e+00 -8.251792937517166138e-02 -1.210842281579971313e-01 -6.108064576983451843e-02 2.669593095779418945e-01
1.097000000000000000e+03 1.330353021621704102e+00 1.846104264259338379e+00 -4.273122921586036682e-02 -1.751332432031631470e-01 -6.535933911800384521e-02 2.635456919670104980e-01
1.098000000000000000e+03 9.057970643043518066e-01 1.811766386032104492e+00 -3.494133800268173218e-02 -1.821722686290740967e-01 -6.513408571481704712e-02 1.878813356161117554e-01
1.099000000000000000e+03 5.601646900177001953e-01 1.660279035568237305e+00 -3.677186369895935059e-02 -2.222695797681808472e-01 -7.771243155002593994e-02 1.205147504806518555e-01
1.100000000000000000e+03 1.150529861450195312e+01 -7.664114236831665039e-01 7.862088680267333984e+00 1.100850200653076172e+01 5.661177158355712891e+00 -1.415699481964111328e+00
1.101000000000000000e+03 1.169107818603515625e+01 -3.555335998535156250e-01 8.801481246948242188e+00 1.003660678863525391e+01 5.651426315307617188e+00 -4.579128921031951904e-01
1.102000000000000000e+03 1.166290378570556641e+01 3.566921353340148926e-01 8.394510269165039062e+00 1.044437885284423828e+01 5.651666641235351562e+00 1.618047714233398438e+00
1.103000000000000000e+03 1.126086044311523438e+01 1.075329899787902832e+00 4.741925716400146484e+00 1.293204593658447266e+01 5.302191734313964844e+00 2.362969160079956055e+00
1.104000000000000000e+03 1.136371040344238281e+01 9.015547633171081543e-01 5.748713970184326172e+00 1.244925498962402344e+01 5.459390640258789062e+00 2.504384040832519531e+00
1.105000000000000000e+03 1.099762916564941406e+01 1.429594874382019043e+00 2.587176799774169922e+00 1.349551010131835938e+01 4.824806213378906250e+00 1.088025331497192383e+00
1.106000000000000000e+03 1.078532314300537109e+01 1.564219117164611816e+00 1.678870558738708496e+00 1.358819389343261719e+01 4.580119609832763672e+00 1.269983649253845215e-01
1.107000000000000000e+03 1.055815982818603516e+01 1.641027927398681641e+00 1.145031332969665527e+00 1.326013088226318359e+01 4.321548461914062500e+00 -9.033624529838562012e-01
1.108000000000000000e+03 1.420036983489990234e+01 -1.635474586486816406e+01 -6.192790031433105469e+00 -6.293398737907409668e-01 -2.046638965606689453e+00 1.546645402908325195e+00
1.109000000000000000e+03 1.959516716003417969e+01 -1.732741546630859375e+01 -2.970112085342407227e+00 2.885380387306213379e-01 -8.044722676277160645e-01 4.228990972042083740e-01
1.110000000000000000e+03 1.928721237182617188e+01 -1.839056968688964844e+01 -3.004618167877197266e+00 -5.824268609285354614e-02 -9.188582897186279297e-01 6.779460310935974121e-01
1.111000000000000000e+03 2.183806228637695312e+01 -1.878706359863281250e+01 -2.860496282577514648e+00 6.869651377201080322e-02 -8.375399112701416016e-01 8.668740838766098022e-02
1.112000000000000000e+03 2.417576980590820312e+01 -1.758612442016601562e+01 -2.731818914413452148e+00 2.270146161317825317e-01 -7.514412999153137207e-01 -2.241348326206207275e-01
1.113000000000000000e+03 2.189858436584472656e+01 -1.675549888610839844e+01 -2.533937215805053711e+00 3.917359411716461182e-01 -6.426603794097900391e-01 2.788092754781246185e-02
1.114000000000000000e+03 2.823465347290039062e+01 -1.780149650573730469e+01 -3.454054117202758789e+00 4.028347879648208618e-02 -1.024131178855895996e+00 -6.193534731864929199e-01
1.115000000000000000e+03 3.500631713867187500e+01 -1.874702644348144531e+01 2.910357415676116943e-01 1.029354858398437500e+01 3.175375223159790039e+00 -1.893668889999389648e+00
1.116000000000000000e+03 3.260586929321289062e+01 -2.941803932189941406e+01 1.801786303520202637e+00 4.476098537445068359e+00 1.883365392684936523e+00 2.755012750625610352e+00
1.117000000000000000e+03 2.968314933776855469e+01 -3.114921760559082031e+01 -6.649899482727050781e-02 8.104392290115356445e-01 2.231820672750473022e-01 8.447120189666748047e-01
1.118000000000000000e+03 2.688369369506835938e+01 -3.151949310302734375e+01 -1.473222732543945312e+00 8.845257759094238281e-02 -4.154310524463653564e-01 7.385255396366119385e-02
1.119000000000000000e+03 2.283385086059570312e+01 -3.163369369506835938e+01 -1.954528927803039551e+00 -2.032766863703727722e-02 -5.924569964408874512e-01 -1.005456373095512390e-01
1.120000000000000000e+03 2.295056152343750000e+01 -3.280070114135742188e+01 -1.626778483390808105e+00 -6.213972344994544983e-02 -5.066754221916198730e-01 4.173810407519340515e-02
1.121000000000000000e+03 2.151109886169433594e+01 -3.172688102722167969e+01 -2.103487730026245117e+00 -3.659313172101974487e-02 -6.420242190361022949e-01 -4.432545602321624756e-02
1.122000000000000000e+03 1.931049919128417969e+01 -3.349275970458984375e+01 -1.798443436622619629e+00 -1.626713871955871582e-01 -5.883344411849975586e-01 3.859902918338775635e-01
1.123000000000000000e+03 1.649315643310546875e+01 -3.409434509277343750e+01 -1.693141937255859375e+00 -4.580450952053070068e-01 -6.453561186790466309e-01 6.358135938644409180e-01
1.124000000000000000e+03 1.611322021484375000e+01 -3.207568359375000000e+01 -3.181375980377197266e+00 -2.703641057014465332e-01 -1.035522103309631348e+00 5.550042986869812012e-01
1.125000000000000000e+03 1.200607109069824219e+01 -3.141467857360839844e+01 -4.063056945800781250e+00 -3.815811872482299805e-01 -1.333391547203063965e+00 1.113851547241210938e+00
1.126000000000000000e+03 1.070354461669921875e+01 -3.184114456176757812e+01 -3.257855892181396484e+00 -5.076357722282409668e-01 -1.129647493362426758e+00 9.415146708488464355e-01
1.127000000000000000e+03 6.563920974731445312e+00 -1.844404220581054688e+01 2.285565376281738281e+00 1.077376461029052734e+01 3.917798757553100586e+00 3.353372097015380859e+00
1.128000000000000000e+03 3.110931396484375000e+01 3.715172576904296875e+01 -2.116270303726196289e+00 -9.976248443126678467e-02 -6.648098230361938477e-01 4.359909892082214355e-01
1.129000000000000000e+03 3.817223358154296875e+01 3.442186355590820312e+01 -9.436528086662292480e-01 1.229993253946304321e-01 -2.461960464715957642e-01 3.122375905513763428e-01
1.130000000000000000e+03 4.165496826171875000e+01 2.681673622131347656e+01 1.043473556637763977e-01 5.093894004821777344e+00 1.559472441673278809e+00 -1.057986319065093994e-01
1.131000000000000000e+03 4.165216445922851562e+01 2.120699882507324219e+01 3.695918247103691101e-02 5.755403518676757812e+00 1.737708806991577148e+00 2.038937509059906006e-01
1.132000000000000000e+03 4.164122390747070312e+01 1.980803489685058594e+01 1.970698498189449310e-02 6.251589775085449219e+00 1.881389021873474121e+00 2.663816213607788086e-01
1.133000000000000000e+03 4.162641143798828125e+01 1.840569877624511719e+01 1.311079114675521851e-01 7.050528526306152344e+00 2.154490947723388672e+00 4.291841089725494385e-01
1.134000000000000000e+03 4.149762344360351562e+01 1.560323333740234375e+01 3.252885043621063232e-01 8.819896697998046875e+00 2.743555545806884766e+00 1.094128012657165527e+00
1.135000000000000000e+03 4.054991149902343750e+01 1.005104827880859375e+01 1.000707030296325684e+00 1.209626293182373047e+01 3.929091215133666992e+00 3.062931299209594727e+00
1.136000000000000000e+03 4.530732345581054688e+01 4.151690006256103516e+00 -6.993998289108276367e-01 3.723203420639038086e+00 9.071410298347473145e-01 2.831543207168579102e+00
1.137000000000000000e+03 3.790142059326171875e+01 3.521823406219482422e+00 1.239825963973999023e+00 6.870687484741210938e+00 2.433154106140136719e+00 2.969131469726562500e+00
1.138000000000000000e+03 3.604225921630859375e+01 1.294543266296386719e+00 -7.194538116455078125e-01 1.759655833244323730e+00 3.120606243610382080e-01 3.267275094985961914e-01
1.139000000000000000e+03 3.255206680297851562e+01 -1.113946795463562012e+00 -1.907753229141235352e+00 -6.897370219230651855e-01 -7.792471051216125488e-01 -1.272258043289184570e+00
1.140000000000000000e+03 2.976560401916503906e+01 -2.174248695373535156e+00 1.115704655647277832e+00 -2.040965110063552856e-01 2.734824419021606445e-01 -9.041835069656372070e-01
1.141000000000000000e+03 2.308696556091308594e+01 3.566458821296691895e-01 2.337930679321289062e+00 1.580895185470581055e+00 1.175647735595703125e+00 -1.825650572776794434e+00
1.142000000000000000e+03 1.871574592590332031e+01 7.510554313659667969e+00 2.288944125175476074e-01 3.365133285522460938e+00 1.078208327293395996e+00 -8.803678750991821289e-01
1.143000000000000000e+03 1.765828132629394531e+01 1.017783927917480469e+01 4.056123197078704834e-01 5.628163814544677734e+00 1.810132861137390137e+00 -1.587512254714965820e+00
1.144000000000000000e+03 1.719539260864257812e+01 1.150904178619384766e+01 5.791759490966796875e-01 6.930569171905517578e+00 2.252923488616943359e+00 -1.941008806228637695e+00
1.145000000000000000e+03 1.676324081420898438e+01 1.283584499359130859e+01 6.207659244537353516e-01 7.981768131256103516e+00 2.580760240554809570e+00 -2.085508823394775391e+00
1.146000000000000000e+03 1.558894634246826172e+01 1.686785125732421875e+01 6.915264129638671875e-01 1.098678207397460938e+01 3.503492593765258789e+00 -1.992448210716247559e+00
1.147000000000000000e+03 1.517328834533691406e+01 2.112114906311035156e+01 1.574051529169082642e-01 1.054307842254638672e+01 3.210144996643066406e+00 -2.520124316215515137e-01
1.148000000000000000e+03 1.520989513397216797e+01 2.254202651977539062e+01 1.288770884275436401e-01 1.015978431701660156e+01 3.086598396301269531e+00 6.887370347976684570e-02
1.149000000000000000e+03 1.550561618804931641e+01 2.536648750305175781e+01 6.317027807235717773e-01 9.264144897460937500e+00 2.968754291534423828e+00 1.383835196495056152e+00
1.150000000000000000e+03 1.753960800170898438e+01 3.066803169250488281e+01 3.013351857662200928e-01 2.854676961898803711e+00 9.468036293983459473e-01 9.938612580299377441e-01
1.151000000000000000e+03 2.398105049133300781e+01 3.669588851928710938e+01 -2.049447536468505859e+00 -3.262862861156463623e-01 -7.127201557159423828e-01 -6.208123564720153809e-01
1.152000000000000000e+03 2.553773880004882812e+01 3.710539245605468750e+01 -2.153110027313232422e+00 -2.363297790288925171e-01 -7.168319225311279297e-01 -4.804943501949310303e-01
1.153000000000000000e+03 4.850500869750976562e+01 1.247943520545959473e+00 -5.784350395202636719e+00 -7.047510743141174316e-01 -1.946730494499206543e+00 1.521723747253417969e+00
1.154000000000000000e+03 5.377368927001953125e+01 -5.930432677268981934e-01 -4.302787780761718750e+00 -3.466996923089027405e-02 -1.301237344741821289e+00 6.677194833755493164e-01
1.155000000000000000e+03 5.512923431396484375e+01 -8.008553385734558105e-01 -4.689361095428466797e+00 -9.511505067348480225e-02 -1.435342788696289062e+00 6.365276575088500977e-01
1.156000000000000000e+03 5.785720825195312500e+01 -1.314385175704956055e+00 -4.507814884185791016e+00 -1.970109343528747559e-01 -1.411447763442993164e+00 8.434286117553710938e-01
1.157000000000000000e+03 6.303276824951171875e+01 -3.476754188537597656e+00 -4.750432968139648438e-01 1.162398219108581543e+00 2.062064856290817261e-01 -4.699639678001403809e-01
1.158000000000000000e+03 6.640043640136718750e+01 -8.236515998840332031e+00 6.298966407775878906e-01 6.960799217224121094e+00 2.277208805084228516e+00 -2.360762357711791992e+00
1.159000000000000000e+03 6.789640045166015625e+01 -1.215567016601562500e+01 1.384340882301330566e+00 1.207494354248046875e+01 4.037785530090332031e+00 -3.701465845108032227e+00
1.160000000000000000e+03 6.831761932373046875e+01 -1.348923015594482422e+01 1.345520377159118652e+00 1.519407176971435547e+01 4.961877822875976562e+00 -3.470977783203125000e+00
1.161000000000000000e+03 6.991353607177734375e+01 -1.735971641540527344e+01 4.804408848285675049e-01 1.454694271087646484e+01 4.508214950561523438e+00 -7.526167631149291992e-01
1.162000000000000000e+03 6.885994720458984375e+01 -2.037523841857910156e+01 -1.601631939411163330e-02 1.503490161895751953e+01 4.505665779113769531e+00 -8.553823083639144897e-02
1.163000000000000000e+03 6.897449493408203125e+01 -2.311424636840820312e+01 1.887867152690887451e-01 1.566011619567871094e+01 4.754670619964599609e+00 3.541516065597534180e-01
1.164000000000000000e+03 6.902770233154296875e+01 -2.444890594482421875e+01 1.122667193412780762e+00 1.539316749572753906e+01 4.954750537872314453e+00 1.548057556152343750e+00
1.165000000000000000e+03 6.769098663330078125e+01 -2.793756103515625000e+01 1.358333349227905273e+00 7.935359001159667969e+00 2.788107633590698242e+00 2.823794364929199219e+00
1.166000000000000000e+03 5.106082153320312500e+01 -2.690051651000976562e+01 1.017747297883033752e-01 2.309158593416213989e-01 9.980718046426773071e-02 -1.818643063306808472e-01
1.167000000000000000e+03 5.010144805908203125e+01 -2.588503456115722656e+01 1.796906441450119019e-01 2.781603038311004639e-01 1.373552829027175903e-01 -2.185393571853637695e-01
1.168000000000000000e+03 4.715919876098632812e+01 -2.290025520324707031e+01 3.044838011264801025e-01 4.858481884002685547e-01 2.370996028184890747e-01 -3.840165138244628906e-01
1.169000000000000000e+03 4.560702133178710938e+01 -2.529013442993164062e+01 7.696487903594970703e-01 2.253978490829467773e+00 9.070881605148315430e-01 -1.231636881828308105e+00
1.170000000000000000e+03 4.350761413574218750e+01 -1.891236114501953125e+01 1.192461252212524414e+00 3.778125047683715820e+00 1.491175889968872070e+00 -2.051790952682495117e+00
1.171000000000000000e+03 4.154471969604492188e+01 -1.353183174133300781e+01 3.943725526332855225e-01 1.451098823547363281e+01 4.471608161926269531e+00 -1.132532715797424316e+00
1.172000000000000000e+03 4.039136505126953125e+01 -1.354652500152587891e+01 2.926912009716033936e-01 1.282241058349609375e+01 3.934530496597290039e+00 -7.962909936904907227e-01
1.173000000000000000e+03 4.137181091308593750e+01 -7.954204082489013672e+00 8.065471053123474121e-01 1.749806976318359375e+01 5.491384983062744141e+00 1.316868305206298828e+00
1.174000000000000000e+03 4.154130554199218750e+01 -6.568610191345214844e+00 1.203818082809448242e+00 1.707417297363281250e+01 5.483397006988525391e+00 3.013552188873291016e+00
1.175000000000000000e+03 4.370161819458007812e+01 -4.212947562336921692e-02 1.059791326522827148e+00 7.493944644927978516e+00 2.566120862960815430e+00 3.516651391983032227e+00
1.176000000000000000e+03 1.146537017822265625e+01 7.297912836074829102e-01 6.761914253234863281e+00 1.176007747650146484e+01 5.556597232818603516e+00 2.426500082015991211e+00
1.177000000000000000e+03 1.126390266418457031e+01 -1.131547808647155762e+00 6.122520923614501953e+00 1.218573760986328125e+01 5.492477893829345703e+00 -1.381770730018615723e+00
1.178000000000000000e+03 1.108636569976806641e+01 -1.255654811859130859e+00 5.269028663635253906e+00 1.286347866058349609e+01 5.439752101898193359e+00 -1.006826996803283691e+00
1.179000000000000000e+03 1.161769199371337891e+01 -5.728101134300231934e-01 8.482684135437011719e+00 1.037829399108886719e+01 5.658293247222900391e+00 -1.029255509376525879e+00
1.180000000000000000e+03 1.140698051452636719e+01 -9.669132232666015625e-01 6.929257392883300781e+00 1.164343643188476562e+01 5.571808338165283203e+00 -1.489157557487487793e+00
1.181000000000000000e+03 1.170606613159179688e+01 -1.156302690505981445e-01 8.909624099731445312e+00 9.903124809265136719e+00 5.643824577331542969e+00 2.348773479461669922e-01
1.182000000000000000e+03 1.171081733703613281e+01 1.270416975021362305e-01 8.801296234130859375e+00 1.000926303863525391e+01 5.643167495727539062e+00 9.588212370872497559e-01
1.183000000000000000e+03 9.733381271362304688e+00 -1.690499186515808105e+00 3.443666458129882812e+00 1.012065029144287109e+01 4.069294929504394531e+00 4.766849994659423828e+00
1.184000000000000000e+03 9.902667999267578125e+00 1.685783624649047852e+00 1.172787308692932129e+00 1.094329833984375000e+01 3.634825706481933594e+00 -3.503560543060302734e+00
1.185000000000000000e+03 1.026807308197021484e+01 -2.036339521408081055e+00 2.439485788345336914e+00 1.132686138153076172e+01 4.129904270172119141e+00 2.676038742065429688e+00
1.186000000000000000e+03 1.054674625396728516e+01 -1.566850185394287109e+00 3.256985425949096680e+00 1.348076915740966797e+01 5.021326541900634766e+00 1.419489383697509766e+00
1.187000000000000000e+03 1.184240341186523438e+01 7.337474226951599121e-01 6.697680473327636719e+00 1.035794544219970703e+01 5.116687774658203125e+00 2.034081697463989258e+00
1.188000000000000000e+03 1.156657505035400391e+01 5.528406500816345215e-01 7.731307506561279297e+00 1.104939556121826172e+01 5.634210586547851562e+00 2.169354677200317383e+00
1.189000000000000000e+03 6.161127686500549316e-01 -2.212510585784912109e+00 5.570353940129280090e-02 -8.728212863206863403e-02 -9.473576210439205170e-03 -3.281933069229125977e-02
1.190000000000000000e+03 5.756096243858337402e-01 -1.748432874679565430e+00 3.052637726068496704e-02 -8.808042109012603760e-02 -1.726621389389038086e-02 -5.106972530484199524e-02
1.191000000000000000e+03 9.393601417541503906e-01 -1.654984116554260254e+00 4.499423131346702576e-02 -4.529643058776855469e-02 -9.065960330190137029e-05 -6.931153684854507446e-02
1.192000000000000000e+03 4.680553376674652100e-01 -2.773445367813110352e+00 4.498839844018220901e-03 -1.774630546569824219e-01 -5.188926309347152710e-02 1.334375794976949692e-02
1.193000000000000000e+03 1.021371006965637207e+00 -3.993340253829956055e+00 9.909652918577194214e-02 2.611632049083709717e-01 1.080779209733009338e-01 2.073832005262374878e-01
1.194000000000000000e+03 1.130028605461120605e+00 -1.656323671340942383e+00 6.012940034270286560e-02 -1.107649970799684525e-02 1.471586991101503372e-02 -7.150686532258987427e-02
1.195000000000000000e+03 2.270831584930419922e+00 -2.034888505935668945e+00 2.506938278675079346e-01 1.575425118207931519e-01 1.224709004163742065e-01 8.989422768354415894e-02
1.196000000000000000e+03 1.531237006187438965e+00 -1.663601279258728027e+00 5.738718807697296143e-02 4.588923603296279907e-02 3.098292835056781769e-02 -5.379682034254074097e-02
1.197000000000000000e+03 1.912101984024047852e+00 -1.684577703475952148e+00 1.087741777300834656e-01 7.152439653873443604e-02 5.408957228064537048e-02 -3.346898034214973450e-02
1.198000000000000000e+03 1.825380325317382812e+00 -1.942673087120056152e+00 1.305773109197616577e-01 5.871287733316421509e-02 5.678705871105194092e-02 -3.068964183330535889e-02
1.199000000000000000e+03 3.626819252967834473e-01 -6.282267570495605469e+00 2.046990022063255310e-02 7.524051070213317871e-01 2.318625003099441528e-01 1.807832866907119751e-01
1.200000000000000000e+03 3.098335981369018555e+00 -1.661853432655334473e+00 3.243499696254730225e-01 1.574017107486724854e-01 1.445255130529403687e-01 1.490824073553085327e-01
1.201000000000000000e+03 1.482035517692565918e+00 -8.763283729553222656e+00 -3.615910187363624573e-02 2.417027235031127930e+00 7.142604589462280273e-01 7.559558749198913574e-01
1.202000000000000000e+03 3.333948135375976562e+00 -1.691475629806518555e+00 3.969755768775939941e-01 1.690917164087295532e-01 1.698201894760131836e-01 1.961610764265060425e-01
1.203000000000000000e+03 3.540103435516357422e+00 -1.647064089775085449e+00 4.567860066890716553e-01 1.710921823978424072e-01 1.883634626865386963e-01 2.315958887338638306e-01
1.204000000000000000e+03 3.715557813644409180e+00 -1.611199617385864258e+00 4.986511468887329102e-01 1.520459651947021484e-01 1.952091306447982788e-01 2.570190131664276123e-01
1.205000000000000000e+03 3.696297883987426758e+00 -1.823276042938232422e+00 5.246754288673400879e-01 2.168351411819458008e-01 2.224531769752502441e-01 3.148517310619354248e-01
1.206000000000000000e+03 4.101891517639160156e+00 -1.864439368247985840e+00 7.205180525779724121e-01 2.751379311084747314e-01 2.986967861652374268e-01 4.525808095932006836e-01
1.207000000000000000e+03 4.472137451171875000e+00 -1.640667676925659180e+00 7.743743658065795898e-01 2.299074828624725342e-01 3.012845516204833984e-01 4.673393666744232178e-01
1.208000000000000000e+03 4.676689147949218750e+00 -2.000447273254394531e+00 1.009912848472595215e+00 3.377869129180908203e-01 4.043099284172058105e-01 6.849716901779174805e-01
1.209000000000000000e+03 5.092153072357177734e+00 -1.622083663940429688e+00 1.039810776710510254e+00 2.621771097183227539e-01 3.905963599681854248e-01 6.392668485641479492e-01
1.210000000000000000e+03 5.141638278961181641e+00 -1.840412139892578125e+00 1.221027255058288574e+00 3.512673974037170410e-01 4.716883897781372070e-01 7.828722596168518066e-01
1.211000000000000000e+03 5.472398757934570312e+00 -1.670021533966064453e+00 1.323827028274536133e+00 3.141184449195861816e-01 4.913836419582366943e-01 8.089829683303833008e-01
1.212000000000000000e+03 5.687284946441650391e+00 -1.672778367996215820e+00 1.482491970062255859e+00 3.508404493331909180e-01 5.499997138977050781e-01 9.024648070335388184e-01
1.213000000000000000e+03 5.892466068267822266e+00 -1.674410700798034668e+00 1.614852547645568848e+00 3.585395812988281250e-01 5.920176506042480469e-01 9.734112024307250977e-01
1.214000000000000000e+03 6.095375061035156250e+00 -1.662070393562316895e+00 1.743587851524353027e+00 4.203293919563293457e-01 6.491751670837402344e-01 1.080220460891723633e+00
1.215000000000000000e+03 6.297405719757080078e+00 -1.642769217491149902e+00 1.905200123786926270e+00 4.645383656024932861e-01 7.109215259552001953e-01 1.180103182792663574e+00
1.216000000000000000e+03 6.497117519378662109e+00 -1.638801574707031250e+00 2.102652072906494141e+00 5.259967446327209473e-01 7.885946035385131836e-01 1.299592256546020508e+00
1.217000000000000000e+03 6.695217132568359375e+00 -1.649760127067565918e+00 2.315169095993041992e+00 5.584610700607299805e-01 8.620890378952026367e-01 1.422629356384277344e+00
1.218000000000000000e+03 7.099279880523681641e+00 -1.657222270965576172e+00 2.752403497695922852e+00 8.087968230247497559e-01 1.068360090255737305e+00 1.796808600425720215e+00
1.219000000000000000e+03 7.510570526123046875e+00 -1.661006093025207520e+00 3.239090204238891602e+00 1.120310425758361816e+00 1.307820200920104980e+00 2.234972476959228516e+00
1.220000000000000000e+03 7.712338924407958984e+00 -1.653962612152099609e+00 3.501084089279174805e+00 1.378435730934143066e+00 1.463855862617492676e+00 2.502507925033569336e+00
1.221000000000000000e+03 8.152785301208496094e+00 -1.910766482353210449e+00 3.765049219131469727e+00 2.594477891921997070e+00 1.907858133316040039e+00 3.468867540359497070e+00
1.222000000000000000e+03 8.500076293945312500e+00 -1.599116683006286621e+00 4.368123054504394531e+00 2.961028814315795898e+00 2.198745489120483398e+00 3.906077861785888672e+00
1.223000000000000000e+03 9.092149734497070312e+00 -1.691200852394104004e+00 4.210516929626464844e+00 5.896906375885009766e+00 3.032227039337158203e+00 4.893456459045410156e+00
1.224000000000000000e+03 9.683219909667968750e+00 1.694784760475158691e+00 1.462384819984436035e+00 9.319106101989746094e+00 3.234447479248046875e+00 -4.028184890747070312e+00
1.225000000000000000e+03 9.467470169067382812e+00 1.670743584632873535e+00 1.802694439888000488e+00 7.799017429351806641e+00 2.880513668060302734e+00 -4.282755374908447266e+00
1.226000000000000000e+03 8.988369941711425781e+00 1.932194828987121582e+00 1.939189314842224121e+00 5.249662876129150391e+00 2.156655788421630859e+00 -3.647048473358154297e+00
1.227000000000000000e+03 8.710058212280273438e+00 1.676589608192443848e+00 2.288616657257080078e+00 3.501917362213134766e+00 1.737160205841064453e+00 -3.229837179183959961e+00
1.228000000000000000e+03 8.497981071472167969e+00 1.663600087165832520e+00 2.214794397354125977e+00 2.729643106460571289e+00 1.483331322669982910e+00 -2.800556421279907227e+00
1.229000000000000000e+03 7.709217548370361328e+00 1.608405113220214844e+00 1.442655563354492188e+00 1.003256320953369141e+00 7.337735891342163086e-01 -1.363721370697021484e+00
1.230000000000000000e+03 7.783189773559570312e+00 1.806606054306030273e+00 1.631143212318420410e+00 1.376700878143310547e+00 9.023532271385192871e-01 -1.630741953849792480e+00
1.231000000000000000e+03 7.524371147155761719e+00 1.630187869071960449e+00 1.281695723533630371e+00 8.611370921134948730e-01 6.428498625755310059e-01 -1.126431226730346680e+00
1.232000000000000000e+03 7.593989849090576172e+00 1.884317755699157715e+00 1.518965005874633789e+00 1.274820566177368164e+00 8.381356596946716309e-01 -1.485277652740478516e+00
1.233000000000000000e+03 6.707158088684082031e+00 1.695251584053039551e+00 6.574262976646423340e-01 4.644235074520111084e-01 3.365549445152282715e-01 -5.050728321075439453e-01
1.234000000000000000e+03 6.666303634643554688e+00 1.999471783638000488e+00 8.806187510490417480e-01 6.158521771430969238e-01 4.489412605762481689e-01 -6.510200500488281250e-01
1.235000000000000000e+03 6.292063236236572266e+00 1.679366946220397949e+00 4.111796617507934570e-01 3.224822878837585449e-01 2.200985848903656006e-01 -2.631301581859588623e-01
1.236000000000000000e+03 5.826903343200683594e+00 1.879886984825134277e+00 3.668153285980224609e-01 3.125129938125610352e-01 2.037984877824783325e-01 -1.530703306198120117e-01
1.237000000000000000e+03 5.884561061859130859e+00 1.635229706764221191e+00 1.827993243932723999e-01 2.269794791936874390e-01 1.229336410760879517e-01 -7.969700545072555542e-02
1.238000000000000000e+03 5.500205039978027344e+00 1.848222136497497559e+00 2.174891531467437744e-01 2.360782772302627563e-01 1.360702216625213623e-01 -1.848238334059715271e-02
1.239000000000000000e+03 4.584125041961669922e+00 2.004865407943725586e+00 1.150719970464706421e-01 1.452260464429855347e-01 7.808940857648849487e-02 1.742603182792663574e-01
1.240000000000000000e+03 4.377679347991943359e+00 2.128827810287475586e+00 1.316549032926559448e-01 1.376094073057174683e-01 8.077929168939590454e-02 1.884980350732803345e-01
1.241000000000000000e+03 4.300088882446289062e+00 1.715942740440368652e+00 -8.417736738920211792e-02 7.121437788009643555e-02 -3.888895036652684212e-03 2.629522979259490967e-01
1.242000000000000000e+03 4.081557750701904297e+00 1.707567095756530762e+00 -1.027927026152610779e-01 5.771796405315399170e-02 -1.352242100983858109e-02 2.769964337348937988e-01
1.243000000000000000e+03 3.094213008880615234e+00 1.648906826972961426e+00 -1.378452926874160767e-01 -1.509046275168657303e-02 -4.588072746992111206e-02 3.367098569869995117e-01
1.244000000000000000e+03 2.688998937606811523e+00 1.674417614936828613e+00 -1.285195350646972656e-01 -3.902427852153778076e-02 -5.026314407587051392e-02 3.440470397472381592e-01
1.245000000000000000e+03 2.853022098541259766e+00 2.246022939682006836e+00 2.612776495516300201e-02 -2.083257585763931274e-02 1.588556333445012569e-03 3.270566165447235107e-01
1.246000000000000000e+03 2.465377807617187500e+00 1.704317688941955566e+00 -1.131068170070648193e-01 -6.352701038122177124e-02 -5.299014970660209656e-02 3.328679800033569336e-01
1.247000000000000000e+03 2.062169313430786133e+00 1.643301248550415039e+00 -1.100674569606781006e-01 -9.029520303010940552e-02 -6.010879948735237122e-02 3.019779324531555176e-01
1.248000000000000000e+03 1.872246623039245605e+00 1.619277715682983398e+00 -1.044375672936439514e-01 -9.248591214418411255e-02 -5.907704308629035950e-02 2.907349765300750732e-01
1.249000000000000000e+03 6.362039446830749512e-01 1.972348809242248535e+00 -3.463096916675567627e-02 -2.121584415435791016e-01 -7.403682172298431396e-02 1.457664370536804199e-01
1.250000000000000000e+03 7.452143430709838867e-01 1.631832480430603027e+00 -3.834602236747741699e-02 -1.819431185722351074e-01 -6.608673930168151855e-02 1.728644669055938721e-01
1.251000000000000000e+03 2.021036744117736816e-01 1.695389270782470703e+00 -4.533862695097923279e-02 -2.418064922094345093e-01 -8.614353835582733154e-02 1.649502851068973541e-02
1.252000000000000000e+03 3.604584932327270508e-01 1.652618765830993652e+00 -2.189279720187187195e-02 -1.798389106988906860e-01 -6.051951274275779724e-02 9.652999043464660645e-02
1.253000000000000000e+03 1.911184668540954590e+00 -3.055778121948242188e+01 -4.524106681346893311e-01 8.879166603088378906e+00 2.528026580810546875e+00 9.324983358383178711e-01
1.254000000000000000e+03 3.160939216613769531e+01 -1.758433723449707031e+01 -3.456434249877929688e+00 -1.859711557626724243e-01 -1.092721581459045410e+00 8.610759675502777100e-02
1.255000000000000000e+03 3.381670761108398438e+01 -1.850240707397460938e+01 3.269024491310119629e-01 4.813493251800537109e+00 1.542118668556213379e+00 -2.260364532470703125e+00
1.256000000000000000e+03 4.171411514282226562e+01 -1.873905563354492188e+01 2.616552412509918213e-01 8.873904228210449219e+00 2.740667819976806641e+00 -7.658447623252868652e-01
1.257000000000000000e+03 3.934127426147460938e+01 -1.490788555145263672e+01 2.793535888195037842e-01 1.119795417785644531e+01 3.443192243576049805e+00 -2.988464534282684326e-01
1.258000000000000000e+03 2.427775764465332031e+01 -2.668165206909179688e+00 4.096615791320800781e+00 1.375272512435913086e+00 1.641566395759582520e+00 -1.511547684669494629e+00
1.259000000000000000e+03 2.823384284973144531e+01 -2.256630659103393555e+00 3.032975435256958008e+00 -6.426791846752166748e-02 8.906123042106628418e-01 -8.191843032836914062e-01
1.260000000000000000e+03 8.370316505432128906e+00 -1.523109722137451172e+01 -1.513378143310546875e+00 5.664979934692382812e+00 1.245480537414550781e+00 3.089970111846923828e+00
1.261000000000000000e+03 6.184136390686035156e+00 -2.807506370544433594e+01 -8.042486906051635742e-01 6.903555393218994141e+00 1.829792022705078125e+00 -1.168712601065635681e-01
1.262000000000000000e+03 3.391678619384765625e+01 -1.702749824523925781e+01 -1.387676596641540527e+00 6.201946258544921875e+00 1.444280862808227539e+00 -2.114304304122924805e+00
1.263000000000000000e+03 3.755429840087890625e+01 -2.324354743957519531e+01 1.768976330757141113e+00 1.115401840209960938e+01 3.876898288726806641e+00 2.708532214164733887e-01
1.264000000000000000e+03 3.552698898315429688e+01 -2.270571708679199219e+01 8.824395537376403809e-01 1.650574874877929688e+01 5.216456890106201172e+00 4.939578771591186523e-01
1.265000000000000000e+03 9.924218177795410156e+00 -3.411354446411132812e+01 -1.004177808761596680e+00 7.400490045547485352e-01 -7.923863828182220459e-02 -5.794260278344154358e-02
1.266000000000000000e+03 9.051726341247558594e+00 -2.994669914245605469e+01 -3.138422012329101562e+00 -7.310961484909057617e-01 -1.160855412483215332e+00 1.659214138984680176e+00
1.267000000000000000e+03 1.811846256256103516e+00 -1.703712272644042969e+01 -5.193421617150306702e-02 4.100262641906738281e+00 1.214498519897460938e+00 -5.642495155334472656e-01
1.268000000000000000e+03 1.696392297744750977e+00 -1.976031684875488281e+01 2.926414906978607178e-01 3.893413782119750977e+00 1.255816578865051270e+00 -1.854202002286911011e-01
1.269000000000000000e+03 1.556227111816406250e+01 -1.683501052856445312e+01 -4.992856979370117188e+00 -6.887931227684020996e-01 -1.704495072364807129e+00 1.601127266883850098e+00
1.270000000000000000e+03 1.281777667999267578e+01 -1.503782844543457031e+01 -3.483592987060546875e+00 -4.891022741794586182e-01 -1.191808581352233887e+00 1.361838817596435547e+00
1.271000000000000000e+03 2.830472183227539062e+01 -3.142141532897949219e+01 -1.027348399162292480e+00 2.749421596527099609e-01 -2.257218807935714722e-01 3.270577192306518555e-01
1.272000000000000000e+03 3.004828643798828125e+01 -3.289699172973632812e+01 -4.461331069469451904e-01 2.108645200729370117e+00 4.987536370754241943e-01 1.568348884582519531e+00
1.273000000000000000e+03 2.719603538513183594e+00 -2.213661575317382812e+01 7.986875772476196289e-01 6.362092494964599609e+00 2.148234128952026367e+00 1.043883800506591797e+00
1.274000000000000000e+03 3.483011627197265625e+01 -2.960048294067382812e+01 8.783677220344543457e-02 7.558160305023193359e+00 2.293799161911010742e+00 1.497166275978088379e+00
1.275000000000000000e+03 2.186668205261230469e+01 -1.773872566223144531e+01 -2.762498378753662109e+00 3.153612315654754639e-01 -7.341411113739013672e-01 9.207312017679214478e-02
1.276000000000000000e+03 3.742179489135742188e+01 -2.809134292602539062e+01 6.486924290657043457e-01 8.220830917358398438e+00 2.660856962203979492e+00 -3.628291487693786621e-01
1.277000000000000000e+03 1.128488063812255859e+01 -1.506424999237060547e+01 -2.505303859710693359e+00 7.010049819946289062e-01 -5.412896871566772461e-01 2.303413867950439453e+00
1.278000000000000000e+03 1.735007095336914062e+01 -1.640599632263183594e+01 -3.733101606369018555e+00 1.650922894477844238e-01 -1.070402741432189941e+00 6.377444863319396973e-01
1.279000000000000000e+03 6.239259243011474609e-01 -2.660516929626464844e+01 3.229550644755363464e-02 6.133765697479248047e+00 1.849818348884582520e+00 8.205249905586242676e-01
1.280000000000000000e+03 9.760881423950195312e+00 -1.529201698303222656e+01 -1.746450901031494141e+00 3.212865829467773438e+00 4.399244785308837891e-01 3.053872585296630859e+00
1.281000000000000000e+03 1.665719985961914062e+00 -2.234478569030761719e+01 3.864134252071380615e-01 4.503488540649414062e+00 1.466970562934875488e+00 7.234870195388793945e-01
1.282000000000000000e+03 1.804502105712890625e+01 -1.798768043518066406e+01 -3.228530883789062500e+00 -1.778209507465362549e-01 -1.021905541419982910e+00 9.870798587799072266e-01
1.283000000000000000e+03 3.411234283447265625e+01 -3.061718940734863281e+01 -2.401316463947296143e-01 6.653371334075927734e+00 1.923971891403198242e+00 1.643108487129211426e+00
1.284000000000000000e+03 3.337796401977539062e+01 -3.147465324401855469e+01 -1.894735842943191528e-01 5.401947498321533203e+00 1.563742160797119141e+00 1.722929358482360840e+00
1.285000000000000000e+03 3.699057388305664062e+01 -2.217318344116210938e+01 1.643484115600585938e+00 1.236352348327636719e+01 4.202102184295654297e+00 4.683110415935516357e-01
1.286000000000000000e+03 1.383002948760986328e+01 -3.854384994506835938e+01 3.930853009223937988e-01 -6.323615461587905884e-02 9.895474463701248169e-02 2.259600460529327393e-01
1.287000000000000000e+03 1.847810935974121094e+01 -1.692442131042480469e+01 -3.221961498260498047e+00 2.202970683574676514e-01 -9.004992842674255371e-01 6.318057775497436523e-01
1.288000000000000000e+03 2.055315208435058594e+01 -1.866913795471191406e+01 -2.833682775497436523e+00 1.014909073710441589e-01 -8.196575641632080078e-01 3.711838424205780029e-01
1.289000000000000000e+03 1.885144424438476562e+01 -3.198219680786132812e+01 -2.549381017684936523e+00 -6.067266687750816345e-02 -7.830160856246948242e-01 1.031288206577301025e-01
1.290000000000000000e+03 2.177512741088867188e+01 -3.294062805175781250e+01 -1.699825286865234375e+00 -4.752330854535102844e-02 -5.242045521736145020e-01 6.205581501126289368e-02
1.291000000000000000e+03 2.056058502197265625e+01 -3.315815734863281250e+01 -1.810472011566162109e+00 -1.201818734407424927e-01 -5.791961550712585449e-01 1.844646632671356201e-01
1.292000000000000000e+03 2.072189712524414062e+01 -1.760616111755371094e+01 -2.850044250488281250e+00 2.841536998748779297e-01 -7.697671651840209961e-01 2.731455266475677490e-01
1.293000000000000000e+03 2.018713760375976562e+01 -3.183494567871093750e+01 -2.214210033416748047e+00 -1.855692081153392792e-02 -6.698301434516906738e-01 1.133841648697853088e-02
1.294000000000000000e+03 2.571350479125976562e+01 -1.839697074890136719e+01 -3.299542427062988281e+00 3.347823768854141235e-02 -9.798192977905273438e-01 -5.337844491004943848e-01
1.295000000000000000e+03 2.389104080200195312e+01 -1.657711219787597656e+01 -2.334168195724487305e+00 2.593837380409240723e-01 -6.224353909492492676e-01 -9.079454094171524048e-02
1.296000000000000000e+03 2.843048477172851562e+01 -1.597186088562011719e+01 -1.233459830284118652e+00 -6.230600550770759583e-02 -3.887297213077545166e-01 -1.771382093429565430e-01
1.297000000000000000e+03 2.549114990234375000e+01 -3.156771087646484375e+01 -1.654444575309753418e+00 6.560041010379791260e-02 -4.766532480716705322e-01 -5.581391975283622742e-02
1.298000000000000000e+03 2.693923568725585938e+01 -3.315565109252929688e+01 -8.282323479652404785e-01 4.549038410186767578e-01 -1.119985580444335938e-01 4.199870526790618896e-01
1.299000000000000000e+03 2.541118621826171875e+01 -3.319419479370117188e+01 -1.134331345558166504e+00 1.368418484926223755e-01 -2.992468476295471191e-01 1.524624824523925781e-01
1.300000000000000000e+03 1.422648239135742188e+01 -1.524707984924316406e+01 -3.965114355087280273e+00 -4.530283212661743164e-01 -1.325442790985107422e+00 7.732174992561340332e-01
1.301000000000000000e+03 3.250354385375976562e+01 -1.568274211883544922e+01 -1.779143512248992920e-01 2.526968479156494141e+00 7.047162652015686035e-01 -1.838828682899475098e+00
1.302000000000000000e+03 2.532124900817871094e+01 -1.732490730285644531e+01 -2.765019655227661133e+00 7.125269621610641479e-02 -8.081300854682922363e-01 -1.997979730367660522e-01
1.303000000000000000e+03 2.698725509643554688e+01 -1.810477447509765625e+01 -3.603417634963989258e+00 -1.848588585853576660e-01 -1.136482954025268555e+00 -4.997538924217224121e-01
1.304000000000000000e+03 2.313394546508789062e+01 -1.876076698303222656e+01 -2.996661663055419922e+00 1.110034435987472534e-01 -8.656975030899047852e-01 -1.577269732952117920e-01
1.305000000000000000e+03 1.479758358001708984e+01 -3.395409774780273438e+01 -1.739364504814147949e+00 -4.808935523033142090e-01 -6.660773754119873047e-01 7.182734012603759766e-01
1.306000000000000000e+03 1.330771636962890625e+01 -3.163778495788574219e+01 -3.679090499877929688e+00 -2.780886590480804443e-01 -1.187153816223144531e+00 9.266243577003479004e-01
1.307000000000000000e+03 1.207390689849853516e+01 -3.319273757934570312e+01 -1.633922576904296875e+00 -4.781396687030792236e-01 -6.336186528205871582e-01 8.434672355651855469e-01
1.308000000000000000e+03 3.667483329772949219e+00 -2.222912597656250000e+01 1.324017763137817383e+00 8.625678062438964844e+00 2.984908580780029297e+00 1.307994246482849121e+00
1.309000000000000000e+03 6.226566433906555176e-01 -2.524887466430664062e+01 7.090020179748535156e-02 4.502869129180908203e+00 1.372130870819091797e+00 7.283720374107360840e-01
1.310000000000000000e+03 1.327539062500000000e+01 -3.354997634887695312e+01 -1.875197291374206543e+00 -4.247069954872131348e-01 -6.899712681770324707e-01 8.485151529312133789e-01
1.311000000000000000e+03 2.334873962402343750e+01 -3.392305374145507812e+01 -1.211136460304260254e+00 -2.290834672749042511e-02 -3.702134490013122559e-01 1.711898446083068848e-01
1.312000000000000000e+03 3.781142234802246094e+00 -3.889317703247070312e+01 1.802017912268638611e-02 7.654813766479492188e+00 2.301850318908691406e+00 -3.558512032032012939e-01
1.313000000000000000e+03 1.607304334640502930e+00 -1.015574932098388672e+01 -1.074922829866409302e-01 2.996108531951904297e+00 8.665848374366760254e-01 6.895365715026855469e-01
1.314000000000000000e+03 5.820661783218383789e-01 -1.851873588562011719e+01 5.475259572267532349e-02 1.946852684020996094e+00 6.004815697669982910e-01 -2.363790869712829590e-01
1.315000000000000000e+03 5.638501644134521484e-01 -1.987908935546875000e+01 7.224876433610916138e-02 1.585488796234130859e+00 4.973212778568267822e-01 -8.252462744712829590e-02
1.316000000000000000e+03 5.848857760429382324e-01 -2.391043281555175781e+01 1.023016422986984253e-01 3.052946329116821289e+00 9.465743899345397949e-01 5.458350181579589844e-01
1.317000000000000000e+03 6.398280262947082520e-01 -3.077660942077636719e+01 -7.573718577623367310e-02 1.010336589813232422e+01 3.008288621902465820e+00 3.839257061481475830e-01
1.318000000000000000e+03 1.070121884346008301e+00 -3.872261428833007812e+01 -2.542773634195327759e-02 9.301989555358886719e+00 2.782968521118164062e+00 -3.362413942813873291e-01
1.319000000000000000e+03 1.732185959815979004e+00 -3.339552307128906250e+01 -2.814075052738189697e-01 9.444949150085449219e+00 2.749062538146972656e+00 5.816849693655967712e-02
1.320000000000000000e+03 6.261289715766906738e-01 -3.216592025756835938e+01 -9.425439685583114624e-02 1.062172222137451172e+01 3.158240556716918945e+00 1.965157687664031982e-01
1.321000000000000000e+03 4.905545234680175781e+00 -2.933599853515625000e+01 -1.692070126533508301e+00 7.638613224029541016e+00 1.783962965011596680e+00 9.599381089210510254e-01
1.322000000000000000e+03 4.580314159393310547e+00 -2.603582191467285156e+01 3.839313685894012451e-01 9.579796791076660156e+00 2.989118576049804688e+00 1.978954672813415527e+00
1.323000000000000000e+03 3.959687471389770508e+00 -2.782255935668945312e+01 -8.226966261863708496e-01 8.573754310607910156e+00 2.325317144393920898e+00 2.146777391433715820e+00
1.324000000000000000e+03 1.759295463562011719e+00 -2.359693527221679688e+01 4.725837409496307373e-01 5.250140190124511719e+00 1.716817140579223633e+00 1.280192613601684570e+00
1.325000000000000000e+03 5.529331564903259277e-01 -2.122867393493652344e+01 4.280912876129150391e-02 1.568751096725463867e+00 4.834680557250976562e-01 5.455096438527107239e-02
1.326000000000000000e+03 5.405759215354919434e-01 -1.168480777740478516e+01 -4.623566940426826477e-02 3.371791124343872070e+00 9.976665973663330078e-01 1.440490633249282837e-01
1.327000000000000000e+03 2.930530309677124023e+00 -1.409703063964843750e+01 -5.927843451499938965e-01 4.831687450408935547e+00 1.271670937538146973e+00 1.195329055190086365e-01
1.328000000000000000e+03 2.115680694580078125e+00 -1.697625756263732910e+00 1.419634670019149780e-01 1.167587265372276306e-01 7.761666178703308105e-02 4.171872977167367935e-03
1.329000000000000000e+03 3.330245912075042725e-01 -4.977310180664062500e+00 1.117311976850032806e-02 1.563620865345001221e-01 5.026056244969367981e-02 1.164044588804244995e-01
1.330000000000000000e+03 1.329698204994201660e+00 -1.659547805786132812e+00 5.494506657123565674e-02 8.126944885589182377e-04 1.672732830047607422e-02 -7.705018669366836548e-02
1.331000000000000000e+03 3.401220738887786865e-01 -3.724913358688354492e+00 2.152839675545692444e-02 -1.582471579313278198e-01 -4.101562872529029846e-02 4.378780722618103027e-02
1.332000000000000000e+03 4.703203582763671875e+01 1.540022730827331543e+00 -5.978176593780517578e+00 -6.308987140655517578e-01 -1.982722520828247070e+00 1.017932653427124023e+00
1.333000000000000000e+03 4.986357116699218750e+01 6.524782180786132812e-01 -4.982315063476562500e+00 -5.161615610122680664e-01 -1.649542927742004395e+00 1.627998471260070801e+00
1.334000000000000000e+03 5.658824539184570312e+01 -3.231425857543945312e+01 -1.380792379379272461e+00 -2.432101964950561523e-01 -4.872007966041564941e-01 2.570154964923858643e-01
1.335000000000000000e+03 4.063001632690429688e+01 6.968871593475341797e+00 1.629114031791687012e+00 1.073550987243652344e+01 3.709387063980102539e+00 3.543600797653198242e+00
1.336000000000000000e+03 7.391228485107421875e+01 -2.474184226989746094e+01 5.864132046699523926e-01 9.741347312927246094e+00 3.098328113555908203e+00 -9.128445982933044434e-01
1.337000000000000000e+03 2.656585884094238281e+01 4.129336929321289062e+01 -1.393221259117126465e+00 -4.235335290431976318e-01 -5.450264215469360352e-01 -6.499408930540084839e-02
1.338000000000000000e+03 4.134395599365234375e+01 3.258301544189453125e+01 -4.975968003273010254e-01 2.611177682876586914e+00 6.340742707252502441e-01 -3.764623776078224182e-02
1.339000000000000000e+03 4.062340164184570312e+01 3.394989395141601562e+01 -8.356546759605407715e-01 2.047264814376831055e+00 3.634830117225646973e-01 -2.778336033225059509e-02
1.340000000000000000e+03 6.922483062744140625e+01 -7.462907314300537109e+00 -6.243933737277984619e-02 8.390318870544433594e+00 2.498363971710205078e+00 -8.247327208518981934e-01
1.341000000000000000e+03 1.298578929901123047e+01 2.441788291931152344e+01 6.734229922294616699e-01 7.271953582763671875e+00 2.383613109588623047e+00 -4.439108073711395264e-01
1.342000000000000000e+03 6.233256912231445312e+01 -1.740673065185546875e+00 -1.778912663459777832e+00 1.430907130241394043e+00 -1.044016480445861816e-01 -6.326112151145935059e-01
1.343000000000000000e+03 1.985171508789062500e+01 3.701015090942382812e+01 -1.277346372604370117e+00 1.121636152267456055e+00 -4.671306163072586060e-02 9.311045706272125244e-02
1.344000000000000000e+03 3.129761886596679688e+01 -4.067051410675048828e+00 2.293631553649902344e+00 -9.526732563972473145e-02 6.595093011856079102e-01 -1.464550375938415527e+00
1.345000000000000000e+03 3.693794631958007812e+01 3.531871414184570312e+01 -1.457688570022583008e+00 -1.225912794470787048e-01 -4.740839302539825439e-01 4.555638134479522705e-01
1.346000000000000000e+03 3.260748672485351562e+01 3.700532531738281250e+01 -2.011461257934570312e+00 -1.932357102632522583e-01 -6.614090800285339355e-01 4.695347547531127930e-01
1.347000000000000000e+03 4.065129852294921875e+01 -1.647066307067871094e+01 6.700677275657653809e-01 1.121161842346191406e+01 3.564505815505981445e+00 -5.019587278366088867e-01
1.348000000000000000e+03 6.874564361572265625e+01 -1.624740600585937500e+01 4.088253378868103027e-01 1.693360328674316406e+01 5.202728748321533203e+00 -8.811776041984558105e-01
1.349000000000000000e+03 7.011537170410156250e+01 -1.158061218261718750e+01 5.990525484085083008e-01 1.114362621307373047e+01 3.522803544998168945e+00 -7.196822166442871094e-01
1.350000000000000000e+03 4.246676254272460938e+01 2.984009170532226562e+01 1.340282261371612549e-01 3.888572931289672852e+00 1.206780314445495605e+00 2.666613087058067322e-02
1.351000000000000000e+03 4.211978149414062500e+01 3.014391064643859863e-01 -1.184316396713256836e+00 1.094159126281738281e+01 2.927182435989379883e+00 1.744148850440979004e+00
1.352000000000000000e+03 1.389696884155273438e+01 1.965374565124511719e+01 6.402143836021423340e-01 9.272143363952636719e+00 2.973707437515258789e+00 -8.715311288833618164e-01
1.353000000000000000e+03 1.595704174041748047e+01 1.550471782684326172e+01 6.387608051300048828e-01 9.665258407592773438e+00 3.091205835342407227e+00 -2.265253782272338867e+00
1.354000000000000000e+03 2.769653129577636719e+01 3.858822631835937500e+01 -1.947202086448669434e+00 -2.820105552673339844e-01 -6.687637567520141602e-01 -1.087985336780548096e-01
1.355000000000000000e+03 5.964179229736328125e+01 -6.371406316757202148e-01 -2.841335296630859375e+00 1.559024006128311157e-01 -8.056298494338989258e-01 5.252606421709060669e-02
1.356000000000000000e+03 3.967427444458007812e+01 -3.674901008605957031e+00 1.340026140213012695e+00 1.040082836151123047e+01 3.522256374359130859e+00 2.085354328155517578e+00
1.357000000000000000e+03 4.283111953735351562e+01 1.829472923278808594e+01 3.154149949550628662e-01 6.570718765258789062e+00 2.065840005874633789e+00 9.876573085784912109e-01
1.358000000000000000e+03 6.963328552246093750e+01 -2.832622337341308594e+01 -1.173797175288200378e-01 9.679922103881835938e+00 2.868762731552124023e+00 -3.110048547387123108e-02
1.359000000000000000e+03 6.578977966308593750e+01 -2.997123908996582031e+01 4.606325626373291016e-01 2.174834728240966797e+00 7.906401753425598145e-01 1.297051787376403809e+00
1.360000000000000000e+03 7.044756317138671875e+01 -3.221662521362304688e+01 -1.006850004196166992e+00 8.118296623229980469e+00 2.133434057235717773e+00 -3.609827533364295959e-02
1.361000000000000000e+03 2.558107566833496094e+01 3.907410430908203125e+01 -1.586828351020812988e+00 -3.231322765350341797e-01 -5.729882121086120605e-01 -2.407411634922027588e-01
1.362000000000000000e+03 4.283031463623046875e+01 -1.955325698852539062e+01 5.138316154479980469e-01 6.048536777496337891e+00 1.968710541725158691e+00 -1.717696070671081543e+00
1.363000000000000000e+03 5.979530715942382812e+01 -3.507432174682617188e+01 -5.471843481063842773e-01 -1.086252182722091675e-01 -1.967428773641586304e-01 -1.727194786071777344e-01
1.364000000000000000e+03 4.098372268676757812e+01 2.973906517028808594e+00 -1.363228678703308105e+00 9.812635421752929688e+00 2.534821987152099609e+00 1.784514546394348145e+00
1.365000000000000000e+03 4.044892120361328125e+01 -6.500799655914306641e+00 1.619128704071044922e+00 1.354622936248779297e+01 4.549607276916503906e+00 1.641372799873352051e+00
1.366000000000000000e+03 4.144045257568359375e+01 -1.214035224914550781e+01 -4.421066120266914368e-02 1.458243942260742188e+01 4.361468791961669922e+00 -8.861371278762817383e-01
1.367000000000000000e+03 4.053102111816406250e+01 -1.496004009246826172e+01 6.703381538391113281e-01 1.235308265686035156e+01 3.907026290893554688e+00 -8.448831439018249512e-01
1.368000000000000000e+03 2.207854652404785156e+01 -3.287253677845001221e-01 3.102421283721923828e+00 1.173931717872619629e+00 1.282905936241149902e+00 -1.882362961769104004e+00
1.369000000000000000e+03 2.343269729614257812e+01 3.853905105590820312e+01 -1.414758801460266113e+00 -1.098304688930511475e-01 -4.573767781257629395e-01 -2.291348874568939209e-01
1.370000000000000000e+03 6.316660308837890625e+01 -3.349094772338867188e+01 -1.118057370185852051e+00 8.332816958427429199e-01 -8.543270826339721680e-02 5.354966521263122559e-01
1.371000000000000000e+03 6.422681427001953125e+01 -3.249715042114257812e+01 -1.031206607818603516e+00 1.213428854942321777e+00 5.466669425368309021e-02 5.787661075592041016e-01
1.372000000000000000e+03 1.823665809631347656e+01 3.193722724914550781e+01 5.039279907941818237e-02 1.879886984825134277e+00 5.790839791297912598e-01 5.895879864692687988e-01
1.373000000000000000e+03 1.565380477905273438e+01 2.987182044982910156e+01 -8.340934664011001587e-02 4.646175861358642578e+00 1.368829965591430664e+00 4.920476078987121582e-01
1.374000000000000000e+03 4.135475540161132812e+01 1.420200347900390625e+01 5.175370573997497559e-01 9.643335342407226562e+00 3.048261642456054688e+00 1.676767230033874512e+00
1.375000000000000000e+03 4.268500900268554688e+01 1.543360424041748047e+01 7.523244619369506836e-01 7.651267528533935547e+00 2.521077632904052734e+00 1.681695342063903809e+00
1.376000000000000000e+03 4.255106353759765625e+01 1.398657226562500000e+01 9.202927947044372559e-01 8.098466873168945312e+00 2.705627918243408203e+00 1.961109042167663574e+00
1.377000000000000000e+03 3.306912994384765625e+01 3.897480392456054688e+01 -1.541268229484558105e+00 -1.948789209127426147e-01 -5.208441615104675293e-01 2.419252097606658936e-01
1.378000000000000000e+03 1.613339805603027344e+01 1.125902175903320312e+01 1.205119192600250244e-01 7.065887928009033203e+00 2.155920028686523438e+00 -1.182325243949890137e+00
1.379000000000000000e+03 4.283005905151367188e+01 2.837901687622070312e+01 3.497798740863800049e-01 4.205975055694580078e+00 1.366726517677307129e+00 2.797362208366394043e-02
1.380000000000000000e+03 4.344457626342773438e+01 3.157548713684082031e+01 -3.578280210494995117e-01 3.511877775192260742e+00 9.462149143218994141e-01 3.423285186290740967e-01
1.381000000000000000e+03 1.738599777221679688e+01 3.428734207153320312e+01 -9.258910417556762695e-01 2.452989101409912109e+00 4.581294059753417969e-01 4.835509136319160461e-02
1.382000000000000000e+03 1.636718940734863281e+01 2.806972312927246094e+01 5.633598566055297852e-01 5.369597434997558594e+00 1.779887080192565918e+00 1.605467319488525391e+00
1.383000000000000000e+03 4.422144317626953125e+01 -2.134742546081542969e+01 6.598200798034667969e-01 2.936258316040039062e+00 1.078823566436767578e+00 -1.339823842048645020e+00
1.384000000000000000e+03 3.501871109008789062e+01 3.834036254882812500e+01 -1.447203159332275391e+00 -8.551082573831081390e-03 -4.367262721061706543e-01 2.782435715198516846e-01
1.385000000000000000e+03 3.894515228271484375e+01 2.891941785812377930e+00 -5.339921712875366211e-01 8.700177192687988281e+00 2.449855566024780273e+00 1.797075390815734863e+00
1.386000000000000000e+03 3.960572052001953125e+01 4.304556846618652344e+00 1.960704922676086426e-01 9.780819892883300781e+00 2.993067026138305664e+00 2.632283449172973633e+00
1.387000000000000000e+03 4.202779388427734375e+01 1.107862854003906250e+01 1.209596514701843262e+00 9.240499496459960938e+00 3.135028600692749023e+00 2.934682607650756836e+00
1.388000000000000000e+03 1.528427886962890625e+01 1.390631961822509766e+01 3.226256966590881348e-01 8.401501655578613281e+00 2.617238044738769531e+00 -1.537913799285888672e+00
1.389000000000000000e+03 1.473918437957763672e+01 2.707188606262207031e+01 3.049441277980804443e-01 6.841442584991455078e+00 2.143916130065917969e+00 3.823429346084594727e-01
1.390000000000000000e+03 1.841826820373535156e+01 3.843427419662475586e+00 9.376238584518432617e-01 3.172631740570068359e+00 1.233076691627502441e+00 -6.247395873069763184e-01
1.391000000000000000e+03 2.142102622985839844e+01 2.610618591308593750e+00 8.138418197631835938e-01 1.001554489135742188e+00 5.446189045906066895e-01 -7.993693351745605469e-01
1.392000000000000000e+03 1.756750869750976562e+01 4.913677692413330078e+00 3.750279247760772705e-01 4.256635189056396484e+00 1.389498949050903320e+00 -3.348096907138824463e-01
1.393000000000000000e+03 2.982044982910156250e+01 -3.662960290908813477e+00 2.418172836303710938e+00 -2.875381112098693848e-01 6.391904354095458984e-01 -1.759154081344604492e+00
1.394000000000000000e+03 2.134344100952148438e+01 9.325247406959533691e-01 2.325312852859497070e+00 1.202491283416748047e+00 1.058341264724731445e+00 -1.530520677566528320e+00
1.395000000000000000e+03 4.112804031372070312e+01 8.309073448181152344e+00 1.730795264244079590e+00 1.045367527008056641e+01 3.655341148376464844e+00 3.517471790313720703e+00
1.396000000000000000e+03 3.437577819824218750e+01 -1.171115994453430176e+00 -6.891415715217590332e-01 5.599465966224670410e-01 -3.875849023461341858e-02 -1.918949782848358154e-01
1.397000000000000000e+03 3.726827239990234375e+01 -8.693507909774780273e-01 -5.785256028175354004e-01 5.766044139862060547e+00 1.556255578994750977e+00 1.167923808097839355e+00
1.398000000000000000e+03 1.399855518341064453e+01 2.268051147460937500e+01 4.577825963497161865e-01 8.923664093017578125e+00 2.814434051513671875e+00 -1.655070334672927856e-01
1.399000000000000000e+03 1.814701843261718750e+01 8.832809448242187500e+00 3.044592440128326416e-01 4.485525131225585938e+00 1.436995387077331543e+00 -1.203584909439086914e+00
1.400000000000000000e+03 1.696942710876464844e+01 8.396419525146484375e+00 -1.874054223299026489e-01 5.559176921844482422e+00 1.611531496047973633e+00 -6.578189730644226074e-01
1.401000000000000000e+03 1.415812683105468750e+01 2.415859794616699219e+01 6.963459253311157227e-01 8.369057655334472656e+00 2.719620943069458008e+00 1.522820442914962769e-01
1.402000000000000000e+03 4.287755584716796875e+01 1.972747993469238281e+01 2.044892311096191406e-01 6.150525093078613281e+00 1.906504273414611816e+00 7.693099379539489746e-01
1.403000000000000000e+03 1.516739559173583984e+01 2.848125267028808594e+01 8.210027962923049927e-02 5.738976955413818359e+00 1.746323227882385254e+00 5.744550228118896484e-01
1.404000000000000000e+03 1.485047912597656250e+01 1.524743366241455078e+01 4.403268992900848389e-01 9.001037597656250000e+00 2.832409381866455078e+00 -1.339346766471862793e+00
1.405000000000000000e+03 3.647718429565429688e+01 3.748389816284179688e+01 -1.330993413925170898e+00 1.006989777088165283e-01 -3.690883517265319824e-01 1.384734064340591431e-01
1.406000000000000000e+03 3.802070999145507812e+01 1.495072722434997559e+00 -9.604536294937133789e-01 6.864381313323974609e+00 1.771178245544433594e+00 1.368553400039672852e+00
1.407000000000000000e+03 4.166018295288085938e+01 2.260339927673339844e+01 1.770167239010334015e-02 5.392774105072021484e+00 1.623142719268798828e+00 1.457330137491226196e-01
1.408000000000000000e+03 4.167005920410156250e+01 2.400245666503906250e+01 2.453052066266536713e-02 5.141704559326171875e+00 1.549870610237121582e+00 1.006594747304916382e-01
1.409000000000000000e+03 4.300243759155273438e+01 2.541197586059570312e+01 1.420550197362899780e-01 4.920007228851318359e+00 1.518618583679199219e+00 1.614380776882171631e-01
1.410000000000000000e+03 4.234713363647460938e+01 1.252144241333007812e+01 9.573531746864318848e-01 8.756188392639160156e+00 2.914062500000000000e+00 2.410642623901367188e+00
1.411000000000000000e+03 4.543518066406250000e+01 2.376949691772460938e+01 3.537725210189819336e-01 4.810729026794433594e+00 1.549350500106811523e+00 6.730690598487854004e-01
1.412000000000000000e+03 4.291147994995117188e+01 2.115092658996582031e+01 1.151963844895362854e-01 5.696782588958740234e+00 1.743593692779541016e+00 5.523255467414855957e-01
1.413000000000000000e+03 4.293351364135742188e+01 2.256020927429199219e+01 1.160765290260314941e-01 5.369983196258544922e+00 1.645817875862121582e+00 4.228322505950927734e-01
1.414000000000000000e+03 5.010258865356445312e+01 3.892300844192504883e+00 -1.232328414916992188e+00 2.341299951076507568e-01 -2.994595468044281006e-01 5.207602977752685547e-01
1.415000000000000000e+03 3.921442413330078125e+01 -1.354597663879394531e+01 5.288512706756591797e-01 1.155557823181152344e+01 3.625328779220581055e+00 -4.246049523353576660e-01
1.416000000000000000e+03 6.637407684326171875e+01 -3.124635314941406250e+01 -6.226987242698669434e-01 4.069851398468017578e+00 1.034145832061767578e+00 1.349994659423828125e+00
1.417000000000000000e+03 6.979655456542968750e+01 -1.599084854125976562e+01 1.007277488708496094e+00 1.455115032196044922e+01 4.667528152465820312e+00 -1.219105601310729980e+00
1.418000000000000000e+03 4.133473587036132812e+01 -9.353842735290527344e+00 1.108413785696029663e-01 1.612568855285644531e+01 4.870958805084228516e+00 1.517483294010162354e-01
1.419000000000000000e+03 6.482450866699218750e+01 -3.315698862075805664e+00 -7.399817705154418945e-01 4.285552024841308594e+00 1.063670992851257324e+00 -1.192978739738464355e+00
1.420000000000000000e+03 5.298064804077148438e+01 1.027236580848693848e+00 -3.657844543457031250e+00 2.313333898782730103e-01 -1.027953267097473145e+00 7.463254332542419434e-01
1.421000000000000000e+03 5.351655197143554688e+01 2.270308732986450195e+00 -2.629470348358154297e+00 3.297960460186004639e-01 -6.899022459983825684e-01 3.559314608573913574e-01
1.422000000000000000e+03 6.360828781127929688e+01 -2.475234985351562500e+00 -1.183284759521484375e+00 2.613728046417236328e+00 4.291329681873321533e-01 -1.029260754585266113e+00
1.423000000000000000e+03 6.100019454956054688e+01 -1.133074045181274414e+00 -2.360182523727416992e+00 5.858709812164306641e-01 -5.322934389114379883e-01 -2.625370323657989502e-01
1.424000000000000000e+03 5.691437149047851562e+01 1.025409623980522156e-01 -3.408940076828002930e+00 -8.473625779151916504e-02 -1.048102855682373047e+00 3.600679636001586914e-01
1.425000000000000000e+03 5.557179260253906250e+01 3.986847400665283203e-01 -3.460432529449462891e+00 -8.846672624349594116e-02 -1.064669847488403320e+00 4.968784153461456299e-01
1.426000000000000000e+03 5.389761352539062500e+01 -2.993357849121093750e+01 -1.824411451816558838e-01 5.308998748660087585e-02 -3.880534693598747253e-02 4.334652423858642578e-02
1.427000000000000000e+03 5.347705078125000000e+01 -3.320819091796875000e+01 -5.617695450782775879e-01 7.088537812232971191e-01 4.412528872489929199e-02 -4.594290554523468018e-01
1.428000000000000000e+03 7.070067596435546875e+01 -2.738942337036132812e+01 4.014030694961547852e-01 9.933530807495117188e+00 3.100480318069458008e+00 -4.006296396255493164e-01
1.429000000000000000e+03 6.961162567138671875e+01 -2.589634895324707031e+01 1.279513835906982422e+00 1.263708686828613281e+01 4.174980163574218750e+00 1.088618397712707520e+00
1.430000000000000000e+03 4.095166778564453125e+01 -3.735579490661621094e+00 1.329535841941833496e+00 1.272773742675781250e+01 4.217182159423828125e+00 3.259010314941406250e+00
1.431000000000000000e+03 4.067604827880859375e+01 -5.115510940551757812e+00 1.048686861991882324e+00 1.364249420166015625e+01 4.407354354858398438e+00 2.520910739898681641e+00
1.432000000000000000e+03 4.920532608032226562e+01 2.703806400299072266e+00 -2.900000810623168945e+00 -1.853696852922439575e-01 -9.256111383438110352e-01 5.097009539604187012e-01
1.433000000000000000e+03 6.823516082763671875e+01 -9.149825096130371094e+00 2.311014533042907715e-01 9.026835441589355469e+00 2.777381181716918945e+00 -1.811739921569824219e+00
1.434000000000000000e+03 7.034763336181640625e+01 -2.268872642517089844e+01 7.422301769256591797e-01 1.337226390838623047e+01 4.234348297119140625e+00 6.112834215164184570e-01
1.435000000000000000e+03 6.960857391357421875e+01 -1.460216522216796875e+01 1.452692627906799316e+00 1.407498264312744141e+01 4.658302783966064453e+00 -1.365738749504089355e+00
1.436000000000000000e+03 6.520560455322265625e+01 -3.181900596618652344e+01 -7.982233762741088867e-01 2.330971240997314453e+00 4.598243534564971924e-01 9.014331102371215820e-01
1.437000000000000000e+03 4.250257492065429688e+01 -2.483921289443969727e+00 2.168648958206176758e+00 1.547352313995361328e+01 5.292651653289794922e+00 4.656111717224121094e+00
1.438000000000000000e+03 3.923671340942382812e+01 8.374642729759216309e-01 -1.229074120521545410e+00 8.727608680725097656e+00 2.249560356140136719e+00 1.218750596046447754e+00
1.439000000000000000e+03 4.913120269775390625e+01 -2.488514137268066406e+01 2.062874287366867065e-01 3.133019804954528809e-01 1.558768302202224731e-01 -2.714995443820953369e-01
1.440000000000000000e+03 4.978124618530273438e+01 -2.762413978576660156e+01 2.443790882825851440e-01 7.252691984176635742e-01 2.908944785594940186e-01 -4.821769893169403076e-01
1.441000000000000000e+03 4.814025497436523438e+01 -2.389706230163574219e+01 2.787087857723236084e-01 3.844661414623260498e-01 1.989524662494659424e-01 -3.099403679370880127e-01
1.442000000000000000e+03 4.786067199707031250e+01 -2.559500122070312500e+01 5.042977929115295410e-01 9.838964343070983887e-01 4.464582502841949463e-01 -7.134832739830017090e-01
1.443000000000000000e+03 6.898821258544921875e+01 -1.184514999389648438e+01 7.830304503440856934e-01 1.187544345855712891e+01 3.797542333602905273e+00 -1.820999026298522949e+00
1.444000000000000000e+03 6.861470031738281250e+01 -1.049478340148925781e+01 4.880430102348327637e-01 1.029197025299072266e+01 3.234004020690917969e+00 -1.909478068351745605e+00
1.445000000000000000e+03 5.202221298217773438e+01 -2.791080093383789062e+01 3.590098395943641663e-02 1.811267435550689697e-01 6.510831415653228760e-02 -1.074047833681106567e-01
1.446000000000000000e+03 4.935603332519531250e+01 -2.942679977416992188e+01 9.564834833145141602e-02 1.244305133819580078e+00 4.019860625267028809e-01 -6.811206936836242676e-01
1.447000000000000000e+03 6.882912445068359375e+01 -1.900327491760253906e+01 8.468596637248992920e-02 1.529543399810791016e+01 4.614036083221435547e+00 -1.432421952486038208e-01
1.448000000000000000e+03 7.262910461425781250e+01 -2.062353515625000000e+01 5.337895154953002930e-01 1.123799896240234375e+01 3.531536340713500977e+00 -4.137052893638610840e-01
1.449000000000000000e+03 5.105771636962890625e+01 -3.171008872985839844e+01 -2.413502037525177002e-01 1.121759414672851562e+00 2.641227841377258301e-01 -5.743854045867919922e-01
1.450000000000000000e+03 4.497643280029296875e+01 -2.244098854064941406e+01 7.021332979202270508e-01 2.167989730834960938e+00 8.610368967056274414e-01 -1.111397862434387207e+00
1.451000000000000000e+03 4.621728897094726562e+01 -2.189442825317382812e+01 3.903744220733642578e-01 6.501064896583557129e-01 3.121442794799804688e-01 -4.868225455284118652e-01
1.452000000000000000e+03 5.208736038208007812e+01 -3.274399948120117188e+01 -3.586118519306182861e-01 9.439896345138549805e-01 1.756133437156677246e-01 -5.326988101005554199e-01
1.453000000000000000e+03 4.883821105957031250e+01 -2.659023475646972656e+01 3.530670404434204102e-01 8.257035017013549805e-01 3.536311686038970947e-01 -6.011404395103454590e-01
1.454000000000000000e+03 7.007971191406250000e+01 -2.004987525939941406e+01 1.949700266122817993e-01 1.402100372314453125e+01 4.264791965484619141e+00 -1.885029226541519165e-01
1.455000000000000000e+03 7.018566131591796875e+01 -2.137893295288085938e+01 1.781631410121917725e-01 1.392503356933593750e+01 4.230958938598632812e+00 3.701478987932205200e-02
1.456000000000000000e+03 7.738717651367187500e+01 -3.807817840576171875e+01 -2.249640822410583496e-01 1.022768878936767578e+01 3.000817537307739258e+00 -7.120158523321151733e-02
1.457000000000000000e+03 7.931104278564453125e+01 -3.472965240478515625e+01 -6.012332439422607422e-02 1.062951183319091797e+01 3.170816659927368164e+00 -1.288852542638778687e-01
1.458000000000000000e+03 7.815201568603515625e+01 -2.915645790100097656e+01 1.354711502790451050e-02 8.771052360534667969e+00 2.635379791259765625e+00 -7.854164242744445801e-01
1.459000000000000000e+03 7.940635681152343750e+01 -2.786466979980468750e+01 6.206487864255905151e-02 8.036914825439453125e+00 2.429693937301635742e+00 -2.975790500640869141e-01
1.460000000000000000e+03 7.914366149902343750e+01 3.616674423217773438e+01 -5.070479586720466614e-03 6.463295459747314453e+00 1.937467455863952637e+00 -5.179069936275482178e-03
1.461000000000000000e+03 7.942987060546875000e+01 -2.094272994995117188e+01 -8.826547302305698395e-03 5.615167140960693359e+00 1.681902170181274414e+00 -1.077327281236648560e-01
1.462000000000000000e+03 7.823867797851562500e+01 -2.517122077941894531e+01 3.597101196646690369e-02 7.536484241485595703e+00 2.271736621856689453e+00 -6.171791553497314453e-01
1.463000000000000000e+03 7.823282623291015625e+01 -2.652334976196289062e+01 9.836307168006896973e-02 7.919606685638427734e+00 2.405390977859497070e+00 -7.209408283233642578e-01
1.464000000000000000e+03 7.803248596191406250e+01 -3.181435203552246094e+01 -2.948557585477828979e-02 9.515885353088378906e+00 2.845920085906982422e+00 -6.581259369850158691e-01
1.465000000000000000e+03 7.936979675292968750e+01 -3.060357284545898438e+01 3.110777772963047028e-02 9.309144973754882812e+00 2.802075862884521484e+00 -2.784392833709716797e-01
1.466000000000000000e+03 7.679621124267578125e+01 -3.301932144165039062e+01 -1.783019453287124634e-01 9.507776260375976562e+00 2.798842191696166992e+00 -7.610026001930236816e-01
1.467000000000000000e+03 7.526050567626953125e+01 -3.767727279663085938e+01 -3.918283581733703613e-01 9.305377960205078125e+00 2.674064874649047852e+00 -5.190424323081970215e-01
1.468000000000000000e+03 7.652765655517578125e+01 -3.911652755737304688e+01 -1.471802294254302979e-01 1.022084999084472656e+01 3.022100925445556641e+00 -1.601126939058303833e-01
1.469000000000000000e+03 7.808702087402343750e+01 1.537152576446533203e+01 1.103192660957574844e-02 7.306323528289794922e+00 2.195206642150878906e+00 -2.489215433597564697e-01
1.470000000000000000e+03 7.936057281494140625e+01 1.534066581726074219e+01 7.660028990358114243e-03 7.548722267150878906e+00 2.266914606094360352e+00 -8.447703719139099121e-02
1.471000000000000000e+03 7.934836578369140625e+01 2.226351928710937500e+01 -2.535389739932725206e-06 6.805106639862060547e+00 2.041531324386596680e+00 -4.353111982345581055e-02
1.472000000000000000e+03 7.750444030761718750e+01 3.191080284118652344e+01 4.557551350444555283e-03 6.349289417266845703e+00 1.906154155731201172e+00 -1.349510904401540756e-02
1.473000000000000000e+03 7.780301666259765625e+01 2.766693305969238281e+01 1.777694560587406158e-02 6.428904533386230469e+00 1.934004545211791992e+00 -5.032592639327049255e-02
1.474000000000000000e+03 7.926773071289062500e+01 2.780958366394042969e+01 1.598222763277590275e-03 6.548815250396728516e+00 1.965124011039733887e+00 -1.480842661112546921e-02
1.475000000000000000e+03 7.794773101806640625e+01 2.491906166076660156e+01 2.202707715332508087e-02 6.528678417205810547e+00 1.965211629867553711e+00 -8.840107172727584839e-02
1.476000000000000000e+03 7.800249481201171875e+01 2.355595970153808594e+01 1.635361835360527039e-02 6.597671985626220703e+00 1.984207749366760254e+00 -1.091810911893844604e-01
1.477000000000000000e+03 7.808911895751953125e+01 1.810675239562988281e+01 1.638588123023509979e-02 7.010460376739501953e+00 2.108053922653198242e+00 -2.027412205934524536e-01
1.478000000000000000e+03 7.809058380126953125e+01 1.674198341369628906e+01 2.136217802762985229e-02 7.151932716369628906e+00 2.151988506317138672e+00 -2.281040698289871216e-01
1.479000000000000000e+03 7.808314514160156250e+01 1.399948120117187500e+01 1.619358360767364502e-02 7.473337173461914062e+00 2.246859312057495117e+00 -2.679614126682281494e-01
1.480000000000000000e+03 7.681345367431640625e+01 1.270658874511718750e+01 2.148530445992946625e-02 7.329002380371093750e+00 2.205146312713623047e+00 -4.350300729274749756e-01
1.481000000000000000e+03 7.805844116210937500e+01 9.871501922607421875e+00 -1.331780850887298584e-02 8.014278411865234375e+00 2.400288343429565430e+00 -2.805761098861694336e-01
1.482000000000000000e+03 7.935192871093750000e+01 9.789289474487304688e+00 3.440078813582658768e-03 8.411248207092285156e+00 2.524406433105468750e+00 -9.301404654979705811e-02
1.483000000000000000e+03 7.942322540283203125e+01 -1.955331993103027344e+01 4.127609729766845703e-02 5.407132625579833984e+00 1.634522557258605957e+00 -6.514572352170944214e-02
1.484000000000000000e+03 7.830210113525390625e+01 -2.240271377563476562e+01 5.505322292447090149e-02 6.867447376251220703e+00 2.076750278472900391e+00 -4.040040969848632812e-01
1.485000000000000000e+03 7.815639495849609375e+01 -1.550701999664306641e+01 1.136341840028762817e-01 6.525883197784423828e+00 1.991855144500732422e+00 1.922189742326736450e-01
1.486000000000000000e+03 7.936447906494140625e+01 -1.398561954498291016e+01 2.340617589652538300e-02 5.726855278015136719e+00 1.725078463554382324e+00 1.453319936990737915e-01
1.487000000000000000e+03 7.800933074951171875e+01 -8.350117683410644531e+00 -2.283453010022640228e-03 7.728428363800048828e+00 2.317843437194824219e+00 5.881942510604858398e-01
1.488000000000000000e+03 7.933808135986328125e+01 -6.954957962036132812e+00 6.230004597455263138e-03 7.849935054779052734e+00 2.356849431991577148e+00 2.256119102239608765e-01
1.489000000000000000e+03 7.806114196777343750e+01 1.279971301555633545e-01 -6.558325886726379395e-02 8.768898010253906250e+00 2.610994577407836914e+00 1.029931977391242981e-01
1.490000000000000000e+03 7.935107421875000000e+01 1.430037140846252441e+00 -1.910557737573981285e-03 9.241181373596191406e+00 2.771781206130981445e+00 2.215030044317245483e-02
1.491000000000000000e+03 7.677074432373046875e+01 8.601521492004394531e+00 -4.074364900588989258e-02 7.781597614288330078e+00 2.322256088256835938e+00 -4.191935062408447266e-01
1.492000000000000000e+03 7.864829254150390625e+01 4.033181762695312500e+01 -1.162913814187049866e-02 6.409679889678955078e+00 1.919415235519409180e+00 -4.046553745865821838e-02
1.493000000000000000e+03 7.440256500244140625e+01 3.725376129150390625e+01 -3.081376431509852409e-03 6.077730655670166016e+00 1.822394847869873047e+00 1.636693440377712250e-02
1.494000000000000000e+03 7.609397125244140625e+01 3.629865264892578125e+01 -1.177098718471825123e-03 6.222819328308105469e+00 1.866492629051208496e+00 -1.414564438164234161e-02
1.495000000000000000e+03 7.676231384277343750e+01 1.640913248062133789e+00 -1.579220890998840332e-01 8.376375198364257812e+00 2.465535879135131836e+00 -3.650587797164916992e-02
1.496000000000000000e+03 7.805547332763671875e+01 1.517898797988891602e+00 -8.238413184881210327e-02 8.771031379699707031e+00 2.606594085693359375e+00 1.377100683748722076e-02
1.497000000000000000e+03 7.805302429199218750e+01 -4.080438613891601562e+00 -8.069138973951339722e-02 8.440303802490234375e+00 2.507883787155151367e+00 3.932452797889709473e-01
1.498000000000000000e+03 7.935201263427734375e+01 -2.753243923187255859e+00 -2.990436367690563202e-02 8.875025749206542969e+00 2.653536319732666016e+00 1.336954385042190552e-01
1.499000000000000000e+03 7.802241516113281250e+01 -6.916040897369384766e+00 -5.603034794330596924e-02 8.000230789184570312e+00 2.383260011672973633e+00 5.442879796028137207e-01
1.500000000000000000e+03 7.800691986083984375e+01 -1.124244403839111328e+01 5.673344433307647705e-02 7.180049896240234375e+00 2.171035051345825195e+00 5.579586029052734375e-01
1.501000000000000000e+03 7.933045959472656250e+01 -9.769891738891601562e+00 1.641928963363170624e-02 6.944132804870605469e+00 2.088165760040283203e+00 2.426556795835494995e-01
1.502000000000000000e+03 7.810324096679687500e+01 -1.410398006439208984e+01 1.076706871390342712e-01 6.693382263183593750e+00 2.040315866470336914e+00 3.524596989154815674e-01
1.503000000000000000e+03 7.824594879150390625e+01 -1.827419090270996094e+01 1.078199669718742371e-01 6.419227600097656250e+00 1.958114385604858398e+00 -8.086945116519927979e-02
1.504000000000000000e+03 7.939730834960937500e+01 -1.677467918395996094e+01 3.349307924509048462e-02 5.333996772766113281e+00 1.610246896743774414e+00 3.347042202949523926e-02
1.505000000000000000e+03 7.828166198730468750e+01 -1.964932441711425781e+01 6.659180670976638794e-02 6.493992805480957031e+00 1.968175411224365234e+00 -1.797523200511932373e-01
1.506000000000000000e+03 2.661047935485839844e+00 3.578217315673828125e+01 -1.428081691265106201e-01 4.853296279907226562e+00 1.413146495819091797e+00 -4.620920717716217041e-01
1.507000000000000000e+03 8.174296617507934570e-01 3.460133361816406250e+01 5.776702892035245895e-03 4.871500015258789062e+00 1.463182926177978516e+00 -1.967891603708267212e-01
1.508000000000000000e+03 6.288958191871643066e-01 2.612724494934082031e+01 9.298988617956638336e-03 2.245290994644165039e+00 6.763769984245300293e-01 -2.054504454135894775e-01
1.509000000000000000e+03 1.896523833274841309e+00 2.732171821594238281e+01 1.076396368443965912e-02 2.995752573013305664e+00 9.019549489021301270e-01 -5.847506523132324219e-01
1.510000000000000000e+03 3.151404857635498047e+00 2.710290145874023438e+01 2.868248149752616882e-02 3.294932603836059570e+00 9.970844984054565430e-01 -8.709033727645874023e-01
1.511000000000000000e+03 3.078658580780029297e+00 2.423178291320800781e+01 8.906684815883636475e-02 2.730728387832641602e+00 8.459385633468627930e-01 -7.671655416488647461e-01
1.512000000000000000e+03 2.003892660140991211e+00 3.148945808410644531e+01 -2.395811118185520172e-02 4.060477733612060547e+00 1.210955858230590820e+00 -5.747797489166259766e-01
1.513000000000000000e+03 2.166211128234863281e+00 3.288007354736328125e+01 -5.168355256319046021e-02 4.387431144714355469e+00 1.300724267959594727e+00 -5.700646638870239258e-01
1.514000000000000000e+03 4.637413024902343750e+00 3.707427978515625000e+01 -3.395869731903076172e-01 4.813762664794921875e+00 1.342252731323242188e+00 -5.920161008834838867e-01
1.515000000000000000e+03 2.636019945144653320e+00 3.913609695434570312e+01 -1.324755847454071045e-01 5.320814132690429688e+00 1.556501626968383789e+00 -2.058637887239456177e-01
1.516000000000000000e+03 1.800673484802246094e+00 2.163683700561523438e+01 4.301744326949119568e-02 1.639124393463134766e+00 5.046425461769104004e-01 -4.009271264076232910e-01
1.517000000000000000e+03 5.853891372680664062e-01 2.047205162048339844e+01 1.109247561544179916e-02 6.957862973213195801e-01 2.120636254549026489e-01 -1.199731677770614624e-01
1.518000000000000000e+03 5.166496038436889648e-01 1.346633625030517578e+01 -8.160709403455257416e-04 -2.421062886714935303e-01 -7.287670671939849854e-02 -5.061902478337287903e-02
1.519000000000000000e+03 1.702178478240966797e+00 1.747424697875976562e+01 1.614943891763687134e-02 9.371244311332702637e-01 2.859821617603302002e-01 -2.058729231357574463e-01
1.520000000000000000e+03 4.421218335628509521e-01 6.495718479156494141e+00 9.527334012091159821e-03 -9.032012820243835449e-01 -2.681021988391876221e-01 -1.415519230067729950e-02
1.521000000000000000e+03 1.440419316291809082e+00 1.065920829772949219e+01 -7.396447937935590744e-03 9.347569197416305542e-02 2.582377195358276367e-02 -1.494942009449005127e-01
1.522000000000000000e+03 4.062050580978393555e-01 5.133261203765869141e+00 1.209498848766088486e-02 -8.728806376457214355e-01 -2.582356929779052734e-01 2.276474051177501678e-02
1.523000000000000000e+03 3.875024795532226562e+00 1.666736602783203125e+00 -1.401661485433578491e-01 3.284996002912521362e-02 -3.219485655426979065e-02 3.003205657005310059e-01
1.524000000000000000e+03 4.797666370868682861e-01 1.067935657501220703e+01 -1.080381800420582294e-03 -5.308933854103088379e-01 -1.595921218395233154e-01 -5.263608694076538086e-02
1.525000000000000000e+03 1.554692625999450684e+00 1.335376930236816406e+01 -3.882391145452857018e-03 4.280888140201568604e-01 1.272619217634201050e-01 -1.450645923614501953e-01
1.526000000000000000e+03 1.715607166290283203e+00 1.884873008728027344e+01 4.916388913989067078e-02 1.118558406829833984e+00 3.503166735172271729e-01 -2.499878406524658203e-01
1.527000000000000000e+03 1.124552845954895020e+00 1.860036373138427734e+00 -3.161873295903205872e-02 -2.018311470746994019e-01 -7.003496587276458740e-02 2.165978699922561646e-01
1.528000000000000000e+03 1.010098695755004883e+00 2.846670866012573242e+00 1.909181848168373108e-02 -3.790278136730194092e-01 -1.079808026552200317e-01 2.060514390468597412e-01
1.529000000000000000e+03 4.713741779327392578e+00 1.648185253143310547e+00 -6.465142965316772461e-02 9.685432910919189453e-02 9.660870768129825592e-03 2.054167389869689941e-01
1.530000000000000000e+03 9.626592993736267090e-01 -1.947377920150756836e+00 6.069393828511238098e-02 -4.383566230535507202e-02 5.057482048869132996e-03 -4.981649294495582581e-02
1.531000000000000000e+03 2.324964523315429688e+00 -1.689450383186340332e+00 1.992599517107009888e-01 1.175568178296089172e-01 9.504503011703491211e-02 3.836302459239959717e-02
1.532000000000000000e+03 3.905963659286499023e+00 -1.615635156631469727e+00 5.320983529090881348e-01 1.826304495334625244e-01 2.144186496734619141e-01 2.924768030643463135e-01
1.533000000000000000e+03 4.291376590728759766e+00 -1.614159464836120605e+00 6.359769105911254883e-01 1.898882836103439331e-01 2.477595508098602295e-01 3.778367638587951660e-01
1.534000000000000000e+03 4.674474239349365234e+00 -1.668820261955261230e+00 8.965499401092529297e-01 2.270072549581527710e-01 3.370671570301055908e-01 5.237275958061218262e-01
1.535000000000000000e+03 4.917818546295166016e+00 -1.955046534538269043e+00 1.113983869552612305e+00 3.617081344127655029e-01 4.427075982093811035e-01 7.480032444000244141e-01
1.536000000000000000e+03 6.880779266357421875e+00 -1.976806879043579102e+00 2.557467699050903320e+00 9.598774909973144531e-01 1.055203557014465332e+00 1.910969853401184082e+00
1.537000000000000000e+03 7.313676834106445312e+00 -1.971297740936279297e+00 2.996849536895751953e+00 1.303581953048706055e+00 1.290129423141479492e+00 2.344202995300292969e+00
1.538000000000000000e+03 7.305900573730468750e+00 -1.659497380256652832e+00 3.004784345626831055e+00 9.753154516220092773e-01 1.194029927253723145e+00 2.032445430755615234e+00
1.539000000000000000e+03 7.749372482299804688e+00 -1.964318037033081055e+00 3.384755849838256836e+00 1.845610976219177246e+00 1.569110035896301270e+00 2.866031408309936523e+00
1.540000000000000000e+03 7.948375225067138672e+00 -1.936109781265258789e+00 3.643463373184204102e+00 2.224505901336669922e+00 1.760390758514404297e+00 3.194768428802490234e+00
1.541000000000000000e+03 8.675977706909179688e+00 -1.621671080589294434e+00 4.390356063842773438e+00 3.708416700363159180e+00 2.429631948471069336e+00 4.251644611358642578e+00
1.542000000000000000e+03 9.311594963073730469e+00 -1.706521868705749512e+00 4.021048069000244141e+00 7.184703350067138672e+00 3.361725330352783203e+00 5.040213108062744141e+00
1.543000000000000000e+03 9.168372154235839844e+00 -2.152507066726684570e+00 3.294484615325927734e+00 6.566843986511230469e+00 2.958398580551147461e+00 4.582094669342041016e+00
1.544000000000000000e+03 1.011307811737060547e+01 1.682237267494201660e+00 9.380821585655212402e-01 1.202156925201416016e+01 3.887895345687866211e+00 -2.838748216629028320e+00
1.545000000000000000e+03 9.280092239379882812e+00 1.613398671150207520e+00 2.151541948318481445e+00 6.391799449920654297e+00 2.563002586364746094e+00 -4.280373096466064453e+00
1.546000000000000000e+03 8.916587829589843750e+00 1.645993471145629883e+00 2.342630386352539062e+00 4.347792625427246094e+00 2.007127046585083008e+00 -3.617348194122314453e+00
1.547000000000000000e+03 8.290018081665039062e+00 1.637240290641784668e+00 2.036137342453002930e+00 2.066879510879516602e+00 1.230905055999755859e+00 -2.313526153564453125e+00
1.548000000000000000e+03 8.083546638488769531e+00 1.647447228431701660e+00 1.806763529777526855e+00 1.653765797615051270e+00 1.038158774375915527e+00 -1.951342344284057617e+00
1.549000000000000000e+03 7.328045845031738281e+00 1.648580670356750488e+00 1.123639702796936035e+00 7.705401778221130371e-01 5.682539939880371094e-01 -9.614647030830383301e-01
1.550000000000000000e+03 6.917949199676513672e+00 1.704484224319458008e+00 8.288757205009460449e-01 5.636034607887268066e-01 4.177437424659729004e-01 -6.334754228591918945e-01
1.551000000000000000e+03 5.319264411926269531e+00 1.859909653663635254e+00 1.823118180036544800e-01 2.105125337839126587e-01 1.178473085165023804e-01 3.868278861045837402e-02
1.552000000000000000e+03 5.498692989349365234e+00 1.616196155548095703e+00 4.206278175115585327e-02 1.571050286293029785e-01 5.975034087896347046e-02 4.648111388087272644e-02
1.553000000000000000e+03 4.941151142120361328e+00 1.904648780822753906e+00 1.057824194431304932e-01 1.613169461488723755e-01 8.012980967760086060e-02 1.297614872455596924e-01
1.554000000000000000e+03 5.108249187469482422e+00 1.627213716506958008e+00 -3.102827630937099457e-02 1.210084632039070129e-01 2.699405513703823090e-02 1.472300887107849121e-01
1.555000000000000000e+03 5.131218433380126953e+00 1.882382988929748535e+00 1.393794715404510498e-01 1.894594877958297729e-01 9.865168482065200806e-02 7.770460844039916992e-02
1.556000000000000000e+03 3.677971601486206055e+00 1.649703025817871094e+00 -1.555513888597488403e-01 2.113886177539825439e-02 -4.032375663518905640e-02 3.076377809047698975e-01
1.557000000000000000e+03 3.484951257705688477e+00 1.639019966125488281e+00 -1.634267568588256836e-01 1.361505594104528427e-02 -4.494351148605346680e-02 3.220047652721405029e-01
1.558000000000000000e+03 3.844644784927368164e+00 2.507062196731567383e+00 1.837848126888275146e-01 1.312479525804519653e-01 9.450983256101608276e-02 2.131702899932861328e-01
1.559000000000000000e+03 3.290250539779663086e+00 1.639537692070007324e+00 -1.574898958206176758e-01 -3.674218431115150452e-03 -4.834923520684242249e-02 3.297105133533477783e-01
1.560000000000000000e+03 1.766238689422607422e+00 2.801262855529785156e+00 5.252514034509658813e-02 -1.843277215957641602e-01 -3.954077139496803284e-02 2.848557531833648682e-01
1.561000000000000000e+03 1.036960124969482422e+01 2.037106990814208984e+00 6.385508775711059570e-01 1.164492034912109375e+01 3.685041427612304688e+00 -1.879735946655273438e+00
1.562000000000000000e+03 1.012872314453125000e+01 2.058658123016357422e+00 6.713724136352539062e-01 1.086194896697998047e+01 3.459996461868286133e+00 -2.571454763412475586e+00
1.563000000000000000e+03 1.049142360687255859e+01 -1.975863933563232422e+00 2.545544385910034180e+00 1.183234405517578125e+01 4.313366889953613281e+00 1.945778369903564453e+00
1.564000000000000000e+03 1.015125751495361328e+01 -1.668690085411071777e+00 2.975936651229858398e+00 1.240083599090576172e+01 4.613031864166259766e+00 3.313645124435424805e+00
1.565000000000000000e+03 1.088735866546630859e+01 -1.750923991203308105e+00 3.306772947311401367e+00 1.228952503204345703e+01 4.678889274597167969e+00 3.623245954513549805e-01
1.566000000000000000e+03 1.127001762390136719e+01 1.788269996643066406e+00 2.046091318130493164e+00 1.218730068206787109e+01 4.270017623901367188e+00 9.904569983482360840e-01
1.567000000000000000e+03 1.152847003936767578e+01 1.204252362251281738e+00 4.626088619232177734e+00 1.200371551513671875e+01 4.988941192626953125e+00 2.179408550262451172e+00
1.568000000000000000e+03 1.196907424926757812e+01 1.812798619270324707e+00 3.005807876586914062e+00 1.037118816375732422e+01 4.013098716735839844e+00 1.606281757354736328e+00
1.569000000000000000e+03 1.032764434814453125e+01 1.665136575698852539e+00 9.173381924629211426e-01 1.276709651947021484e+01 4.105330467224121094e+00 -1.953582644462585449e+00
1.570000000000000000e+03 1.577546358108520508e+00 2.040420770645141602e+00 -3.051334992051124573e-02 -1.491980701684951782e-01 -5.391342565417289734e-02 2.922708690166473389e-01
1.571000000000000000e+03 1.153156399726867676e+00 2.164241790771484375e+00 -9.273035451769828796e-03 -2.515001595020294189e-01 -7.823195308446884155e-02 2.462965846061706543e-01
1.572000000000000000e+03 3.915356826782226562e+01 -1.213385391235351562e+01 5.933817028999328613e-01 1.145883083343505859e+01 3.615663766860961914e+00 -2.831673920154571533e-01
1.573000000000000000e+03 2.091404533386230469e+01 -1.662485313415527344e+01 -2.618808746337890625e+00 4.750698804855346680e-01 -6.431216597557067871e-01 9.987712651491165161e-02
1.574000000000000000e+03 2.302126693725585938e+01 -1.772741889953613281e+01 -2.736808061599731445e+00 1.906474828720092773e-01 -7.638481259346008301e-01 -4.027801379561424255e-02
1.575000000000000000e+03 1.315557241439819336e+00 -2.290704727172851562e+00 1.052481085062026978e-01 5.606187880039215088e-02 4.839299619197845459e-02 -3.558541648089885712e-04
1.576000000000000000e+03 6.884931945800781250e+01 -6.135919570922851562e+00 -2.474795281887054443e-01 7.713062763214111328e+00 2.239675045013427734e+00 -7.598803639411926270e-01
1.577000000000000000e+03 6.782743072509765625e+01 -7.788633823394775391e+00 2.831142842769622803e-01 8.048142433166503906e+00 2.499376773834228516e+00 -1.827801942825317383e+00
1.578000000000000000e+03 5.403377151489257812e+01 3.470652818679809570e+00 -1.719354748725891113e+00 4.169141054153442383e-01 -3.907321989536285400e-01 8.002749085426330566e-02
1.579000000000000000e+03 1.896209144592285156e+01 -1.592396259307861328e+01 -2.935060501098632812e+00 5.114133954048156738e-01 -7.270941138267517090e-01 1.513668745756149292e-01
1.580000000000000000e+03 2.747975158691406250e+01 -1.651242637634277344e+01 -2.443797111511230469e+00 -5.175697430968284607e-02 -7.486662268638610840e-01 -1.942785531282424927e-01
1.581000000000000000e+03 1.795863342285156250e+01 -1.541923809051513672e+01 -2.921379804611206055e+00 4.090827107429504395e-01 -7.536891102790832520e-01 1.022174656391143799e-01
1.582000000000000000e+03 2.115557098388671875e+01 -1.575634098052978516e+01 -2.246742486953735352e+00 5.123316645622253418e-01 -5.203232765197753906e-01 -6.124768033623695374e-02
1.583000000000000000e+03 1.278418254852294922e+01 2.289536094665527344e+01 6.915767192840576172e-01 7.621906757354736328e+00 2.494045019149780273e+00 -5.148844122886657715e-01
1.584000000000000000e+03 1.250064277648925781e+01 1.964401054382324219e+01 7.569587230682373047e-01 7.752778530120849609e+00 2.552921056747436523e+00 -8.408665060997009277e-01
1.585000000000000000e+03 2.408262443542480469e+01 -3.298320007324218750e+01 -1.375718712806701660e+00 2.710088156163692474e-02 -4.045853316783905029e-01 8.145596086978912354e-02
1.586000000000000000e+03 2.693864440917968750e+01 -3.472319412231445312e+01 -6.776539683341979980e-01 7.509963512420654297e-01 2.200271561741828918e-02 6.708390116691589355e-01
1.587000000000000000e+03 2.432541275024414062e+01 -1.536358547210693359e+01 -1.597102880477905273e+00 2.952305674552917480e-01 -3.905616998672485352e-01 -2.779168188571929932e-01
1.588000000000000000e+03 2.289433479309082031e+01 -1.672556877136230469e+01 -2.402324438095092773e+00 3.599453270435333252e-01 -6.127137541770935059e-01 -1.000576242804527283e-01
1.589000000000000000e+03 1.800680732727050781e+01 -3.386627578735351562e+01 -1.726294994354248047e+00 -2.870751619338989258e-01 -6.040110588073730469e-01 5.433319211006164551e-01
1.590000000000000000e+03 2.003799057006835938e+01 -3.490947341918945312e+01 -1.274296402931213379e+00 -2.935166656970977783e-01 -4.703439176082611084e-01 4.454771280288696289e-01
1.591000000000000000e+03 3.597241973876953125e+01 -1.286232948303222656e+00 -3.067843317985534668e-01 3.274731397628784180e+00 8.903840780258178711e-01 8.591805100440979004e-01
1.592000000000000000e+03 5.284704971313476562e+01 -3.508825683593750000e+01 -4.014858901500701904e-01 9.153132438659667969e-01 1.541482061147689819e-01 -6.454657912254333496e-01
1.593000000000000000e+03 5.241232681274414062e+01 -3.081794929504394531e+01 -3.081694543361663818e-01 5.536187291145324707e-01 7.363478839397430420e-02 -2.054652422666549683e-01
1.594000000000000000e+03 5.068527603149414062e+01 -2.869294929504394531e+01 9.032604843378067017e-02 6.504692435264587402e-01 2.222385853528976440e-01 -4.069415032863616943e-01
1.595000000000000000e+03 3.791067123413085938e+01 -2.066152191162109375e+01 1.012195110321044922e+00 1.063152980804443359e+01 3.493117332458496094e+00 9.830769896507263184e-01
1.596000000000000000e+03 2.212777709960937500e+01 -3.540682601928710938e+01 -8.356456160545349121e-01 -1.644864976406097412e-01 -3.000396490097045898e-01 3.602699935436248779e-01
1.597000000000000000e+03 2.548614120483398438e+01 -3.482025146484375000e+01 -7.856189012527465820e-01 3.896534740924835205e-01 -1.187896281480789185e-01 3.316515684127807617e-01
1.598000000000000000e+03 1.423018360137939453e+01 1.363398456573486328e+01 1.463975161314010620e-01 7.925169944763183594e+00 2.421470165252685547e+00 -9.529877901077270508e-01
1.599000000000000000e+03 4.400569534301757812e+01 1.818731117248535156e+01 5.698117017745971680e-01 6.148810386657714844e+00 2.015586614608764648e+00 1.352957725524902344e+00
1.600000000000000000e+03 1.698586463928222656e+01 -1.479632091522216797e+01 -2.790343999862670898e+00 3.547623753547668457e-01 -7.306745052337646484e-01 7.421014457941055298e-02
1.601000000000000000e+03 2.577576065063476562e+01 -1.586474704742431641e+01 -1.845307350158691406e+00 1.173764914274215698e-01 -5.183792710304260254e-01 -2.124424576759338379e-01
1.602000000000000000e+03 4.445375919342041016e+00 -3.134008789062500000e+01 -1.489113211631774902e+00 7.126763820648193359e+00 1.691295266151428223e+00 4.778582751750946045e-01
1.603000000000000000e+03 3.404142141342163086e+00 -3.598068618774414062e+01 -2.050697356462478638e-01 7.674679279327392578e+00 2.240882873535156250e+00 -5.233403444290161133e-01
1.604000000000000000e+03 1.248869299888610840e+00 -7.472729682922363281e+00 2.744195051491260529e-02 1.707270026206970215e+00 5.204135775566101074e-01 6.598446965217590332e-01
1.605000000000000000e+03 1.872660636901855469e+00 -2.629067230224609375e+01 1.325535327196121216e-01 6.942144393920898438e+00 2.122409343719482422e+00 1.989771246910095215e+00
1.606000000000000000e+03 2.936640262603759766e+00 -2.632659149169921875e+01 7.628057897090911865e-02 7.857782840728759766e+00 2.380218982696533203e+00 2.490561962127685547e+00
1.607000000000000000e+03 3.577120780944824219e+00 -2.692499351501464844e+01 -3.235420584678649902e-01 8.490262985229492188e+00 2.450016260147094727e+00 2.492499828338623047e+00
1.608000000000000000e+03 1.747010231018066406e+00 -2.770201492309570312e+01 -2.345606088638305664e-01 7.739306449890136719e+00 2.251423835754394531e+00 1.755435585975646973e+00
1.609000000000000000e+03 5.234662055969238281e+00 -1.849735641479492188e+01 8.766180276870727539e-01 9.405528068542480469e+00 3.084643840789794922e+00 1.065280079841613770e+00
1.610000000000000000e+03 2.834176540374755859e+00 -1.969767189025878906e+01 6.687616705894470215e-01 6.005402565002441406e+00 2.002249240875244141e+00 -4.633295536041259766e-02
1.611000000000000000e+03 1.816813111305236816e+00 -1.565080642700195312e+01 -1.679337024688720703e-01 4.166416645050048828e+00 1.199544906616210938e+00 -4.451396167278289795e-01
1.612000000000000000e+03 3.597799062728881836e+00 -1.035873317718505859e+01 -4.583248794078826904e-01 3.697398900985717773e+00 9.717222452163696289e-01 1.409897804260253906e+00
1.613000000000000000e+03 1.905984997749328613e+00 -3.205955123901367188e+01 -3.555043041706085205e-01 9.178093910217285156e+00 2.646776914596557617e+00 3.834485709667205811e-01
1.614000000000000000e+03 2.928803205490112305e+00 -2.315073585510253906e+01 9.117545485496520996e-01 7.282516956329345703e+00 2.458281517028808594e+00 1.646703004837036133e+00
1.615000000000000000e+03 2.911392450332641602e+00 -1.838579559326171875e+01 3.094474673271179199e-01 5.856700420379638672e+00 1.849844455718994141e+00 -3.679944276809692383e-01
1.616000000000000000e+03 4.863160133361816406e+00 -1.634447479248046875e+01 -5.520090460777282715e-01 7.089765548706054688e+00 1.961326837539672852e+00 3.193131387233734131e-01
1.617000000000000000e+03 2.651616096496582031e+00 -1.018700599670410156e+01 -2.602460682392120361e-01 3.288014888763427734e+00 9.083306193351745605e-01 1.074018597602844238e+00
1.618000000000000000e+03 3.112687587738037109e+00 -1.550074291229248047e+01 -4.766861200332641602e-01 5.337942600250244141e+00 1.458377003669738770e+00 -2.367119342088699341e-01
1.619000000000000000e+03 3.247211933135986328e+00 -2.426172637939453125e+01 8.410108089447021484e-01 8.066232681274414062e+00 2.672173023223876953e+00 2.070087194442749023e+00
1.620000000000000000e+03 3.887252092361450195e+00 -2.094600486755371094e+01 1.361774682998657227e+00 8.689917564392089844e+00 3.015507698059082031e+00 8.024927377700805664e-01
1.621000000000000000e+03 1.655871987342834473e+00 -1.292631435394287109e+01 -2.479481548070907593e-01 3.861350536346435547e+00 1.084020733833312988e+00 1.544089168310165405e-01
1.622000000000000000e+03 4.044295310974121094e+00 -3.440163040161132812e+01 -6.107605695724487305e-01 6.933930397033691406e+00 1.896950960159301758e+00 -2.409842014312744141e-01
1.623000000000000000e+03 3.567217350006103516e+00 -3.317756652832031250e+01 -7.589744329452514648e-01 7.688429832458496094e+00 2.078836679458618164e+00 4.886982217431068420e-02
1.624000000000000000e+03 5.162987709045410156e+00 -3.716975784301757812e+01 -6.950280070304870605e-02 5.910596370697021484e+00 1.752328038215637207e+00 -1.828078776597976685e-01
1.625000000000000000e+03 3.021995544433593750e+00 -3.497083663940429688e+01 -3.620811700820922852e-01 8.169703483581542969e+00 2.342286825180053711e+00 -3.034622371196746826e-01
1.626000000000000000e+03 2.111298179626464844e+01 -3.440435409545898438e+01 -1.272172927856445312e+00 -1.998640000820159912e-01 -4.416110813617706299e-01 3.244845569133758545e-01
1.627000000000000000e+03 4.192908477783203125e+01 -2.206302070617675781e+01 6.694430112838745117e-01 6.266697883605957031e+00 2.080842256546020508e+00 -9.865928292274475098e-01
1.628000000000000000e+03 4.664452362060546875e+01 -2.632726287841796875e+01 5.786636471748352051e-01 1.788003802299499512e+00 7.100002765655517578e-01 -1.094880342483520508e+00
1.629000000000000000e+03 7.160725402832031250e+01 -2.223090553283691406e+01 7.294120192527770996e-01 1.181763839721679688e+01 3.764115095138549805e+00 -2.050310671329498291e-01
1.630000000000000000e+03 1.761619567871093750e+01 6.933718681335449219e+00 -1.396513581275939941e-01 4.626668930053710938e+00 1.346105337142944336e+00 -4.672220349311828613e-01
1.631000000000000000e+03 1.654124450683593750e+01 9.879784584045410156e+00 -9.937357157468795776e-02 6.393921852111816406e+00 1.888364434242248535e+00 -9.567208886146545410e-01
1.632000000000000000e+03 1.103398609161376953e+01 -3.338388824462890625e+01 -1.382829189300537109e+00 9.759806841611862183e-02 -3.855693638324737549e-01 3.852349817752838135e-01
1.633000000000000000e+03 1.279910659790039062e+01 -3.540877532958984375e+01 -5.114974379539489746e-01 -2.711784839630126953e-01 -2.348027825355529785e-01 4.595211446285247803e-01
1.634000000000000000e+03 1.463086509704589844e+01 -3.614545822143554688e+01 -4.367518126964569092e-01 -4.478546679019927979e-01 -2.653819322586059570e-01 4.822478294372558594e-01
1.635000000000000000e+03 6.706799030303955078e+00 -2.973154067993164062e+01 -2.469185352325439453e+00 5.117195606231689453e+00 7.944030165672302246e-01 8.967345207929611206e-02
1.636000000000000000e+03 5.613062381744384766e+00 -3.099301528930664062e+01 -1.815692901611328125e+00 6.118222713470458984e+00 1.290758967399597168e+00 4.804506152868270874e-02
1.637000000000000000e+03 2.089258575439453125e+01 -7.252530455589294434e-01 3.484911203384399414e+00 1.107862949371337891e+00 1.377832174301147461e+00 -1.788676142692565918e+00
1.638000000000000000e+03 2.093497085571289062e+01 -1.966625571250915527e+00 3.811403036117553711e+00 1.043409943580627441e+00 1.456443905830383301e+00 -1.682371377944946289e+00
1.639000000000000000e+03 4.718627548217773438e+01 -3.202943801879882812e+01 -2.180460542440414429e-01 2.495991706848144531e+00 6.833836436271667480e-01 -1.131793737411499023e+00
1.640000000000000000e+03 4.407815551757812500e+01 1.964681816101074219e+01 4.078877270221710205e-01 5.760013103485107422e+00 1.850370287895202637e+00 1.061504960060119629e+00
1.641000000000000000e+03 4.436161422729492188e+01 2.536784934997558594e+01 2.692221105098724365e-01 4.702912807464599609e+00 1.491640448570251465e+00 3.497706651687622070e-01
1.642000000000000000e+03 4.438681411743164062e+01 2.689591026306152344e+01 3.235386908054351807e-01 4.413645267486572266e+00 1.421155214309692383e+00 3.419574797153472900e-01
1.643000000000000000e+03 1.992362213134765625e+01 3.295406103134155273e+00 9.512923955917358398e-01 1.755478501319885254e+00 8.120312690734863281e-01 -8.764149546623229980e-01
1.644000000000000000e+03 2.063060760498046875e+01 2.127933502197265625e+00 1.542063474655151367e+00 1.346477627754211426e+00 8.665623068809509277e-01 -1.211539387702941895e+00
1.645000000000000000e+03 4.685034942626953125e+01 -2.458420753479003906e+01 6.074154973030090332e-01 1.244031429290771484e+00 5.554340481758117676e-01 -8.456333279609680176e-01
1.646000000000000000e+03 3.977655410766601562e+01 3.541423797607421875e+01 -1.100814819335937500e+00 1.395948171615600586e+00 8.854001015424728394e-02 -1.721216551959514618e-02
1.647000000000000000e+03 4.168042373657226562e+01 -9.750087857246398926e-01 7.200435996055603027e-01 1.105683612823486328e+01 3.533063888549804688e+00 1.738882422447204590e+00
1.648000000000000000e+03 4.128173065185546875e+01 -2.337851285934448242e+00 1.803482770919799805e+00 1.175973320007324219e+01 4.068964958190917969e+00 2.845322608947753906e+00
1.649000000000000000e+03 6.171419525146484375e+01 -3.461283111572265625e+01 -7.226241230964660645e-01 3.893199265003204346e-01 -9.999126195907592773e-02 2.422901988029479980e-01
1.650000000000000000e+03 4.030548095703125000e+01 -7.911539077758789062e+00 1.509846568107604980e+00 1.376169490814208984e+01 4.581462383270263672e+00 1.479303121566772461e+00
1.651000000000000000e+03 4.296706771850585938e+01 2.397678375244140625e+01 9.398406744003295898e-02 5.112598419189453125e+00 1.561974763870239258e+00 2.891521453857421875e-01
1.652000000000000000e+03 4.423479461669921875e+01 2.391544532775878906e+01 2.358259558677673340e-01 4.959037303924560547e+00 1.558459043502807617e+00 5.042265653610229492e-01
1.653000000000000000e+03 4.415378952026367188e+01 2.110000610351562500e+01 2.978999614715576172e-01 5.508981227874755859e+00 1.742064356803894043e+00 8.580528497695922852e-01
1.654000000000000000e+03 4.417529296875000000e+01 2.251149749755859375e+01 2.377241253852844238e-01 5.226944923400878906e+00 1.639400720596313477e+00 6.600660085678100586e-01
1.655000000000000000e+03 4.763345336914062500e+01 -2.729335594177246094e+01 4.835094511508941650e-01 1.497684240341186523e+00 5.943580865859985352e-01 -9.401206970214843750e-01
1.656000000000000000e+03 7.597023010253906250e+01 -1.857836723327636719e+01 3.596807718276977539e-01 8.337679862976074219e+00 2.609208106994628906e+00 -2.463707029819488525e-01
1.657000000000000000e+03 4.322177505493164062e+01 1.065303611755371094e+01 1.557609915733337402e+00 7.531889915466308594e+00 2.726850032806396484e+00 2.895501852035522461e+00
1.658000000000000000e+03 4.360481262207031250e+01 1.222553634643554688e+01 1.429872274398803711e+00 7.185125350952148438e+00 2.584499359130859375e+00 2.590636730194091797e+00
1.659000000000000000e+03 6.959542846679687500e+01 -8.835126876831054688e+00 -2.378520742058753967e-02 9.341114044189453125e+00 2.795198678970336914e+00 -9.151357412338256836e-01
1.660000000000000000e+03 7.118272399902343750e+01 -1.838502883911132812e+01 4.971572160720825195e-01 1.292999744415283203e+01 4.028146266937255859e+00 -5.273835659027099609e-01
1.661000000000000000e+03 6.999703979492187500e+01 -1.871133613586425781e+01 1.904028505086898804e-01 1.425014019012451172e+01 4.332162857055664062e+00 -4.462179541587829590e-01
1.662000000000000000e+03 1.914987754821777344e+01 2.770569086074829102e+00 1.464795470237731934e+00 2.345994472503662109e+00 1.143236994743347168e+00 -9.794688224792480469e-01
1.663000000000000000e+03 1.919754028320312500e+01 4.455836296081542969e+00 4.539017975330352783e-01 2.468179464340209961e+00 8.766244053840637207e-01 -6.116578578948974609e-01
1.664000000000000000e+03 4.366325759887695312e+01 -2.292652893066406250e+01 8.518213033676147461e-01 3.902064085006713867e+00 1.426165580749511719e+00 -1.363852381706237793e+00
1.665000000000000000e+03 4.452124404907226562e+01 -2.416662979125976562e+01 8.368383646011352539e-01 3.077013969421386719e+00 1.174155712127685547e+00 -1.338439583778381348e+00
1.666000000000000000e+03 7.465431976318359375e+01 -3.358288955688476562e+01 -4.782534539699554443e-01 9.073805809020996094e+00 2.578665733337402344e+00 -7.270976901054382324e-01
1.667000000000000000e+03 7.414307403564453125e+01 -2.372084236145019531e+01 5.400854945182800293e-01 9.628240585327148438e+00 3.050497770309448242e+00 -7.912178039550781250e-01
1.668000000000000000e+03 7.820350646972656250e+01 -2.784191322326660156e+01 -8.172097615897655487e-03 8.372211456298828125e+00 2.509211778640747070e+00 -7.695600986480712891e-01
1.669000000000000000e+03 7.559468078613281250e+01 1.543323135375976562e+01 6.700110435485839844e-02 6.778285503387451172e+00 2.053586006164550781e+00 -4.954923093318939209e-01
1.670000000000000000e+03 7.682506561279296875e+01 1.675662803649902344e+01 4.088038206100463867e-02 6.918513774871826172e+00 2.087818145751953125e+00 -3.505664169788360596e-01
1.671000000000000000e+03 7.747876739501953125e+01 3.473009872436523438e+01 1.431258511729538441e-03 6.341810226440429688e+00 1.902972459793090820e+00 -1.116421446204185486e-02
1.672000000000000000e+03 7.564922332763671875e+01 3.332057952880859375e+01 9.200591593980789185e-03 6.174415588378906250e+00 1.855084896087646484e+00 -5.254749208688735962e-03
1.673000000000000000e+03 7.720780181884765625e+01 -2.245139122009277344e+01 2.013903856277465820e-01 7.659368515014648438e+00 2.358227491378784180e+00 -5.861068367958068848e-01
1.674000000000000000e+03 7.677613067626953125e+01 -3.028553199768066406e+01 -1.006111651659011841e-01 9.119616508483886719e+00 2.705701828002929688e+00 -1.049570918083190918e+00
1.675000000000000000e+03 7.792994689941406250e+01 -3.449443435668945312e+01 -1.379725337028503418e-01 1.007287693023681641e+01 2.980471134185791016e+00 -4.213539659976959229e-01
1.676000000000000000e+03 7.574967956542968750e+01 -2.948320960998535156e+01 -1.272720843553543091e-01 9.097956657409667969e+00 2.691205263137817383e+00 -1.200538873672485352e+00
1.677000000000000000e+03 7.703060150146484375e+01 -2.656863212585449219e+01 1.427280306816101074e-01 8.407073974609375000e+00 2.564940452575683594e+00 -9.965080022811889648e-01
1.678000000000000000e+03 7.715380859375000000e+01 -2.381338691711425781e+01 1.654140502214431763e-01 7.891922473907470703e+00 2.417201042175292969e+00 -7.330060601234436035e-01
1.679000000000000000e+03 7.507573699951171875e+01 -2.373602294921875000e+01 4.346408545970916748e-01 9.210358619689941406e+00 2.893499851226806641e+00 -8.351982235908508301e-01
1.680000000000000000e+03 7.665280151367187500e+01 -3.163624954223632812e+01 -2.594633698463439941e-01 9.302837371826171875e+00 2.713012456893920898e+00 -9.433435201644897461e-01
1.681000000000000000e+03 7.658334350585937500e+01 -3.416822814941406250e+01 -3.807427585124969482e-01 9.519719123840332031e+00 2.741692781448364258e+00 -6.464761495590209961e-01
1.682000000000000000e+03 7.802139282226562500e+01 -3.317609024047851562e+01 -1.643942594528198242e-01 9.803266525268554688e+00 2.891661882400512695e+00 -5.593956708908081055e-01
1.683000000000000000e+03 7.350791168212890625e+01 -3.317859268188476562e+01 -6.759531497955322266e-01 8.762582778930664062e+00 2.425988912582397461e+00 -7.372298836708068848e-01
1.684000000000000000e+03 7.502502441406250000e+01 -4.038615417480468750e+01 -1.222840845584869385e-01 9.189928054809570312e+00 2.720293045043945312e+00 -2.877200543880462646e-01
1.685000000000000000e+03 7.804412078857421875e+01 2.218964004516601562e+01 2.193198725581169128e-02 6.678950786590576172e+00 2.010264873504638672e+00 -1.306800246238708496e-01
1.686000000000000000e+03 7.678231048583984375e+01 2.075326156616210938e+01 5.135196447372436523e-02 6.609666347503662109e+00 1.998305439949035645e+00 -2.429109066724777222e-01
1.687000000000000000e+03 7.530420684814453125e+01 2.326112556457519531e+01 9.205058217048645020e-02 6.280373096466064453e+00 1.911727070808410645e+00 -2.298026829957962036e-01
1.688000000000000000e+03 7.674100494384765625e+01 2.209080886840820312e+01 4.595485329627990723e-02 6.525231838226318359e+00 1.971355915069580078e+00 -2.096026986837387085e-01
1.689000000000000000e+03 7.682561492919921875e+01 1.405718612670898438e+01 2.590050920844078064e-02 7.184244155883789062e+00 2.163043498992919922e+00 -4.126679003238677979e-01
1.690000000000000000e+03 7.807544708251953125e+01 1.262620925903320312e+01 1.050436054356396198e-03 7.650008201599121094e+00 2.295317411422729492e+00 -2.801575958728790283e-01
1.691000000000000000e+03 7.551745605468750000e+01 1.011176967620849609e+01 -3.412940725684165955e-02 7.257946968078613281e+00 2.167145252227783203e+00 -5.782137513160705566e-01
1.692000000000000000e+03 7.682929992675781250e+01 1.540804195404052734e+01 4.282313957810401917e-02 7.045040607452392578e+00 2.126359224319458008e+00 -3.857903182506561279e-01
1.693000000000000000e+03 7.656124114990234375e+01 2.476782798767089844e+01 4.738223180174827576e-02 6.388675212860107422e+00 1.930817246437072754e+00 -1.422213315963745117e-01
1.694000000000000000e+03 7.788275909423828125e+01 2.628579521179199219e+01 1.631926931440830231e-02 6.474059581756591797e+00 1.947113633155822754e+00 -6.666744500398635864e-02
1.695000000000000000e+03 7.830223846435546875e+01 -2.102388191223144531e+01 1.022447720170021057e-01 6.624248504638671875e+00 2.017947912216186523e+00 -3.045971691608428955e-01
1.696000000000000000e+03 7.720231628417968750e+01 -2.110585403442382812e+01 1.616862118244171143e-01 7.551454544067382812e+00 2.313942193984985352e+00 -4.225326478481292725e-01
1.697000000000000000e+03 7.760049438476562500e+01 3.048325347900390625e+01 1.098871789872646332e-02 6.365871906280517578e+00 1.913058161735534668e+00 -2.320520766079425812e-02
1.698000000000000000e+03 7.618249511718750000e+01 2.887445068359375000e+01 3.814196586608886719e-02 6.245121955871582031e+00 1.884979248046875000e+00 -6.069353222846984863e-02
1.699000000000000000e+03 7.380316162109375000e+01 -2.031721115112304688e+01 5.068361759185791016e-01 1.026291942596435547e+01 3.230926752090454102e+00 -4.151425361633300781e-01
1.700000000000000000e+03 7.716223144531250000e+01 -1.976076507568359375e+01 2.045402824878692627e-01 7.439051151275634766e+00 2.293077468872070312e+00 -3.107725083827972412e-01
1.701000000000000000e+03 7.545215606689453125e+01 -8.233326911926269531e+00 -8.321242034435272217e-02 8.353939056396484375e+00 2.481218099594116211e+00 7.987608313560485840e-01
1.702000000000000000e+03 7.676379394531250000e+01 -1.280916023254394531e+01 2.063986659049987793e-01 7.690010070800781250e+00 2.368922472000122070e+00 6.033577322959899902e-01
1.703000000000000000e+03 7.554633331298828125e+01 -1.002959728240966797e+00 -3.364940285682678223e-01 8.193211555480957031e+00 2.357015132904052734e+00 1.975454390048980713e-01
1.704000000000000000e+03 7.672206115722656250e+01 -6.847496986389160156e+00 -1.007014587521553040e-01 8.174256324768066406e+00 2.422066450119018555e+00 7.018327116966247559e-01
1.705000000000000000e+03 7.678906250000000000e+01 4.454168796539306641e+00 -1.168125942349433899e-01 8.204219818115234375e+00 2.426222085952758789e+00 -2.588916420936584473e-01
1.706000000000000000e+03 7.753726959228515625e+01 3.602799606323242188e+01 8.924285881221294403e-03 6.342741012573242188e+00 1.905499577522277832e+00 3.812402719631791115e-03
1.707000000000000000e+03 7.805857849121093750e+01 7.101667881011962891e+00 -3.332781046628952026e-02 8.360212326049804688e+00 2.498065233230590820e+00 -2.385420650243759155e-01
1.708000000000000000e+03 7.677955627441406250e+01 7.223589420318603516e+00 -5.490261316299438477e-02 7.937438964843750000e+00 2.364760875701904297e+00 -3.891843855381011963e-01
1.709000000000000000e+03 7.806613159179687500e+01 -1.263789176940917969e+00 -9.252893924713134766e-02 8.715247154235839844e+00 2.586815595626831055e+00 2.006560266017913818e-01
1.710000000000000000e+03 7.679312896728515625e+01 -1.141739964485168457e+00 -1.773142516613006592e-01 8.435956001281738281e+00 2.477592468261718750e+00 2.283705621957778931e-01
1.711000000000000000e+03 7.670878601074218750e+01 -8.307929992675781250e+00 -5.366119742393493652e-02 8.075524330139160156e+00 2.406558990478515625e+00 7.652305364608764648e-01
1.712000000000000000e+03 7.695084381103515625e+01 -1.566654968261718750e+01 2.527113556861877441e-01 7.471032619476318359e+00 2.317123174667358398e+00 2.412479370832443237e-01
1.713000000000000000e+03 7.571260833740234375e+01 3.486502838134765625e+01 3.164835739880800247e-03 6.195711135864257812e+00 1.859662890434265137e+00 2.345948480069637299e-03
1.714000000000000000e+03 7.371772003173828125e+01 3.518900299072265625e+01 9.273897856473922729e-03 5.982432365417480469e+00 1.797511935234069824e+00 9.174315258860588074e-03
1.715000000000000000e+03 7.576494598388671875e+01 3.179403877258300781e+01 2.326897345483303070e-02 6.183715820312500000e+00 1.862095355987548828e+00 -2.015437930822372437e-02
1.716000000000000000e+03 7.679616546630859375e+01 1.942687034606933594e+01 4.844639450311660767e-02 6.699025154113769531e+00 2.024241447448730469e+00 -2.804836034774780273e-01
1.717000000000000000e+03 7.805640411376953125e+01 8.487956047058105469e+00 -1.059011742472648621e-02 8.194683074951171875e+00 2.455227851867675781e+00 -2.687974274158477783e-01
1.718000000000000000e+03 7.679369354248046875e+01 1.134968185424804688e+01 -5.091670900583267212e-03 7.478236198425292969e+00 2.241943359375000000e+00 -4.442513585090637207e-01
1.719000000000000000e+03 7.686177062988281250e+01 -1.425894069671630859e+01 2.442831993103027344e-01 7.557213783264160156e+00 2.340449094772338867e+00 4.009642601013183594e-01
1.720000000000000000e+03 7.677240753173828125e+01 2.523147761821746826e-01 -1.928508281707763672e-01 8.422961235046386719e+00 2.469033241271972656e+00 9.348620474338531494e-02
1.721000000000000000e+03 7.805581665039062500e+01 2.919111728668212891e+00 -5.301184952259063721e-02 8.724791526794433594e+00 2.601534128189086914e+00 -7.269899547100067139e-02
1.722000000000000000e+03 7.679093170166015625e+01 5.845067977905273438e+00 -9.538780152797698975e-02 8.075783729553222656e+00 2.394118547439575195e+00 -3.284307718276977539e-01
1.723000000000000000e+03 7.803675842285156250e+01 -5.493381500244140625e+00 -4.918418452143669128e-02 8.238499641418457031e+00 2.456794738769531250e+00 4.740284979343414307e-01
1.724000000000000000e+03 7.677574157714843750e+01 -3.976409673690795898e+00 -1.517346501350402832e-01 8.354928970336914062e+00 2.460958242416381836e+00 5.021830201148986816e-01
1.725000000000000000e+03 7.679712677001953125e+01 -2.556060552597045898e+00 -1.948704421520233154e-01 8.411993026733398438e+00 2.465136766433715820e+00 3.693570494651794434e-01
1.726000000000000000e+03 7.804804229736328125e+01 -1.268090629577636719e+01 7.747545838356018066e-02 6.915754795074462891e+00 2.097969055175781250e+00 4.585776627063751221e-01
1.727000000000000000e+03 7.667502593994140625e+01 -9.802499771118164062e+00 4.925258830189704895e-02 7.942867279052734375e+00 2.397635936737060547e+00 7.810369729995727539e-01
1.728000000000000000e+03 7.668145751953125000e+01 -1.131650638580322266e+01 1.072051972150802612e-01 7.824509143829345703e+00 2.379514217376708984e+00 7.039381265640258789e-01
1.729000000000000000e+03 7.587150573730468750e+01 -1.723640060424804688e+01 4.001016318798065186e-01 8.359747886657714844e+00 2.627954721450805664e+00 -2.069851756095886230e-02
1.730000000000000000e+03 4.376708602905273438e+01 1.380395507812500000e+01 1.195548892021179199e+00 6.995430946350097656e+00 2.457293987274169922e+00 2.218334436416625977e+00
1.731000000000000000e+03 4.393708038330078125e+01 3.396448898315429688e+01 -8.257644772529602051e-01 3.354698896408081055e+00 7.586803436279296875e-01 3.496086001396179199e-01
1.732000000000000000e+03 4.196128463745117188e+01 3.123678016662597656e+01 -1.999105215072631836e-01 3.258051156997680664e+00 9.174422025680541992e-01 -7.763620465993881226e-02
1.733000000000000000e+03 1.439606857299804688e+01 3.027966499328613281e+01 -4.080813527107238770e-01 5.003239631652832031e+00 1.378547549247741699e+00 -1.145093590021133423e-01
1.734000000000000000e+03 7.106226348876953125e+01 -1.704739761352539062e+01 7.978344559669494629e-01 1.287819480895996094e+01 4.102808475494384766e+00 -7.710808515548706055e-01
1.735000000000000000e+03 4.159989929199218750e+01 9.678889274597167969e+00 1.477012157440185547e+00 9.826625823974609375e+00 3.391091346740722656e+00 3.236474752426147461e+00
1.736000000000000000e+03 1.826243281364440918e+00 2.344232082366943359e+00 7.052748464047908783e-03 -1.461595743894577026e-01 -4.173204675316810608e-02 3.064072430133819580e-01
1.737000000000000000e+03 5.835988044738769531e+00 3.827822494506835938e+01 -4.897388517856597900e-01 4.741397857666015625e+00 1.275497794151306152e+00 -5.070605278015136719e-01
1.738000000000000000e+03 6.291277408599853516e+00 3.351913070678710938e+01 -3.201040029525756836e-01 4.558829307556152344e+00 1.271617650985717773e+00 -1.043124318122863770e+00
1.739000000000000000e+03 2.416496276855468750e+00 3.429220199584960938e+01 -7.477264851331710815e-02 4.650441169738769531e+00 1.372700452804565430e+00 -5.351867079734802246e-01
1.740000000000000000e+03 3.204802751541137695e+00 2.987698554992675781e+01 -2.967770397663116455e-02 3.842795848846435547e+00 1.143935441970825195e+00 -8.741888403892517090e-01
1.741000000000000000e+03 1.863273262977600098e+00 2.446950912475585938e+01 4.113888368010520935e-02 2.268273353576660156e+00 6.928237080574035645e-01 -5.204972028732299805e-01
1.742000000000000000e+03 3.060167074203491211e+00 2.278710937500000000e+01 1.094760894775390625e-01 2.453057527542114258e+00 7.687600851058959961e-01 -6.836590766906738281e-01
1.743000000000000000e+03 1.912447214126586914e+00 2.872814750671386719e+01 -3.463328815996646881e-03 3.361362934112548828e+00 1.007369875907897949e+00 -5.923942923545837402e-01
1.744000000000000000e+03 3.256238698959350586e+00 3.119228363037109375e+01 -6.820674985647201538e-02 4.101285457611083984e+00 1.209923624992370605e+00 -8.440136909484863281e-01
1.745000000000000000e+03 3.481577634811401367e+00 3.248280334472656250e+01 -9.249095618724822998e-02 4.329628467559814453e+00 1.271141171455383301e+00 -8.266773223876953125e-01
1.746000000000000000e+03 5.818448066711425781e+00 2.974477767944335938e+01 -1.139443740248680115e-01 4.278645515441894531e+00 1.249410390853881836e+00 -1.246723651885986328e+00
1.747000000000000000e+03 4.658942222595214844e+00 4.026835632324218750e+01 -2.640385925769805908e-01 5.021350383758544922e+00 1.427193522453308105e+00 -2.884214520454406738e-01
1.748000000000000000e+03 2.804042577743530273e+00 1.591822052001953125e+01 4.394873231649398804e-02 1.457688093185424805e+00 4.504910409450531006e-01 -2.796538770198822021e-01
1.749000000000000000e+03 1.748178839683532715e+00 2.023391532897949219e+01 5.131632834672927856e-02 1.350462555885314941e+00 4.205336570739746094e-01 -3.288613259792327881e-01
1.750000000000000000e+03 1.443387985229492188e+00 7.940434455871582031e+00 2.881391160190105438e-02 -1.616553664207458496e-01 -3.985243663191795349e-02 -1.202790215611457825e-01
1.751000000000000000e+03 2.403706550598144531e+00 1.064068794250488281e+01 -1.226107310503721237e-02 7.287805080413818359e-01 2.149558365345001221e-01 -2.459210455417633057e-01
1.752000000000000000e+03 1.215802788734436035e+00 5.298806190490722656e+00 5.637651681900024414e-02 -4.419830441474914551e-01 -1.156819537281990051e-01 5.802671983838081360e-02
1.753000000000000000e+03 2.792138576507568359e+00 7.214881420135498047e+00 1.074951142072677612e-01 5.633627772331237793e-01 2.012573629617691040e-01 -2.356746941804885864e-01
1.754000000000000000e+03 1.618822216987609863e+00 1.472249412536621094e+01 1.121679320931434631e-02 5.905917286872863770e-01 1.805425435304641724e-01 -1.526779681444168091e-01
1.755000000000000000e+03 2.707290172576904297e+00 1.455835819244384766e+01 1.082959957420825958e-02 1.280867218971252441e+00 3.875090479850769043e-01 -2.488328814506530762e-01
1.756000000000000000e+03 2.360810041427612305e+00 9.396994590759277344e+00 7.146415766328573227e-03 5.543084144592285156e-01 1.684364378452301025e-01 -2.416973263025283813e-01
1.757000000000000000e+03 2.886347770690917969e+00 1.997852897644042969e+01 1.315997093915939331e-01 1.976630806922912598e+00 6.324691772460937500e-01 -4.821870923042297363e-01
1.758000000000000000e+03 2.495061635971069336e+00 1.190806198120117188e+01 -1.900519616901874542e-02 9.144152402877807617e-01 2.686230242252349854e-01 -2.367898523807525635e-01
1.759000000000000000e+03 2.599284648895263672e+00 1.321647548675537109e+01 -2.257928950712084770e-03 1.091697454452514648e+00 3.268318474292755127e-01 -2.355318218469619751e-01
1.760000000000000000e+03 2.848760843276977539e+00 1.863592720031738281e+01 9.310054779052734375e-02 1.766780734062194824e+00 5.579643845558166504e-01 -3.870021998882293701e-01
1.761000000000000000e+03 2.996308088302612305e+00 2.136080360412597656e+01 9.535635262727737427e-02 2.199280500411987305e+00 6.883910894393920898e-01 -5.785862803459167480e-01
1.762000000000000000e+03 2.855885028839111328e+00 1.728548431396484375e+01 4.282514378428459167e-02 1.606540560722351074e+00 4.948097169399261475e-01 -3.311958611011505127e-01
1.763000000000000000e+03 3.752349090576171875e+01 -2.507801628112792969e+01 2.233896255493164062e+00 1.018451690673828125e+01 3.725523948669433594e+00 3.291741311550140381e-01
1.764000000000000000e+03 3.547895431518554688e+01 -2.838473892211914062e+01 6.055995225906372070e-01 8.986742973327636719e+00 2.877702713012695312e+00 1.477078080177307129e+00
1.765000000000000000e+03 1.467708396911621094e+01 1.235761737823486328e+01 -1.568740978837013245e-02 7.573877334594726562e+00 2.267457008361816406e+00 -9.447324872016906738e-01
1.766000000000000000e+03 7.109884643554687500e+01 -2.521803092956542969e+01 1.012527585029602051e+00 1.139171791076660156e+01 3.721273660659790039e+00 -3.774255216121673584e-01
1.767000000000000000e+03 1.205526256561279297e+01 -1.344761466979980469e+01 -1.606750726699829102e+00 9.880313873291015625e-01 -1.856158077716827393e-01 2.288972616195678711e+00
1.768000000000000000e+03 9.729001998901367188e+00 -1.415437602996826172e+01 -1.897751331329345703e+00 3.482119083404541016e+00 4.753103554248809814e-01 3.275994539260864258e+00
1.769000000000000000e+03 4.024757385253906250e+01 -9.325716018676757812e+00 1.025951981544494629e+00 1.400000000000000000e+01 4.507785797119140625e+00 5.804567337036132812e-01
1.770000000000000000e+03 1.508082675933837891e+01 1.107349681854248047e+01 -1.850325167179107666e-01 7.183796405792236328e+00 2.099629163742065430e+00 -8.088374137878417969e-01
1.771000000000000000e+03 3.677193069458007812e+01 -1.339516544342041016e+01 4.691022038459777832e-01 8.748085975646972656e+00 2.765156507492065430e+00 -6.129126548767089844e-01
1.772000000000000000e+03 3.816595840454101562e+01 -1.716739463806152344e+01 -1.088551580905914307e-01 1.077135658264160156e+01 3.198750495910644531e+00 5.284603238105773926e-01
1.773000000000000000e+03 4.250403213500976562e+01 1.599482417106628418e+00 -1.800164580345153809e+00 9.777008056640625000e+00 2.393053054809570312e+00 2.413491010665893555e+00
1.774000000000000000e+03 6.933252716064453125e+01 -1.321186161041259766e+01 1.213136672973632812e+00 1.323407459259033203e+01 4.334163188934326172e+00 -1.552994370460510254e+00
1.775000000000000000e+03 6.982517242431640625e+01 -1.023051643371582031e+01 1.884370446205139160e-01 1.029193687438964844e+01 3.144112110137939453e+00 -8.181138634681701660e-01
1.776000000000000000e+03 2.862620353698730469e+01 -3.491527557373046875e+01 -6.490680575370788574e-01 1.557569742202758789e+00 2.725504934787750244e-01 1.064472913742065430e+00
1.777000000000000000e+03 4.497447967529296875e+00 -2.392550659179687500e+01 1.253452539443969727e+00 1.083841419219970703e+01 3.627559900283813477e+00 1.716606974601745605e+00
1.778000000000000000e+03 5.172947692871093750e+01 1.451103687286376953e+00 -3.716408729553222656e+00 2.804137170314788818e-01 -1.030798435211181641e+00 7.055121660232543945e-01
1.779000000000000000e+03 5.232573699951171875e+01 5.474838256835937500e+00 -3.175967037677764893e-01 6.494715809822082520e-01 9.956246614456176758e-02 2.319750934839248657e-01
1.780000000000000000e+03 2.748809051513671875e+01 -1.479547119140625000e+01 -6.709355115890502930e-01 -1.541295275092124939e-02 -2.059045433998107910e-01 -6.324877738952636719e-01
1.781000000000000000e+03 4.301238250732421875e+01 7.389421463012695312e+00 1.384199500083923340e+00 7.301776409149169922e+00 2.605792760848999023e+00 3.042023420333862305e+00
1.782000000000000000e+03 1.394159030914306641e+01 2.886754035949707031e+01 -1.375538259744644165e-01 5.645320415496826172e+00 1.652329921722412109e+00 -2.341462522745132446e-01
1.783000000000000000e+03 3.683432769775390625e+01 3.700231313705444336e-01 -1.003690719604492188e+00 4.611044883728027344e+00 1.082206368446350098e+00 1.040503263473510742e+00
1.784000000000000000e+03 5.425885772705078125e+01 6.906260848045349121e-01 -3.462577819824218750e+00 9.540236741304397583e-02 -1.010152578353881836e+00 6.806698441505432129e-01
1.785000000000000000e+03 9.425086021423339844e+00 -3.279470443725585938e+01 -1.471839070320129395e+00 6.166796088218688965e-01 -2.565478384494781494e-01 -1.321337521076202393e-01
1.786000000000000000e+03 1.573518753051757812e+01 8.243410110473632812e+00 -4.911635518074035645e-01 6.384613990783691406e+00 1.768035054206848145e+00 -3.418728411197662354e-01
1.787000000000000000e+03 1.570263385772705078e+01 6.958302974700927734e+00 -4.412007033824920654e-01 6.213596343994140625e+00 1.731718778610229492e+00 -1.689308881759643555e-01
1.788000000000000000e+03 1.163640022277832031e+01 -3.451355743408203125e+01 -9.379021525382995605e-01 2.396315038204193115e-01 -2.094811946153640747e-01 4.504138529300689697e-01
1.789000000000000000e+03 4.389052581787109375e+01 1.528409671783447266e+01 1.043451428413391113e+00 6.715281486511230469e+00 2.327619791030883789e+00 1.905367374420166016e+00
1.790000000000000000e+03 4.512732696533203125e+01 1.809583473205566406e+01 8.083436489105224609e-01 5.597676277160644531e+00 1.921805858612060547e+00 1.529983282089233398e+00
1.791000000000000000e+03 3.802809143066406250e+01 -1.211080551147460938e+01 8.886198401451110840e-01 1.002603149414062500e+01 3.274395465850830078e+00 -3.260442316532135010e-01
1.792000000000000000e+03 3.289148712158203125e+01 4.125203704833984375e+01 -1.334294557571411133e+00 -3.337488472461700439e-01 -5.004130601882934570e-01 8.576507121324539185e-02
1.793000000000000000e+03 2.953329277038574219e+01 4.023790359497070312e+01 -1.569669723510742188e+00 -4.738606512546539307e-01 -6.130591034889221191e-01 -3.133469435852020979e-04
1.794000000000000000e+03 1.376060199737548828e+01 1.495106124877929688e+01 3.945370912551879883e-01 8.095310211181640625e+00 2.546954154968261719e+00 -8.935070633888244629e-01
1.795000000000000000e+03 1.407449245452880859e+01 1.812407684326171875e+01 8.180258870124816895e-01 9.289094924926757812e+00 3.032136201858520508e+00 -1.058503508567810059e+00
1.796000000000000000e+03 7.098470306396484375e+01 -1.007172870635986328e+01 1.414383351802825928e-01 9.968075752258300781e+00 3.032854080200195312e+00 -1.840313374996185303e-01
1.797000000000000000e+03 2.220078277587890625e+01 4.143970108032226562e+01 -1.207800984382629395e+00 2.814164161682128906e-01 -2.779153883457183838e-01 -3.751258132979273796e-03
1.798000000000000000e+03 2.172484970092773438e+01 3.773199081420898438e+01 -1.361776828765869141e+00 4.445180892944335938e-01 -2.751776278018951416e-01 -9.676661342382431030e-02
1.799000000000000000e+03 6.533384704589843750e+01 -3.312833404541015625e+01 -8.393291831016540527e-01 2.818747043609619141e+00 5.938253998756408691e-01 1.125435590744018555e+00
1.800000000000000000e+03 2.972959327697753906e+01 -4.998459339141845703e+00 3.030768394470214844e+00 1.110526025295257568e-01 9.425463080406188965e-01 -2.135832309722900391e+00
1.801000000000000000e+03 2.827990913391113281e+01 -3.714240074157714844e+00 3.091532230377197266e+00 2.865348458290100098e-01 1.013420104980468750e+00 -2.178322076797485352e+00
1.802000000000000000e+03 6.758630371093750000e+01 -3.476707077026367188e+01 -8.543404340744018555e-01 5.047888278961181641e+00 1.258064389228820801e+00 7.885022163391113281e-01
1.803000000000000000e+03 6.755696868896484375e+01 -3.037536430358886719e+01 -5.705491304397583008e-01 6.045755386352539062e+00 1.642561912536621094e+00 1.206888794898986816e+00
1.804000000000000000e+03 3.329519271850585938e+01 -2.016271114349365234e+00 3.178845718502998352e-02 -9.083941578865051270e-02 -1.771528646349906921e-02 -4.983126819133758545e-01
1.805000000000000000e+03 5.033719062805175781e+00 -2.098752593994140625e+01 1.651375412940979004e+00 1.157884693145751953e+01 3.969066858291625977e+00 1.877538442611694336e+00
1.806000000000000000e+03 5.202019691467285156e+00 -1.970619964599609375e+01 1.561367511749267578e+00 1.035590648651123047e+01 3.575182199478149414e+00 1.508575916290283203e+00
1.807000000000000000e+03 6.203419685363769531e+00 -1.718540000915527344e+01 4.952082633972167969e-01 8.245746612548828125e+00 2.622286558151245117e+00 1.262913227081298828e+00
1.808000000000000000e+03 3.256230163574218750e+01 -4.867558479309082031e+00 2.648359298706054688e+00 7.619206905364990234e-01 1.023083925247192383e+00 -9.982344508171081543e-01
1.809000000000000000e+03 4.301166152954101562e+01 3.969311952590942383e+00 -1.268789052963256836e+00 7.521003246307373047e+00 1.875664234161376953e+00 2.719239950180053711e+00
1.810000000000000000e+03 4.252544784545898438e+01 6.180582523345947266e+00 6.470545530319213867e-01 7.983984947204589844e+00 2.589311838150024414e+00 2.821630239486694336e+00
1.811000000000000000e+03 1.510142803192138672e+01 3.332549667358398438e+01 -9.357948303222656250e-01 3.863038063049316406e+00 8.781729340553283691e-01 -1.529057174921035767e-01
1.812000000000000000e+03 1.479108905792236328e+01 3.172373771667480469e+01 -6.298007965087890625e-01 4.332221984863281250e+00 1.110726356506347656e+00 -1.128112003207206726e-01
1.813000000000000000e+03 1.273122882843017578e+01 1.792471885681152344e+01 7.932165861129760742e-01 7.821537017822265625e+00 2.584426164627075195e+00 -8.163173198699951172e-01
1.814000000000000000e+03 1.696739578247070312e+01 -1.322969436645507812e+01 -1.659410476684570312e+00 5.994175672531127930e-01 -3.179978430271148682e-01 -1.775912642478942871e-01
1.815000000000000000e+03 1.610605812072753906e+01 -1.407229995727539062e+01 -2.405260562896728516e+00 2.366427481174468994e-01 -6.505853533744812012e-01 5.377871543169021606e-02
1.816000000000000000e+03 3.983442068099975586e+00 -1.969141006469726562e+01 9.590663313865661621e-01 8.215782165527343750e+00 2.752454519271850586e+00 4.532048404216766357e-01
1.817000000000000000e+03 7.069082641601562500e+01 -1.430763149261474609e+01 1.283206820487976074e+00 1.232655906677246094e+01 4.082929611206054688e+00 -6.997683048248291016e-01
1.818000000000000000e+03 3.712015533447265625e+01 4.124002075195312500e+01 -1.185960173606872559e+00 6.486184000968933105e-01 -1.612025201320648193e-01 -1.426516566425561905e-02
1.819000000000000000e+03 4.395589447021484375e+01 1.673590850830078125e+01 8.048053383827209473e-01 6.407581806182861328e+00 2.163716077804565430e+00 1.657185792922973633e+00
1.820000000000000000e+03 4.109872817993164062e+01 1.811014771461486816e+00 -1.795196533203125000e+00 9.914853096008300781e+00 2.435897111892700195e+00 1.385333657264709473e+00
1.821000000000000000e+03 4.732107639312744141e+00 -2.242405509948730469e+01 1.538434743881225586e+00 1.167449760437011719e+01 3.963879823684692383e+00 1.714177012443542480e+00
1.822000000000000000e+03 6.418431854248046875e+01 -1.311360120773315430e+00 -1.491063714027404785e+00 3.566116094589233398e+00 6.225157380104064941e-01 -1.248014688491821289e+00
1.823000000000000000e+03 3.676740646362304688e+01 -2.602245330810546875e+01 1.796116709709167480e+00 1.008367252349853516e+01 3.563936710357666016e+00 1.103303432464599609e-01
1.824000000000000000e+03 4.210939788818359375e+01 -2.414587402343750000e+01 1.021858572959899902e+00 5.550004959106445312e+00 1.971559047698974609e+00 -1.298581361770629883e+00
1.825000000000000000e+03 4.434777832031250000e+01 2.856555747985839844e+01 2.045608907938003540e-01 4.093454837799072266e+00 1.289404749870300293e+00 3.674274384975433350e-01
1.826000000000000000e+03 5.757658767700195312e+01 -4.112989807128906250e+01 5.603008270263671875e-01 3.465702831745147705e-01 2.720613181591033936e-01 -9.587661176919937134e-02
1.827000000000000000e+03 1.323965740203857422e+01 2.592004776000976562e+01 5.172129869461059570e-01 6.819938659667968750e+00 2.201145410537719727e+00 -4.038840234279632568e-01
1.828000000000000000e+03 4.120677566528320312e+01 -2.007715797424316406e+01 3.480488359928131104e-01 8.035789489746093750e+00 2.515151500701904297e+00 -3.536881506443023682e-01
1.829000000000000000e+03 5.287526702880859375e+01 3.869760036468505859e+00 -1.457889556884765625e+00 4.128808379173278809e-01 -3.135026097297668457e-01 9.949155151844024658e-02
1.830000000000000000e+03 3.139011764526367188e+01 -3.249485397338867188e+01 -7.530409097671508789e-01 3.372921943664550781e+00 7.859643101692199707e-01 1.620076179504394531e+00
1.831000000000000000e+03 6.829414367675781250e+01 -3.189646148681640625e+01 -1.062014341354370117e+00 6.659600257873535156e+00 1.679275751113891602e+00 7.482775449752807617e-01
1.832000000000000000e+03 4.980473995208740234e+00 -2.714788818359375000e+01 -5.449950098991394043e-01 9.143985748291015625e+00 2.579697370529174805e+00 1.793968319892883301e+00
1.833000000000000000e+03 3.066879749298095703e+00 -3.047921943664550781e+01 -9.805474281311035156e-01 8.301567077636718750e+00 2.196305751800537109e+00 1.100843310356140137e+00
1.834000000000000000e+03 3.694123840332031250e+01 -2.942828750610351562e+01 -1.934686005115509033e-01 7.910051345825195312e+00 2.314974784851074219e+00 -1.834183782339096069e-01
1.835000000000000000e+03 5.736977005004882812e+01 1.268755197525024414e+00 -2.419312477111816406e+00 1.416973024606704712e-01 -6.832845807075500488e-01 -2.573244646191596985e-02
1.836000000000000000e+03 5.604449081420898438e+01 1.599438667297363281e+00 -2.494322061538696289e+00 1.559592485427856445e-01 -7.015088200569152832e-01 1.790571063756942749e-01
1.837000000000000000e+03 3.994420242309570312e+01 -2.256206035614013672e+00 7.826051712036132812e-01 9.962760925292968750e+00 3.223609685897827148e+00 1.853075861930847168e+00
1.838000000000000000e+03 3.427373504638671875e+01 -2.804700374603271484e+00 1.138605237007141113e+00 1.235740184783935547e+00 7.123036384582519531e-01 5.338708311319351196e-02
1.839000000000000000e+03 6.558985900878906250e+01 -3.587142181396484375e+01 -5.165150165557861328e-01 3.254127979278564453e+00 8.212838768959045410e-01 8.516967892646789551e-01
1.840000000000000000e+03 7.612213134765625000e+01 -2.120026969909667969e+01 3.044820725917816162e-01 8.348328590393066406e+00 2.595843315124511719e+00 -5.459163188934326172e-01
1.841000000000000000e+03 5.595212936401367188e+01 -3.405247497558593750e+01 -8.976270556449890137e-01 2.233810573816299438e-01 -2.022738009691238403e-01 -4.692820012569427490e-01
1.842000000000000000e+03 3.376256179809570312e+01 -1.574071407318115234e+01 -5.729923844337463379e-01 4.908103466033935547e+00 1.300533294677734375e+00 -1.887989878654479980e+00
1.843000000000000000e+03 3.514068222045898438e+01 -1.722425842285156250e+01 -1.400558352470397949e+00 8.090277671813964844e+00 2.006915807723999023e+00 -1.100349426269531250e+00
1.844000000000000000e+03 3.052217292785644531e+01 -3.477043914794921875e+01 -9.008157253265380859e-01 2.730397701263427734e+00 5.488746166229248047e-01 1.276147127151489258e+00
1.845000000000000000e+03 4.688563537597656250e+01 3.095368146896362305e+00 -1.365342855453491211e+00 5.406260490417480469e-01 -2.474150359630584717e-01 2.284726142883300781e+00
1.846000000000000000e+03 3.250187683105468750e+01 -3.207596969604492188e+01 -5.059608221054077148e-01 4.096447467803955078e+00 1.077146053314208984e+00 1.476206421852111816e+00
1.847000000000000000e+03 4.065698623657226562e+01 5.250504612922668457e-01 -1.006298780441284180e+00 1.005363178253173828e+01 2.714200019836425781e+00 1.288982629776000977e+00
1.848000000000000000e+03 7.189916992187500000e+01 -2.652845764160156250e+01 7.587042450904846191e-01 1.045677471160888672e+01 3.364643573760986328e+00 -7.232659459114074707e-01
1.849000000000000000e+03 3.118728256225585938e+01 -1.516610527038574219e+01 1.128624156117439270e-01 8.556938171386718750e-01 2.905668914318084717e-01 -1.337378978729248047e+00
1.850000000000000000e+03 3.261593627929687500e+01 -1.696863365173339844e+01 -1.093355298042297363e+00 1.832728743553161621e+00 2.218120098114013672e-01 -2.247776985168457031e+00
1.851000000000000000e+03 4.392345809936523438e+01 3.014298057556152344e+01 1.114427391439676285e-02 3.808865070343017578e+00 1.146002769470214844e+00 3.797099888324737549e-01
1.852000000000000000e+03 2.388971710205078125e+01 -4.508261680603027344e+00 3.264261245727539062e+00 1.143133282661437988e+00 1.322218298912048340e+00 -1.554245352745056152e+00
1.853000000000000000e+03 6.286643218994140625e+01 -6.058987379074096680e-01 -1.666842699050903320e+00 2.344048261642456055e+00 2.031617015600204468e-01 -1.146990180015563965e+00
1.854000000000000000e+03 7.169023895263671875e+01 -2.873897933959960938e+01 -2.332844734191894531e-01 9.680247306823730469e+00 2.834088802337646484e+00 -8.172208070755004883e-01
1.855000000000000000e+03 4.185290908813476562e+01 3.598288726806640625e+01 -1.145665287971496582e+00 2.432403564453125000e+00 3.860214650630950928e-01 4.674858972430229187e-02
1.856000000000000000e+03 4.224522018432617188e+01 3.432342147827148438e+01 -9.267779588699340820e-01 2.726561069488525391e+00 5.399348735809326172e-01 1.109503805637359619e-01
1.857000000000000000e+03 3.623000717163085938e+01 -1.867457389831542969e+01 -1.373678445816040039e-01 1.152340507507324219e+01 3.415811300277709961e+00 3.246957659721374512e-01
1.858000000000000000e+03 6.480696105957031250e+01 -3.591375052928924561e-02 -1.456992149353027344e+00 4.097329616546630859e+00 7.921012043952941895e-01 -1.321078300476074219e+00
1.859000000000000000e+03 6.998226165771484375e+00 -1.598368644714355469e+01 -1.033789277076721191e+00 7.130627155303955078e+00 1.829051375389099121e+00 1.896490216255187988e+00
1.860000000000000000e+03 3.168099403381347656e+01 -1.384645652770996094e+01 7.877768278121948242e-01 1.963868498802185059e+00 8.254936337471008301e-01 -1.575014710426330566e+00
1.861000000000000000e+03 2.927851104736328125e+01 -1.521808815002441406e+01 -4.499984681606292725e-01 1.547023802995681763e-01 -8.858882635831832886e-02 -6.326674818992614746e-01
1.862000000000000000e+03 3.878594970703125000e+01 -1.922859954833984375e+01 4.217834174633026123e-01 1.023084735870361328e+01 3.195789337158203125e+00 8.632385730743408203e-01
1.863000000000000000e+03 3.640150451660156250e+01 -1.989647483825683594e+01 8.364059925079345703e-01 1.156812095642089844e+01 3.721358299255371094e+00 5.456640720367431641e-01
1.864000000000000000e+03 3.870122909545898438e+01 -2.602144432067871094e+01 1.260112404823303223e+00 8.420331954956054688e+00 2.904133319854736328e+00 -8.358452916145324707e-01
1.865000000000000000e+03 4.165687942504882812e+01 4.570253372192382812e+00 -5.813718438148498535e-01 9.064500808715820312e+00 2.544938564300537109e+00 2.399356365203857422e+00
1.866000000000000000e+03 6.779065704345703125e+01 -3.301012516021728516e+00 -8.208306431770324707e-01 6.437445163726806641e+00 1.684984326362609863e+00 -6.839610338211059570e-01
1.867000000000000000e+03 1.315249824523925781e+01 -1.386085128784179688e+01 -1.952801942825317383e+00 2.356763631105422974e-01 -5.151376724243164062e-01 1.428134918212890625e+00
1.868000000000000000e+03 1.834203910827636719e+01 3.578321075439453125e+01 -1.164656043052673340e+00 1.806942582130432129e+00 1.926859617233276367e-01 1.040878072381019592e-01
1.869000000000000000e+03 1.550598239898681641e+01 3.517111587524414062e+01 -1.107445120811462402e+00 3.476527214050292969e+00 7.107246518135070801e-01 -1.359990239143371582e-01
1.870000000000000000e+03 1.262337779998779297e+01 2.132600021362304688e+01 6.474473476409912109e-01 7.818158149719238281e+00 2.539681673049926758e+00 -7.052232623100280762e-01
1.871000000000000000e+03 7.165380477905273438e+00 -1.690544700622558594e+01 3.514878451824188232e-02 8.195429801940917969e+00 2.469173431396484375e+00 2.002747535705566406e+00
1.872000000000000000e+03 5.961507797241210938e+00 -1.606384086608886719e+01 -9.674431681632995605e-01 7.541601181030273438e+00 1.972247481346130371e+00 1.207359910011291504e+00
1.873000000000000000e+03 6.763254642486572266e+00 -3.220169448852539062e+01 -1.643808603286743164e+00 4.345871448516845703e+00 8.106188774108886719e-01 -3.189461827278137207e-01
1.874000000000000000e+03 8.155241966247558594e+00 -3.361786651611328125e+01 -1.095896959304809570e+00 2.432502985000610352e+00 4.009817838668823242e-01 -4.851252138614654541e-01
1.875000000000000000e+03 2.669724655151367188e+01 -3.759103536605834961e+00 3.267030239105224609e+00 1.269028425216674805e+00 1.360817551612854004e+00 -2.165696859359741211e+00
1.876000000000000000e+03 6.541732788085937500e+01 -2.089408636093139648e+00 -1.249995708465576172e+00 4.767160415649414062e+00 1.055149435997009277e+00 -1.088930010795593262e+00
1.877000000000000000e+03 4.819332504272460938e+01 3.803333282470703125e+00 -1.112375259399414062e+00 1.305133402347564697e-01 -2.945585548877716064e-01 1.164801001548767090e+00
1.878000000000000000e+03 8.113112449645996094e+00 -1.634795546531677246e+00 4.069401741027832031e+00 1.992074847221374512e+00 1.818442940711975098e+00 3.140972375869750977e+00
1.879000000000000000e+03 8.620733261108398438e+00 -2.253005981445312500e+00 3.399001121520996094e+00 4.460586071014404297e+00 2.357876062393188477e+00 4.195266723632812500e+00
1.880000000000000000e+03 8.552610397338867188e+00 -1.779989242553710938e+00 4.220783233642578125e+00 3.557902097702026367e+00 2.333605527877807617e+00 4.113439559936523438e+00
1.881000000000000000e+03 4.361778259277343750e+00 2.923234701156616211e+00 3.655861914157867432e-01 3.014306426048278809e-01 2.001050561666488647e-01 4.056177288293838501e-02
1.882000000000000000e+03 5.987344741821289062e+00 1.985053062438964844e+00 5.225147008895874023e-01 3.778201937675476074e-01 2.701004743576049805e-01 -2.607446312904357910e-01
1.883000000000000000e+03 7.518946170806884766e+00 -2.323660850524902344e+00 3.020171880722045898e+00 1.968665838241577148e+00 1.496651411056518555e+00 2.875838994979858398e+00
1.884000000000000000e+03 7.203035831451416016e+00 1.986671090126037598e+00 1.212620139122009277e+00 1.010514259338378906e+00 6.669403314590454102e-01 -1.111183524131774902e+00
1.885000000000000000e+03 7.399128437042236328e+00 1.930539131164550781e+00 1.369625926017761230e+00 1.115861773490905762e+00 7.456462979316711426e-01 -1.275182962417602539e+00
1.886000000000000000e+03 7.098899841308593750e+00 -2.222838640213012695e+00 2.748000860214233398e+00 1.342108249664306641e+00 1.227032780647277832e+00 2.330804347991943359e+00
1.887000000000000000e+03 7.904180526733398438e+00 2.048773288726806641e+00 1.706127405166625977e+00 1.984545946121215820e+00 1.107202053070068359e+00 -2.006016969680786133e+00
1.888000000000000000e+03 6.481930732727050781e+00 -1.896016120910644531e+00 2.194226741790771484e+00 6.504945158958435059e-01 8.534163832664489746e-01 1.500425100326538086e+00
1.889000000000000000e+03 6.111822128295898438e+00 -1.994910001754760742e+00 1.923743724822998047e+00 5.977435708045959473e-01 7.564461827278137207e-01 1.346270799636840820e+00
1.890000000000000000e+03 8.452715873718261719e+00 1.907818913459777832e+00 2.071576118469238281e+00 3.106142520904541016e+00 1.553315639495849609e+00 -2.801029443740844727e+00
1.891000000000000000e+03 5.885256290435791016e+00 -2.041030168533325195e+00 1.775404691696166992e+00 5.813397765159606934e-01 7.070233225822448730e-01 1.268469214439392090e+00
1.892000000000000000e+03 5.383249282836914062e+00 -2.244512319564819336e+00 1.485813140869140625e+00 5.712073445320129395e-01 6.171061396598815918e-01 1.136606812477111816e+00
1.893000000000000000e+03 8.753060340881347656e+00 2.031119823455810547e+00 1.926729440689086914e+00 4.352009773254394531e+00 1.883621811866760254e+00 -3.298090696334838867e+00
1.894000000000000000e+03 9.132321357727050781e+00 2.139380455017089844e+00 1.582608819007873535e+00 6.037779331207275391e+00 2.286116600036621094e+00 -3.562646389007568359e+00
1.895000000000000000e+03 9.693649291992187500e+00 2.048110008239746094e+00 1.044566035270690918e+00 8.859685897827148438e+00 2.971275568008422852e+00 -3.568493127822875977e+00
1.896000000000000000e+03 4.427906036376953125e+00 -2.103484392166137695e+00 9.232292771339416504e-01 3.434701859951019287e-01 3.800098299980163574e-01 6.371067166328430176e-01
1.897000000000000000e+03 4.615752696990966797e+00 -2.284642696380615234e+00 1.056864619255065918e+00 4.476639032363891602e-01 4.513585567474365234e-01 7.991976737976074219e-01
1.898000000000000000e+03 3.977305889129638672e+00 -2.066066980361938477e+00 7.403132319450378418e-01 2.991528213024139404e-01 3.118398189544677734e-01 4.836953282356262207e-01
1.899000000000000000e+03 4.163269996643066406e+00 -2.302905082702636719e+00 8.651654720306396484e-01 4.097059071063995361e-01 3.824613988399505615e-01 6.455134153366088867e-01
1.900000000000000000e+03 4.811525821685791016e+00 -2.480432271957397461e+00 1.210866451263427734e+00 5.603768825531005859e-01 5.313730239868164062e-01 9.838800430297851562e-01
1.901000000000000000e+03 3.402045249938964844e+00 -2.075246334075927734e+00 5.322149991989135742e-01 2.646489143371582031e-01 2.390591800212860107e-01 3.289667963981628418e-01
1.902000000000000000e+03 3.707500934600830078e+00 -2.515315532684326172e+00 7.215026021003723145e-01 4.382326602935791016e-01 3.479205965995788574e-01 5.823097229003906250e-01
1.903000000000000000e+03 4.507165908813476562e+00 2.519462347030639648e+00 3.155123293399810791e-01 2.488188445568084717e-01 1.692993491888046265e-01 8.873936533927917480e-02
1.904000000000000000e+03 4.125710010528564453e+00 2.296993732452392578e+00 1.630086302757263184e-01 1.400960981845855713e-01 9.093142300844192505e-02 2.061195075511932373e-01
1.905000000000000000e+03 1.159390735626220703e+01 1.025297641754150391e+00 5.204936027526855469e+00 1.164998149871826172e+01 5.056475162506103516e+00 2.218598604202270508e+00
1.906000000000000000e+03 1.003106021881103516e+01 -2.061933040618896484e+00 2.515432119369506836e+00 1.051185798645019531e+01 3.908186912536621094e+00 3.460533142089843750e+00
1.907000000000000000e+03 1.105972862243652344e+01 -2.000527143478393555e+00 2.988883256912231445e+00 1.137724876403808594e+01 4.309839725494384766e+00 2.352073043584823608e-01
1.908000000000000000e+03 1.179202365875244141e+01 -9.478489160537719727e-01 7.067806720733642578e+00 1.016622066497802734e+01 5.170207977294921875e+00 -1.429554224014282227e+00
1.909000000000000000e+03 1.124088668823242188e+01 -1.862795233726501465e+00 3.533840179443359375e+00 1.127048969268798828e+01 4.441298961639404297e+00 -3.287205696105957031e-01
1.910000000000000000e+03 1.090253639221191406e+01 2.189582347869873047e+00 8.754450678825378418e-01 1.169456481933593750e+01 3.771003007888793945e+00 -3.914663791656494141e-01
1.911000000000000000e+03 9.801483154296875000e+00 2.304965734481811523e+00 7.452921271324157715e-01 9.045209884643554688e+00 2.937150478363037109e+00 -3.052675247192382812e+00
1.912000000000000000e+03 1.376929283142089844e+00 -1.980100154876708984e+00 1.115164682269096375e-01 6.266458332538604736e-02 5.225431546568870544e-02 -3.072103857994079590e-02
1.913000000000000000e+03 2.400965213775634766e+00 -2.799932241439819336e+00 3.398725688457489014e-01 3.305172324180603027e-01 2.011169493198394775e-01 2.798487842082977295e-01
1.914000000000000000e+03 1.813987374305725098e+00 2.005283594131469727e+00 -4.680823162198066711e-02 -1.254015117883682251e-01 -5.166292563080787659e-02 3.037498593330383301e-01
1.915000000000000000e+03 2.079169273376464844e+00 1.911278963088989258e+00 -6.494142115116119385e-02 -1.001655384898185730e-01 -4.953208565711975098e-02 3.188742995262145996e-01
1.916000000000000000e+03 3.095021247863769531e+00 1.950623869895935059e+00 -6.669421494007110596e-02 -1.455934811383485794e-02 -2.437606826424598694e-02 3.378609418869018555e-01
1.917000000000000000e+03 2.161280393600463867e+00 2.260832071304321289e+00 -1.029698736965656281e-02 -1.139674559235572815e-01 -3.727933391928672791e-02 3.226286768913269043e-01
1.918000000000000000e+03 1.698538899421691895e+00 -4.139942169189453125e+00 2.098591774702072144e-01 5.461484789848327637e-01 2.268022894859313965e-01 4.240855872631072998e-01
1.919000000000000000e+03 2.038297653198242188e+01 -1.538173580169677734e+01 -2.355233669281005859e+00 5.935552716255187988e-01 -5.285035371780395508e-01 -1.218691319227218628e-01
1.920000000000000000e+03 2.486054039001464844e+01 -1.628711509704589844e+01 -2.003813505172729492e+00 2.289216667413711548e-01 -5.324675440788269043e-01 -2.411148101091384888e-01
1.921000000000000000e+03 2.272873306274414062e+01 -1.574051094055175781e+01 -2.086567163467407227e+00 4.025289118289947510e-01 -5.052114725112915039e-01 -1.082436889410018921e-01
1.922000000000000000e+03 3.927124023437500000e+01 -6.467287063598632812e+00 1.775809645652770996e+00 1.104714107513427734e+01 3.846885442733764648e+00 1.469372391700744629e+00
1.923000000000000000e+03 3.916048049926757812e+01 -7.884912490844726562e+00 1.905623555183410645e+00 1.120511436462402344e+01 3.933221340179443359e+00 8.992162346839904785e-01
1.924000000000000000e+03 1.994436073303222656e+01 -1.632786941528320312e+01 -2.720158338546752930e+00 4.457994103431701660e-01 -6.823076605796813965e-01 1.913206130266189575e-01
1.925000000000000000e+03 2.241600275039672852e+00 2.762438774108886719e+00 7.293812185525894165e-02 -1.144301295280456543e-01 -1.244760211557149887e-02 3.040197193622589111e-01
1.926000000000000000e+03 2.500492286682128906e+01 -1.485086727142333984e+01 -1.005970239639282227e+00 1.781729459762573242e-01 -2.483391761779785156e-01 -3.242866992950439453e-01
1.927000000000000000e+03 2.359197998046875000e+01 -1.564146327972412109e+01 -1.849076151847839355e+00 3.675160706043243408e-01 -4.444680213928222656e-01 -2.549742460250854492e-01
1.928000000000000000e+03 5.918869400024414062e+01 2.095663070678710938e+00 -1.579852581024169922e+00 7.877737283706665039e-01 -2.376236468553543091e-01 -6.668202280998229980e-01
1.929000000000000000e+03 1.775481986999511719e+01 -1.390652561187744141e+01 -1.999789953231811523e+00 5.676763057708740234e-01 -4.296340942382812500e-01 -2.386422157287597656e-01
1.930000000000000000e+03 3.628863906860351562e+01 -1.469662284851074219e+01 -1.773059666156768799e-01 8.406870841979980469e+00 2.468869447708129883e+00 -7.641931772232055664e-01
1.931000000000000000e+03 2.665045738220214844e+01 -1.536326789855957031e+01 -9.966336488723754883e-01 7.167639210820198059e-03 -2.968398034572601318e-01 -2.660308182239532471e-01
1.932000000000000000e+03 3.912564849853515625e+01 -1.071060943603515625e+01 1.036528468132019043e+00 1.170681285858154297e+01 3.823002338409423828e+00 6.578535586595535278e-02
1.933000000000000000e+03 3.798598098754882812e+01 -1.357217979431152344e+01 3.709712624549865723e-01 9.983469963073730469e+00 3.106332302093505859e+00 -3.459767997264862061e-01
1.934000000000000000e+03 4.739445495605468750e+01 -2.892755126953125000e+01 2.489503920078277588e-01 1.896163582801818848e+00 6.435341835021972656e-01 -1.029903650283813477e+00
1.935000000000000000e+03 2.661308860778808594e+01 -1.375090312957763672e+01 -9.279095381498336792e-02 1.759362667798995972e-01 2.494359575212001801e-02 -6.101638674736022949e-01
1.936000000000000000e+03 4.954904937744140625e+01 -3.550878524780273438e+01 -4.253090620040893555e-01 1.907680273056030273e+00 4.447113573551177979e-01 -7.232521176338195801e-01
1.937000000000000000e+03 5.103847503662109375e+01 -3.406040191650390625e+01 -3.139688968658447266e-01 1.356143355369567871e+00 3.126523196697235107e-01 -6.845359206199645996e-01
1.938000000000000000e+03 1.528194427490234375e+01 -1.492909622192382812e+01 -3.452796936035156250e+00 -1.924413293600082397e-01 -1.093571424484252930e+00 3.953529000282287598e-01
1.939000000000000000e+03 1.070425510406494141e+01 -1.299227428436279297e+01 -1.464057922363281250e+00 2.753426790237426758e+00 3.868106305599212646e-01 2.916082620620727539e+00
1.940000000000000000e+03 5.476010513305664062e+01 1.919647932052612305e+00 -2.634988069534301758e+00 2.209495753049850464e-01 -7.242115139961242676e-01 3.084075152873992920e-01
1.941000000000000000e+03 6.585743904113769531e+00 1.647201728820800781e+01 2.398531734943389893e-01 3.805093288421630859e+00 1.213483929634094238e+00 -5.147483348846435547e-01
1.942000000000000000e+03 2.967063903808593750e+00 -2.856891250610351562e+01 -6.445939540863037109e-01 8.170524597167968750e+00 2.257779121398925781e+00 1.952705264091491699e+00
1.943000000000000000e+03 3.496628761291503906e+00 -2.944620895385742188e+01 -9.540224671363830566e-01 8.259926795959472656e+00 2.191771507263183594e+00 1.620148062705993652e+00
1.944000000000000000e+03 3.831815242767333984e+00 -2.519591903686523438e+01 7.089812755584716797e-01 9.162418365478515625e+00 2.961419820785522461e+00 2.175507068634033203e+00
1.945000000000000000e+03 2.778416156768798828e+00 -2.095479965209960938e+01 8.078176379203796387e-01 6.176943778991699219e+00 2.095428466796875000e+00 4.710782468318939209e-01
1.946000000000000000e+03 3.071098804473876953e+00 -1.697418975830078125e+01 -5.209106206893920898e-02 5.711142539978027344e+00 1.697715401649475098e+00 -3.954582810401916504e-01
1.947000000000000000e+03 4.048834800720214844e+00 -1.844744682312011719e+01 6.266435980796813965e-01 7.467409133911132812e+00 2.428215742111206055e+00 1.741831451654434204e-01
1.948000000000000000e+03 5.177131652832031250e+00 -1.735101127624511719e+01 4.391043484210968018e-01 8.366282463073730469e+00 2.641616106033325195e+00 7.988801598548889160e-01
1.949000000000000000e+03 4.026738643646240234e+00 -3.670149612426757812e+01 -2.167672216892242432e-01 7.363231182098388672e+00 2.143939018249511719e+00 -4.679780304431915283e-01
1.950000000000000000e+03 5.119917869567871094e+00 -3.396340179443359375e+01 -8.316074013710021973e-01 5.901853561401367188e+00 1.521073818206787109e+00 -2.859179675579071045e-01
1.951000000000000000e+03 3.194350957870483398e+00 -3.183114433288574219e+01 -7.514913678169250488e-01 8.107369422912597656e+00 2.206763505935668945e+00 4.825921952724456787e-01
1.952000000000000000e+03 2.618040800094604492e+00 -1.148426151275634766e+01 -3.764084577560424805e-01 3.754168272018432617e+00 1.013327956199645996e+00 7.867016792297363281e-01
1.953000000000000000e+03 2.407573938369750977e+00 -8.301303863525390625e+00 -4.499254748225212097e-02 2.483520984649658203e+00 7.315585613250732422e-01 1.165953040122985840e+00
1.954000000000000000e+03 4.157721996307373047e+00 -1.377816867828369141e+01 -9.889797568321228027e-01 5.354257106781005859e+00 1.309583187103271484e+00 7.220767736434936523e-01
1.955000000000000000e+03 2.566951513290405273e+00 -3.390722656250000000e+01 -3.894942104816436768e-01 8.533073425292968750e+00 2.443073749542236328e+00 -8.039686083793640137e-02
1.956000000000000000e+03 5.762842178344726562e+00 -3.228276443481445312e+01 -1.443068742752075195e+00 5.605978012084960938e+00 1.248872876167297363e+00 -9.304209798574447632e-02
1.957000000000000000e+03 4.098206043243408203e+00 -3.019704055786132812e+01 -1.563762545585632324e+00 7.714640617370605469e+00 1.845263481140136719e+00 1.003647089004516602e+00
1.958000000000000000e+03 2.731569290161132812e+00 -1.277567672729492188e+01 -5.367494821548461914e-01 4.275515556335449219e+00 1.121629714965820312e+00 4.976252615451812744e-01
1.959000000000000000e+03 3.583610057830810547e+00 -1.141494655609130859e+01 -6.007156968116760254e-01 4.074368476867675781e+00 1.042095899581909180e+00 1.164729356765747070e+00
1.960000000000000000e+03 3.765675306320190430e+00 -1.255499649047851562e+01 -7.865252494812011719e-01 4.590966701507568359e+00 1.141332387924194336e+00 9.311664700508117676e-01
1.961000000000000000e+03 2.062320470809936523e+00 -7.216922283172607422e+00 6.838225573301315308e-02 1.885850191116333008e+00 5.862697362899780273e-01 9.973868727684020996e-01
1.962000000000000000e+03 5.492987155914306641e+00 -3.541302108764648438e+01 -4.000603556632995605e-01 5.288944244384765625e+00 1.466665267944335938e+00 -3.115832507610321045e-01
1.963000000000000000e+03 3.855756378173828125e+01 -2.237898111343383789e+00 4.433887302875518799e-01 8.002865791320800781e+00 2.533876180648803711e+00 1.426247835159301758e+00
1.964000000000000000e+03 4.654513931274414062e+01 -2.807645988464355469e+01 4.017573297023773193e-01 2.247115850448608398e+00 7.946619391441345215e-01 -1.245346903800964355e+00
1.965000000000000000e+03 7.187666320800781250e+01 -2.340796279907226562e+01 7.853771448135375977e-01 1.153772068023681641e+01 3.696929216384887695e+00 -2.844703495502471924e-01
1.966000000000000000e+03 4.543738937377929688e+01 2.107410621643066406e+01 4.958334267139434814e-01 5.152008056640625000e+00 1.694352388381958008e+00 1.042973279953002930e+00
1.967000000000000000e+03 4.583196258544921875e+01 2.520312500000000000e+01 3.741743266582489014e-01 4.527866363525390625e+00 1.470612168312072754e+00 6.403900980949401855e-01
1.968000000000000000e+03 1.519968795776367188e+01 1.969376182556152344e+01 2.755197584629058838e-01 1.106165504455566406e+01 3.401152610778808594e+00 -6.910982131958007812e-01
1.969000000000000000e+03 4.025445175170898438e+01 -8.383689522743225098e-01 -1.775355041027069092e-01 1.010671138763427734e+01 2.978752613067626953e+00 1.445587038993835449e+00
1.970000000000000000e+03 4.447193145751953125e+01 -2.603549385070800781e+01 7.459306120872497559e-01 3.283132314682006836e+00 1.208718895912170410e+00 -1.488890051841735840e+00
1.971000000000000000e+03 1.944071197509765625e+01 2.082891315221786499e-01 3.163176536560058594e+00 1.716648101806640625e+00 1.463947296142578125e+00 -1.549040317535400391e+00
1.972000000000000000e+03 2.214370727539062500e+01 -2.477583646774291992e+00 3.773970842361450195e+00 9.856057167053222656e-01 1.427873015403747559e+00 -1.580066442489624023e+00
1.973000000000000000e+03 7.129534912109375000e+01 -1.969899559020996094e+01 3.345602452754974365e-01 1.278989410400390625e+01 3.937336206436157227e+00 -3.555508553981781006e-01
1.974000000000000000e+03 7.367646026611328125e+01 -1.905148506164550781e+01 5.522212386131286621e-01 1.031322288513183594e+01 3.259633302688598633e+00 -4.263013303279876709e-01
1.975000000000000000e+03 7.142565155029296875e+01 -2.098760032653808594e+01 5.127303004264831543e-01 1.248241996765136719e+01 3.898545265197753906e+00 -5.447077751159667969e-02
1.976000000000000000e+03 7.279050445556640625e+01 -2.182671356201171875e+01 5.870282649993896484e-01 1.105308914184570312e+01 3.492035150527954102e+00 -3.615736365318298340e-01
1.977000000000000000e+03 1.023343682289123535e+00 -5.074255466461181641e+00 6.945009529590606689e-02 5.806140303611755371e-01 1.950192302465438843e-01 3.650461137294769287e-01
1.978000000000000000e+03 4.336371231079101562e+01 -2.495015716552734375e+01 9.599779248237609863e-01 4.146700859069824219e+00 1.532003641128540039e+00 -1.482442259788513184e+00
1.979000000000000000e+03 7.559181213378906250e+01 1.411535835266113281e+01 6.015509366989135742e-02 6.889399051666259766e+00 2.084866285324096680e+00 -5.325264930725097656e-01
1.980000000000000000e+03 7.547975921630859375e+01 4.052444100379943848e-01 -3.087194859981536865e-01 8.117093086242675781e+00 2.342512130737304688e+00 2.319107390940189362e-02
1.981000000000000000e+03 7.564524841308593750e+01 -1.445917129516601562e+01 4.253165721893310547e-01 8.381057739257812500e+00 2.641912221908569336e+00 4.051527082920074463e-01
1.982000000000000000e+03 7.345431518554687500e+01 -1.044685840606689453e+01 1.725996583700180054e-01 9.169228553771972656e+00 2.802548408508300781e+00 6.531415581703186035e-01
1.983000000000000000e+03 7.324626159667968750e+01 -1.502165985107421875e+01 8.682171702384948730e-01 1.014771842956542969e+01 3.304780721664428711e+00 3.738231211900711060e-02
1.984000000000000000e+03 7.276779174804687500e+01 -9.516013145446777344e+00 3.813515603542327881e-02 9.229702949523925781e+00 2.780351638793945312e+00 4.803334176540374756e-01
1.985000000000000000e+03 7.710249328613281250e+01 -1.840917015075683594e+01 2.064399421215057373e-01 7.422995567321777344e+00 2.288830518722534180e+00 -1.230414286255836487e-01
1.986000000000000000e+03 7.354775238037109375e+01 -1.774345207214355469e+01 6.709175109863281250e-01 1.035634708404541016e+01 3.308179616928100586e+00 -2.850867807865142822e-01
1.987000000000000000e+03 7.703054809570312500e+01 -1.704638481140136719e+01 2.469043582677841187e-01 7.412986755371093750e+00 2.297967433929443359e+00 1.749272458255290985e-02
1.988000000000000000e+03 7.576386260986328125e+01 -1.586707782745361328e+01 4.351772964000701904e-01 8.351611137390136719e+00 2.636036396026611328e+00 1.448200047016143799e-01
1.989000000000000000e+03 7.674279785156250000e+01 -5.405263900756835938e+00 -1.477067470550537109e-01 8.267528533935546875e+00 2.435946702957153320e+00 6.110841035842895508e-01
1.990000000000000000e+03 7.542082214355468750e+01 -6.758171558380126953e+00 -1.882751286029815674e-01 8.332475662231445312e+00 2.443260192871093750e+00 7.348113656044006348e-01
1.991000000000000000e+03 7.556396484375000000e+01 -2.415761232376098633e+00 -2.916048169136047363e-01 8.246005058288574219e+00 2.386319875717163086e+00 3.507270216941833496e-01
1.992000000000000000e+03 7.551879119873046875e+01 -3.834046125411987305e+00 -2.994057238101959229e-01 8.294781684875488281e+00 2.398612976074218750e+00 4.959572255611419678e-01
1.993000000000000000e+03 7.677381896972656250e+01 3.047255516052246094e+00 -1.565940976142883301e-01 8.307311058044433594e+00 2.445214986801147461e+00 -1.486350297927856445e-01
1.994000000000000000e+03 7.551118469238281250e+01 3.223596811294555664e+00 -2.500338554382324219e-01 7.922176837921142578e+00 2.301642894744873047e+00 -2.687334120273590088e-01
1.995000000000000000e+03 7.552148437500000000e+01 7.362255573272705078e+00 -9.916073083877563477e-02 7.533702373504638672e+00 2.230362415313720703e+00 -5.162462592124938965e-01
1.996000000000000000e+03 7.555483245849609375e+01 4.630050659179687500e+00 -2.024236023426055908e-01 7.807187080383300781e+00 2.281429052352905273e+00 -3.713119626045227051e-01
1.997000000000000000e+03 7.545919036865234375e+01 1.810137271881103516e+00 -2.965804040431976318e-01 8.029850006103515625e+00 2.319980859756469727e+00 -1.227211654186248779e-01
1.998000000000000000e+03 7.555193328857421875e+01 6.005054950714111328e+00 -1.416711807250976562e-01 7.681774616241455078e+00 2.262031078338623047e+00 -4.634197652339935303e-01
1.999000000000000000e+03 7.427965545654296875e+01 3.473081827163696289e+00 -3.493910729885101318e-01 7.556755542755126953e+00 2.162209272384643555e+00 -3.986778855323791504e-01
2.000000000000000000e+03 7.677631378173828125e+01 9.980117797851562500e+00 -1.304209511727094650e-02 7.633138179779052734e+00 2.286028861999511719e+00 -4.408962130546569824e-01
2.001000000000000000e+03 7.550487518310546875e+01 8.732786178588867188e+00 -5.502786859869956970e-02 7.400761604309082031e+00 2.203720092773437500e+00 -5.581311583518981934e-01
2.002000000000000000e+03 7.687390899658203125e+01 -2.903828239440917969e+01 -8.587998896837234497e-02 8.912730216979980469e+00 2.648055076599121094e+00 -1.084503412246704102e+00
2.003000000000000000e+03 7.299694824218750000e+01 -2.295001411437988281e+01 7.235750555992126465e-01 1.048638439178466797e+01 3.362987756729125977e+00 -5.006199479103088379e-01
2.004000000000000000e+03 7.556369781494140625e+01 1.675002098083496094e+01 8.633054047822952271e-02 6.666957855224609375e+00 2.025986433029174805e+00 -4.569971561431884766e-01
2.005000000000000000e+03 7.554420471191406250e+01 1.147160434722900391e+01 1.053002383559942245e-02 7.129590034484863281e+00 2.142035961151123047e+00 -5.809485316276550293e-01
2.006000000000000000e+03 7.429640960693359375e+01 1.025207996368408203e+01 -2.592975646257400513e-02 6.893210411071777344e+00 2.060184240341186523e+00 -7.049000263214111328e-01
2.007000000000000000e+03 7.517524719238281250e+01 -2.605598831176757812e+01 3.193768262863159180e-01 9.051515579223632812e+00 2.811267614364624023e+00 -1.157766342163085938e+00
2.008000000000000000e+03 7.700886535644531250e+01 -2.523082923889160156e+01 1.714866161346435547e-01 8.195551872253417969e+00 2.510111570358276367e+00 -9.097388386726379395e-01
2.009000000000000000e+03 7.695854187011718750e+01 -2.778156471252441406e+01 5.871751159429550171e-02 8.676948547363281250e+00 2.620699644088745117e+00 -1.109469652175903320e+00
2.010000000000000000e+03 7.681063079833984375e+01 1.809724617004394531e+01 5.137804895639419556e-02 6.805335044860839844e+00 2.057013988494873047e+00 -3.179779648780822754e-01
2.011000000000000000e+03 7.550961303710937500e+01 1.806823158264160156e+01 8.835115283727645874e-02 6.568064212799072266e+00 1.996924638748168945e+00 -4.079156816005706787e-01
2.012000000000000000e+03 7.548731994628906250e+01 2.067265510559082031e+01 8.732067793607711792e-02 6.418278217315673828e+00 1.951679587364196777e+00 -3.244420886039733887e-01
2.013000000000000000e+03 7.430401611328125000e+01 1.668410301208496094e+01 1.302692890167236328e-01 6.412238121032714844e+00 1.962752223014831543e+00 -5.339226722717285156e-01
2.014000000000000000e+03 7.545108032226562500e+01 2.196204566955566406e+01 9.322972595691680908e-02 6.342778205871582031e+00 1.930802345275878906e+00 -2.748425602912902832e-01
2.015000000000000000e+03 7.348087310791015625e+01 2.709584236145019531e+01 1.243097558617591858e-01 5.947620391845703125e+00 1.821578979492187500e+00 -1.427664160728454590e-01
2.016000000000000000e+03 7.366790008544921875e+01 2.433451271057128906e+01 1.427787244319915771e-01 6.030282020568847656e+00 1.851918220520019531e+00 -2.440235018730163574e-01
2.017000000000000000e+03 7.634170532226562500e+01 2.747772979736328125e+01 4.082018509507179260e-02 6.286662101745605469e+00 1.898244619369506836e+00 -8.458638191223144531e-02
2.018000000000000000e+03 7.489888763427734375e+01 2.725874519348144531e+01 8.065061271190643311e-02 6.129634857177734375e+00 1.863085627555847168e+00 -1.226322576403617859e-01
2.019000000000000000e+03 7.597241973876953125e+01 3.031070327758789062e+01 2.771717868745326996e-02 6.208961009979248047e+00 1.871003389358520508e+00 -3.804359212517738342e-02
2.020000000000000000e+03 7.469742584228515625e+01 2.862136840820312500e+01 7.175032049417495728e-02 6.078186988830566406e+00 1.844981193542480469e+00 -8.422522246837615967e-02
2.021000000000000000e+03 7.536143493652343750e+01 -3.181271362304687500e+01 -3.616132140159606934e-01 9.194061279296875000e+00 2.649734258651733398e+00 -9.877359867095947266e-01
2.022000000000000000e+03 7.395016479492187500e+01 -3.671126937866210938e+01 -4.153182804584503174e-01 8.476899147033691406e+00 2.418474197387695312e+00 -3.884647488594055176e-01
2.023000000000000000e+03 7.641254425048828125e+01 -3.697248458862304688e+01 -3.282385766506195068e-01 9.784954071044921875e+00 2.837014675140380859e+00 -3.366623520851135254e-01
2.024000000000000000e+03 7.434651184082031250e+01 3.004283714294433594e+01 6.558798253536224365e-02 6.035080432891845703e+00 1.830200552940368652e+00 -4.749196767807006836e-02
2.025000000000000000e+03 7.490367889404296875e+01 -2.815279579162597656e+01 -1.942865177989006042e-02 9.163218498229980469e+00 2.743136882781982422e+00 -1.332816600799560547e+00
2.026000000000000000e+03 7.621366882324218750e+01 -3.548506164550781250e+01 -3.168939948081970215e-01 9.589635848999023438e+00 2.781822443008422852e+00 -5.360821485519409180e-01
2.027000000000000000e+03 7.575875091552734375e+01 -3.326907348632812500e+01 -3.623472452163696289e-01 9.239099502563476562e+00 2.663025617599487305e+00 -8.154990077018737793e-01
2.028000000000000000e+03 7.467311096191406250e+01 -3.038715171813964844e+01 -3.338169455528259277e-01 9.162837982177734375e+00 2.648706436157226562e+00 -1.214102268218994141e+00
2.029000000000000000e+03 1.980831718444824219e+01 1.668935179710388184e+00 2.151278018951416016e+00 1.752439260482788086e+00 1.171115159988403320e+00 -1.314747929573059082e+00
2.030000000000000000e+03 4.482437896728515625e+01 1.217803955078125000e+01 1.632426619529724121e+00 5.980098247528076172e+00 2.283757448196411133e+00 2.540143489837646484e+00
2.031000000000000000e+03 2.847376441955566406e+01 -5.294036865234375000e+00 2.862228631973266602e+00 4.424766898155212402e-01 9.914116263389587402e-01 -2.325926303863525391e+00
2.032000000000000000e+03 1.348761177062988281e+01 3.193007469177246094e+01 -7.482795715332031250e-01 4.625800132751464844e+00 1.163256168365478516e+00 -4.658883512020111084e-01
2.033000000000000000e+03 1.465918922424316406e+01 8.140701293945312500e+00 -6.533072590827941895e-01 6.908223628997802734e+00 1.876474976539611816e+00 -2.282327413558959961e-01
2.034000000000000000e+03 1.540738296508789062e+01 9.709077835083007812e+00 -3.909114599227905273e-01 6.776146888732910156e+00 1.915570616722106934e+00 -5.839334726333618164e-01
2.035000000000000000e+03 7.340839385986328125e+01 -1.639953804016113281e+01 7.852674126625061035e-01 1.026941013336181641e+01 3.316403388977050781e+00 -2.095855623483657837e-01
2.036000000000000000e+03 4.223697662353515625e+00 2.101567649841308594e+01 1.987346410751342773e-01 2.784847259521484375e+00 8.950745463371276855e-01 -7.144466042518615723e-01
2.037000000000000000e+03 5.359831333160400391e+00 2.384311676025390625e+01 2.293203175067901611e-01 3.549238681793212891e+00 1.133567690849304199e+00 -1.051530599594116211e+00
2.038000000000000000e+03 5.621524810791015625e+00 2.664208221435546875e+01 1.072148978710174561e-01 3.936404466629028320e+00 1.213085770606994629e+00 -1.227512836456298828e+00
2.039000000000000000e+03 3.108855485916137695e+00 2.567394638061523438e+01 6.056654825806617737e-02 3.004333257675170898e+00 9.194699525833129883e-01 -8.261595964431762695e-01
2.040000000000000000e+03 4.479605197906494141e+00 2.971556091308593750e+01 -6.436751782894134521e-02 4.026642322540283203e+00 1.188682436943054199e+00 -1.077169060707092285e+00
2.041000000000000000e+03 4.267457962036132812e+00 2.254269599914550781e+01 1.923609226942062378e-01 2.987694501876831055e+00 9.540166258811950684e-01 -8.400254845619201660e-01
2.042000000000000000e+03 4.305021286010742188e+00 2.545153808593750000e+01 1.141651570796966553e-01 3.369524717330932617e+00 1.045106887817382812e+00 -1.018045783042907715e+00
2.043000000000000000e+03 4.244316101074218750e+00 2.402064132690429688e+01 1.516446769237518311e-01 3.151827573776245117e+00 9.910417199134826660e-01 -9.331936836242675781e-01
2.044000000000000000e+03 4.060358047485351562e+00 1.712541580200195312e+01 1.037063822150230408e-01 2.320160627365112305e+00 7.271600961685180664e-01 -4.295735359191894531e-01
2.045000000000000000e+03 4.822805404663085938e+00 1.890412139892578125e+01 2.248839288949966431e-01 2.884279251098632812e+00 9.327489733695983887e-01 -6.172287464141845703e-01
2.046000000000000000e+03 3.975116014480590820e+00 1.968604278564453125e+01 2.077109068632125854e-01 2.513585090637207031e+00 8.163887858390808105e-01 -5.886658430099487305e-01
2.047000000000000000e+03 3.946028709411621094e+00 1.571996021270751953e+01 6.298944354057312012e-02 2.148929834365844727e+00 6.635758280754089355e-01 -3.697129189968109131e-01
2.048000000000000000e+03 4.469830989837646484e+00 2.832090568542480469e+01 -4.547717981040477753e-03 3.837139368057250977e+00 1.149777531623840332e+00 -1.109638333320617676e+00
2.049000000000000000e+03 6.131082534790039062e+00 3.671934509277343750e+01 -5.121114253997802734e-01 4.643326282501220703e+00 1.239364385604858398e+00 -6.937602758407592773e-01
2.050000000000000000e+03 4.366499900817871094e+00 3.536591339111328125e+01 -2.419995814561843872e-01 4.725581645965576172e+00 1.345074653625488281e+00 -7.536287903785705566e-01
2.051000000000000000e+03 3.372597455978393555e+00 1.061188125610351562e+01 -2.648157812654972076e-02 1.371189236640930176e+00 4.034123122692108154e-01 -3.452609777450561523e-01
2.052000000000000000e+03 3.644695043563842773e+00 1.304721069335937500e+01 -1.486425660550594330e-02 1.770806312561035156e+00 5.267826318740844727e-01 -3.139004707336425781e-01
2.053000000000000000e+03 3.799015998840332031e+00 1.436401271820068359e+01 2.320283465087413788e-02 1.955001115798950195e+00 5.934612154960632324e-01 -3.304386734962463379e-01
2.054000000000000000e+03 5.204508781433105469e+00 3.298431396484375000e+01 -2.299588620662689209e-01 4.476979732513427734e+00 1.274106264114379883e+00 -9.815900921821594238e-01
2.055000000000000000e+03 5.465989112854003906e+00 3.112628173828125000e+01 -1.893730163574218750e-01 4.360138893127441406e+00 1.251229882240295410e+00 -1.150647044181823730e+00
2.056000000000000000e+03 4.263393020629882812e+01 9.222696304321289062e+00 1.706099152565002441e+00 8.125106811523437500e+00 2.949361801147460938e+00 3.208876609802246094e+00
2.057000000000000000e+03 4.436127090454101562e+01 9.913180351257324219e+00 1.773816823959350586e+00 6.098586082458496094e+00 2.361720800399780273e+00 2.850017547607421875e+00
2.058000000000000000e+03 4.893290519714355469e+00 1.412398433685302734e+01 1.843631453812122345e-02 2.666295766830444336e+00 8.054196238517761230e-01 -3.841416239738464355e-01
2.059000000000000000e+03 5.783182907104492188e+01 2.476131200790405273e+00 -1.616704344749450684e+00 5.305581688880920410e-01 -3.258438408374786377e-01 -3.965789675712585449e-01
2.060000000000000000e+03 2.426295518875122070e+00 8.166810035705566406e+00 5.576840415596961975e-02 4.617422223091125488e-01 1.552531868219375610e-01 -2.210470139980316162e-01
2.061000000000000000e+03 3.299377918243408203e+00 9.490454673767089844e+00 6.550291087478399277e-03 1.207137942314147949e+00 3.641064763069152832e-01 -3.557170927524566650e-01
2.062000000000000000e+03 2.219416618347167969e+00 6.377556800842285156e+00 1.349493414163589478e-01 1.438836604356765747e-01 8.364990353584289551e-02 -1.021865010261535645e-01
2.063000000000000000e+03 3.507778167724609375e+00 7.669395923614501953e+00 9.602929651737213135e-02 1.078265428543090820e+00 3.522884249687194824e-01 -3.595838248729705811e-01
2.064000000000000000e+03 4.854306793212890625e+01 -2.830962944030761719e+01 2.662946283817291260e-01 1.330356359481811523e+00 4.789952933788299561e-01 -8.324564099311828613e-01
2.065000000000000000e+03 1.979739069938659668e+00 5.350514888763427734e+00 1.268842965364456177e-01 -9.728655964136123657e-02 8.879322558641433716e-03 4.143776372075080872e-02
2.066000000000000000e+03 3.727383041381835938e+01 -1.550623798370361328e+01 -3.120816648006439209e-01 9.922915458679199219e+00 2.883249998092651367e+00 -2.387885004281997681e-01
2.067000000000000000e+03 5.173129558563232422e+00 -2.824067306518554688e+01 -1.459376215934753418e+00 8.331670761108398438e+00 2.061688423156738281e+00 1.276589870452880859e+00
2.068000000000000000e+03 1.666719245910644531e+01 6.100615024566650391e+00 -7.206471264362335205e-02 5.367785453796386719e+00 1.588716268539428711e+00 -1.763033717870712280e-01
2.069000000000000000e+03 4.628073120117187500e+01 1.937095451354980469e+01 8.073621392250061035e-01 5.066139698028564453e+00 1.762050509452819824e+00 1.388494610786437988e+00
2.070000000000000000e+03 2.578937339782714844e+01 -1.430654811859130859e+01 -7.610176801681518555e-01 1.757470667362213135e-01 -1.755811721086502075e-01 -5.851948261260986328e-01
2.071000000000000000e+03 1.690959167480468750e+01 3.989020824432373047e+00 9.534246921539306641e-01 4.665524005889892578e+00 1.685684680938720703e+00 -1.948902308940887451e-01
2.072000000000000000e+03 3.377858734130859375e+01 -1.463337039947509766e+01 2.387690693140029907e-01 4.448065757751464844e+00 1.406050443649291992e+00 -1.716742277145385742e+00
2.073000000000000000e+03 4.522671508789062500e+01 1.954950332641601562e+01 6.193344593048095703e-01 5.438513755798339844e+00 1.817354440689086914e+00 1.291263937950134277e+00
2.074000000000000000e+03 1.519320964813232422e+01 6.083741188049316406e+00 -2.939884364604949951e-01 6.402054309844970703e+00 1.832419872283935547e+00 1.841783896088600159e-02
2.075000000000000000e+03 1.270350551605224609e+01 1.460070991516113281e+01 2.484294325113296509e-01 7.389045715332031250e+00 2.291242599487304688e+00 -6.451384425163269043e-01
2.076000000000000000e+03 1.412222003936767578e+01 8.886685371398925781e+00 -6.974440813064575195e-01 7.013072013854980469e+00 1.894688367843627930e+00 -3.063387870788574219e-01
2.077000000000000000e+03 7.116940498352050781e+00 -1.500311946868896484e+01 -1.607154726982116699e+00 6.876194000244140625e+00 1.580711722373962402e+00 2.116401672363281250e+00
2.078000000000000000e+03 4.039189529418945312e+01 -1.800302314758300781e+01 4.332440793514251709e-01 1.000249767303466797e+01 3.130722522735595703e+00 1.002248600125312805e-01
2.079000000000000000e+03 3.939624404907226562e+01 -1.622469139099121094e+01 3.100244700908660889e-01 1.086410522460937500e+01 3.352238893508911133e+00 2.282517999410629272e-01
2.080000000000000000e+03 4.416629791259765625e+01 2.698052167892456055e+00 -2.509184122085571289e+00 6.308416366577148438e+00 1.139769673347473145e+00 2.807622432708740234e+00
2.081000000000000000e+03 5.016202163696289062e+01 -3.056927680969238281e+01 -7.866413146257400513e-02 1.156011343002319336e+00 3.232041597366333008e-01 -6.044030189514160156e-01
2.082000000000000000e+03 5.128080749511718750e+01 5.938479423522949219e+00 1.074759140610694885e-01 7.426703572273254395e-01 2.550438940525054932e-01 5.327733159065246582e-01
2.083000000000000000e+03 5.115834808349609375e+01 3.210518598556518555e+00 -2.163219451904296875e+00 2.130250483751296997e-01 -5.850583314895629883e-01 2.220742851495742798e-01
2.084000000000000000e+03 7.033572387695312500e+01 -6.953164577484130859e+00 -3.045496344566345215e-01 8.572908401489257812e+00 2.480507612228393555e+00 -3.352763056755065918e-01
2.085000000000000000e+03 4.297184371948242188e+01 -2.165694808959960938e+01 5.647397637367248535e-01 5.137441635131835938e+00 1.710654377937316895e+00 -1.282657623291015625e+00
2.086000000000000000e+03 4.134934616088867188e+01 -2.505635452270507812e+01 1.171288728713989258e+00 6.025590896606445312e+00 2.159063816070556641e+00 -1.247276544570922852e+00
2.087000000000000000e+03 4.157505035400390625e+01 6.513724327087402344e+00 1.166517853736877441e+00 9.107164382934570312e+00 3.082104682922363281e+00 2.997172355651855469e+00
2.088000000000000000e+03 4.522049331665039062e+01 1.098360157012939453e+01 1.776193380355834961e+00 5.504323482513427734e+00 2.184154987335205078e+00 2.596350431442260742e+00
2.089000000000000000e+03 3.912042617797851562e+01 -9.298438072204589844e+00 1.496601223945617676e+00 1.135680389404296875e+01 3.856021404266357422e+00 6.744600534439086914e-01
2.090000000000000000e+03 3.693800735473632812e+01 -1.073615741729736328e+01 1.605950474739074707e+00 8.149655342102050781e+00 2.926681756973266602e+00 -3.234443664550781250e-01
2.091000000000000000e+03 2.316645812988281250e+01 -3.425108909606933594e+00 3.589262485504150391e+00 1.064178824424743652e+00 1.396032333374023438e+00 -1.572786450386047363e+00
2.092000000000000000e+03 2.516111564636230469e+01 -4.004389762878417969e+00 3.253990411758422852e+00 1.456377148628234863e+00 1.413110256195068359e+00 -1.727307558059692383e+00
2.093000000000000000e+03 4.512905502319335938e+01 1.664774703979492188e+01 1.041432976722717285e+00 5.735108375549316406e+00 2.032962322235107422e+00 1.791695117950439453e+00
2.094000000000000000e+03 1.150345516204833984e+01 -3.727663421630859375e+01 2.486608624458312988e-01 6.957187056541442871e-01 2.833138704299926758e-01 1.643031537532806396e-01
2.095000000000000000e+03 1.712997055053710938e+01 -3.632186126708984375e+01 -5.647824406623840332e-01 -4.624898731708526611e-01 -3.081816732883453369e-01 5.402529835700988770e-01
2.096000000000000000e+03 1.524130916595458984e+01 -1.330048942565917969e+01 -1.759217977523803711e+00 3.012630939483642578e-01 -4.373864531517028809e-01 3.762680590152740479e-01
2.097000000000000000e+03 6.645830631256103516e+00 -3.088520622253417969e+01 -2.387393236160278320e+00 4.314013957977294922e+00 5.779861807823181152e-01 1.525101065635681152e-01
2.098000000000000000e+03 5.697024536132812500e+01 4.089548110961914062e+00 -9.486278295516967773e-01 7.167800068855285645e-01 -6.955434381961822510e-02 -4.423896074295043945e-01
2.099000000000000000e+03 3.919837188720703125e+01 -1.745950889587402344e+01 1.515365242958068848e-01 1.077436542510986328e+01 3.277770757675170898e+00 6.813669800758361816e-01
2.100000000000000000e+03 3.824025726318359375e+01 -2.167836952209472656e+01 1.597765684127807617e+00 1.033639144897460938e+01 3.580247163772583008e+00 2.967050373554229736e-01
2.101000000000000000e+03 7.041873931884765625e+01 -1.293276596069335938e+01 1.054531574249267578e+00 1.183384799957275391e+01 3.866513729095458984e+00 -6.252637505531311035e-01
2.102000000000000000e+03 7.275344085693359375e+01 -1.224764442443847656e+01 6.018118262290954590e-01 9.915335655212402344e+00 3.155144214630126953e+00 3.717138767242431641e-01
2.103000000000000000e+03 7.004114532470703125e+01 -4.902788639068603516e+00 -5.420989990234375000e-01 7.806719303131103516e+00 2.179386138916015625e+00 -3.008512258529663086e-01
2.104000000000000000e+03 4.501354980468750000e+01 1.367323398590087891e+01 1.481664299964904785e+00 5.962349891662597656e+00 2.233204364776611328e+00 2.308779478073120117e+00
2.105000000000000000e+03 7.205944061279296875e+01 -1.535519695281982422e+01 1.055189847946166992e+00 1.126490592956542969e+01 3.696028709411621094e+00 -3.599835038185119629e-01
2.106000000000000000e+03 7.090644073486328125e+01 -1.568577003479003906e+01 1.194074273109436035e+00 1.265341854095458984e+01 4.154247760772705078e+00 -7.451933622360229492e-01
2.107000000000000000e+03 4.363391876220703125e+01 8.624493598937988281e+00 1.612941861152648926e+00 6.732368946075439453e+00 2.503593206405639648e+00 2.959680557250976562e+00
2.108000000000000000e+03 4.717282867431640625e+01 2.733410835266113281e+01 2.915867567062377930e-01 4.167900562286376953e+00 1.337846159934997559e+00 7.539427876472473145e-01
2.109000000000000000e+03 4.925463867187500000e+01 4.830668926239013672e+00 -4.734674096107482910e-01 6.134511232376098633e-01 4.199510440230369568e-02 9.506361484527587891e-01
2.110000000000000000e+03 4.752990722656250000e+01 5.139893054962158203e+00 1.656182408332824707e-01 1.531120538711547852e+00 5.090216398239135742e-01 2.061749696731567383e+00
2.111000000000000000e+03 4.261119842529296875e+01 5.067409038543701172e+00 -2.370738387107849121e-01 7.851806640625000000e+00 2.284419775009155273e+00 2.812613725662231445e+00
2.112000000000000000e+03 4.067829132080078125e+01 4.145541191101074219e+00 -4.537558555603027344e-01 9.701962471008300781e+00 2.774461984634399414e+00 2.171273231506347656e+00
2.113000000000000000e+03 4.388513946533203125e+01 6.812210083007812500e+00 9.204419255256652832e-01 6.090981006622314453e+00 2.103426933288574219e+00 2.804519891738891602e+00
2.114000000000000000e+03 4.289465332031250000e+01 2.833397388458251953e+00 -1.811293721199035645e+00 8.133403778076171875e+00 1.896632909774780273e+00 2.436824083328247070e+00
2.115000000000000000e+03 1.895533752441406250e+01 -3.567805480957031250e+01 -8.744713664054870605e-01 -3.189633786678314209e-01 -3.580304384231567383e-01 4.720834493637084961e-01
2.116000000000000000e+03 3.505449676513671875e+01 -1.891368746757507324e+00 1.810574680566787720e-01 1.994114756584167480e+00 6.525516510009765625e-01 3.834624588489532471e-01
2.117000000000000000e+03 3.996986770629882812e+01 2.215771198272705078e+00 -1.244976997375488281e+00 9.505194664001464844e+00 2.478065252304077148e+00 1.496265411376953125e+00
2.118000000000000000e+03 6.258383178710937500e+01 -3.827996826171875000e+01 2.966170608997344971e-01 1.239524364471435547e+00 4.608424305915832520e-01 3.029121160507202148e-01
2.119000000000000000e+03 6.334548950195312500e+01 -3.597087860107421875e+01 -1.684869974851608276e-01 1.438126564025878906e+00 3.808918595314025879e-01 6.402645111083984375e-01
2.120000000000000000e+03 2.919228744506835938e+01 -6.749330520629882812e+00 2.889972686767578125e+00 5.037911534309387207e-01 1.018129110336303711e+00 -2.088515043258666992e+00
2.121000000000000000e+03 3.339678955078125000e+01 -3.809630870819091797e+00 1.971059560775756836e+00 9.794753193855285645e-01 8.851604461669921875e-01 -5.091075301170349121e-01
2.122000000000000000e+03 3.854671096801757812e+01 -3.197016334533691406e+01 -9.575300812721252441e-01 6.304868221282958984e+00 1.604201436042785645e+00 -7.001741528511047363e-01
2.123000000000000000e+03 3.867545700073242188e+01 -2.882505226135253906e+01 9.339367598295211792e-02 7.639653205871582031e+00 2.319914102554321289e+00 -8.901979327201843262e-01
2.124000000000000000e+03 2.225267219543457031e+01 -4.135900974273681641e+00 3.370313882827758789e+00 1.002640366554260254e+00 1.311886191368103027e+00 -1.543303012847900391e+00
2.125000000000000000e+03 1.149032211303710938e+01 1.737180328369140625e+01 6.637152433395385742e-01 6.843118667602539062e+00 2.252050161361694336e+00 -7.059572339057922363e-01
2.126000000000000000e+03 7.304113006591796875e+01 -1.362172698974609375e+01 7.811367511749267578e-01 1.000877666473388672e+01 3.236974000930786133e+00 2.037260085344314575e-01
2.127000000000000000e+03 3.430785751342773438e+01 -3.277101898193359375e+01 -1.172015666961669922e+00 5.714057922363281250e+00 1.362612605094909668e+00 9.908336400985717773e-01
2.128000000000000000e+03 7.060826873779296875e+01 -2.973440742492675781e+01 -4.944141507148742676e-01 9.019045829772949219e+00 2.557389497756958008e+00 -3.229314088821411133e-01
2.129000000000000000e+03 7.282115936279296875e+01 -2.780373954772949219e+01 6.946035474538803101e-02 9.590706825256347656e+00 2.898050308227539062e+00 -1.184625148773193359e+00
2.130000000000000000e+03 7.091838073730468750e+01 -8.789183616638183594e+00 -7.399017363786697388e-02 9.285492897033691406e+00 2.763450622558593750e+00 -1.504977345466613770e-01
2.131000000000000000e+03 7.128575897216796875e+01 -7.604668617248535156e+00 -2.807578146457672119e-01 8.863369941711425781e+00 2.574783563613891602e+00 -1.249095797538757324e-02
2.132000000000000000e+03 3.645943832397460938e+01 -3.095655822753906250e+01 -7.767989635467529297e-01 7.130997180938720703e+00 1.906259417533874512e+00 2.809936404228210449e-01
2.133000000000000000e+03 5.024411392211914062e+01 5.738374233245849609e+00 6.771600991487503052e-02 7.691612839698791504e-01 2.510631680488586426e-01 7.377595901489257812e-01
2.134000000000000000e+03 3.717430114746093750e+01 -2.289204597473144531e+00 5.548748970031738281e-01 5.827078819274902344e+00 1.914586186408996582e+00 1.117449760437011719e+00
2.135000000000000000e+03 4.580117797851562500e+01 3.293550109863281250e+01 -5.660046935081481934e-01 3.718514919281005859e+00 9.457530975341796875e-01 5.296114087104797363e-01
2.136000000000000000e+03 4.050441741943359375e+01 -2.228727149963378906e+01 1.079566359519958496e+00 7.661294460296630859e+00 2.622258186340332031e+00 -2.154164016246795654e-01
2.137000000000000000e+03 4.255705642700195312e+01 -2.048555564880371094e+01 2.821444869041442871e-01 6.384030342102050781e+00 1.999852418899536133e+00 -1.301801800727844238e+00
2.138000000000000000e+03 7.263265991210937500e+01 -3.001483535766601562e+01 -4.444245994091033936e-01 9.180315971374511719e+00 2.620767354965209961e+00 -1.012810468673706055e+00
2.139000000000000000e+03 3.544787597656250000e+01 -3.433316469192504883e+00 1.492745280265808105e+00 3.435193538665771484e+00 1.478381633758544922e+00 4.970517456531524658e-01
2.140000000000000000e+03 7.183868408203125000e+01 -1.398001575469970703e+01 1.060715198516845703e+00 1.104368782043457031e+01 3.631320953369140625e+00 -1.383233964443206787e-01
2.141000000000000000e+03 7.154787445068359375e+01 -3.105236434936523438e+01 -8.496650457382202148e-01 8.859272003173828125e+00 2.402882099151611328e+00 -6.405655145645141602e-01
2.142000000000000000e+03 6.951296997070312500e+01 -3.079912567138671875e+01 -9.872195124626159668e-01 8.056175231933593750e+00 2.120686531066894531e+00 2.586288005113601685e-02
2.143000000000000000e+03 3.183911705017089844e+01 -5.940583705902099609e+00 2.916310071945190430e+00 7.911593317985534668e-01 1.112240791320800781e+00 -1.440585732460021973e+00
2.144000000000000000e+03 2.779053306579589844e+01 -3.886049652099609375e+01 -6.681859493255615234e-01 1.474814772605895996e+00 2.419886440038681030e-01 5.343011617660522461e-01
2.145000000000000000e+03 3.865550994873046875e+01 -2.265985488891601562e+01 1.491207480430603027e+00 9.878168106079101562e+00 3.410812854766845703e+00 9.585782140493392944e-02
2.146000000000000000e+03 3.912713241577148438e+01 -2.024796295166015625e+01 7.211179733276367188e-01 9.821507453918457031e+00 3.162787675857543945e+00 4.223960936069488525e-01
2.147000000000000000e+03 4.428449630737304688e+01 3.581808853149414062e+01 -9.938941597938537598e-01 3.303239345550537109e+00 6.928035616874694824e-01 2.452007532119750977e-01
2.148000000000000000e+03 1.155984020233154297e+01 2.320970726013183594e+01 6.883240938186645508e-01 6.634555816650390625e+00 2.196863889694213867e+00 -8.180545568466186523e-01
2.149000000000000000e+03 5.231324386596679688e+01 2.691853523254394531e+00 -2.643459081649780273e+00 3.458168804645538330e-01 -6.892926692962646484e-01 3.233816921710968018e-01
2.150000000000000000e+03 1.234642982482910156e+01 2.775430870056152344e+01 8.764076977968215942e-02 5.832432746887207031e+00 1.776022076606750488e+00 -8.051268458366394043e-01
2.151000000000000000e+03 5.477932453155517578e+00 2.521040153503417969e+01 1.861284822225570679e-01 3.738030910491943359e+00 1.177247881889343262e+00 -1.154203534126281738e+00
2.152000000000000000e+03 6.844984531402587891e+00 -1.190527248382568359e+01 -1.422399282455444336e+00 4.931174278259277344e+00 1.052632570266723633e+00 2.543365955352783203e+00
2.153000000000000000e+03 8.572068214416503906e+00 -1.311533355712890625e+01 -1.750381588935852051e+00 4.599802494049072266e+00 8.548262715339660645e-01 3.085517883300781250e+00
2.154000000000000000e+03 3.921974563598632812e+01 -2.780307579040527344e+01 6.101714968681335449e-01 7.194694995880126953e+00 2.341459989547729492e+00 -1.142938256263732910e+00
2.155000000000000000e+03 3.802020645141601562e+01 -2.697828292846679688e+01 1.054086565971374512e+00 8.887046813964843750e+00 2.982339859008789062e+00 -3.943768143653869629e-01
2.156000000000000000e+03 1.159791183471679688e+01 -1.274034500122070312e+01 -1.341156959533691406e+00 1.951944112777709961e+00 1.832361668348312378e-01 2.647367954254150391e+00
2.157000000000000000e+03 1.054255199432373047e+01 -1.209618377685546875e+01 -1.331996440887451172e+00 3.115357875823974609e+00 5.350084304809570312e-01 2.861636877059936523e+00
2.158000000000000000e+03 4.666669464111328125e+01 2.995553970336914062e+01 -4.013724625110626221e-02 3.959135532379150391e+00 1.175699472427368164e+00 6.678930521011352539e-01
2.159000000000000000e+03 6.712418365478515625e+01 -1.605681180953979492e+00 -1.194653511047363281e+00 5.841418743133544922e+00 1.394029498100280762e+00 -8.866505622863769531e-01
2.160000000000000000e+03 6.660145568847656250e+01 -2.800208330154418945e+00 -1.006325840950012207e+00 5.745227336883544922e+00 1.421670436859130859e+00 -9.059292674064636230e-01
2.161000000000000000e+03 7.308377838134765625e+01 -2.568671798706054688e+01 6.340613365173339844e-01 9.907349586486816406e+00 3.162423372268676758e+00 -9.523407816886901855e-01
2.162000000000000000e+03 7.232084655761718750e+01 -2.456039237976074219e+01 8.882305622100830078e-01 1.064128875732421875e+01 3.458855867385864258e+00 -4.708304703235626221e-01
2.163000000000000000e+03 3.330560302734375000e+01 -3.341205978393554688e+01 -1.127955317497253418e+00 4.683276653289794922e+00 1.066596388816833496e+00 1.319152474403381348e+00
2.164000000000000000e+03 6.919010162353515625e+01 -3.349256515502929688e+01 -1.092778921127319336e+00 6.838550090789794922e+00 1.723731279373168945e+00 2.676731348037719727e-01
2.165000000000000000e+03 3.275805282592773438e+01 -1.434999656677246094e+01 4.426721930503845215e-01 3.217969179153442383e+00 1.098192453384399414e+00 -1.584921240806579590e+00
2.166000000000000000e+03 3.558567047119140625e+01 -1.589469146728515625e+01 -6.535487771034240723e-01 8.222075462341308594e+00 2.270557880401611328e+00 -1.104005932807922363e+00
2.167000000000000000e+03 4.159620285034179688e+01 -2.666424942016601562e+01 8.858294486999511719e-01 5.568474769592285156e+00 1.936291217803955078e+00 -1.433798432350158691e+00
2.168000000000000000e+03 3.947592544555664062e+01 -2.515326881408691406e+01 1.605952382087707520e+00 7.801678657531738281e+00 2.822289228439331055e+00 -7.548282146453857422e-01
2.169000000000000000e+03 3.217232131958007812e+01 -3.421288299560546875e+01 -9.444857835769653320e-01 3.708584308624267578e+00 8.292295336723327637e-01 1.338743686676025391e+00
2.170000000000000000e+03 6.828699588775634766e+00 -3.465738296508789062e+01 -5.750322937965393066e-01 3.979550123214721680e+00 1.021355271339416504e+00 -4.264457821846008301e-01
2.171000000000000000e+03 7.858928203582763672e+00 -3.220936965942382812e+01 -1.516936302185058594e+00 2.647864818572998047e+00 3.392785191535949707e-01 -4.655447602272033691e-01
2.172000000000000000e+03 2.039680480957031250e+01 5.160955190658569336e-01 2.785035133361816406e+00 1.393915891647338867e+00 1.253685355186462402e+00 -1.619371533393859863e+00
2.173000000000000000e+03 8.737801551818847656e+00 -3.485726547241210938e+01 -4.688291251659393311e-01 1.942347407341003418e+00 4.420554637908935547e-01 -4.380545616149902344e-01
2.174000000000000000e+03 5.948429489135742188e+01 -3.739159774780273438e+01 2.003922611474990845e-01 2.094325423240661621e-01 1.229474470019340515e-01 -8.534632623195648193e-02
2.175000000000000000e+03 6.253245353698730469e+00 3.207715225219726562e+01 -2.702696025371551514e-01 4.449401378631591797e+00 1.253739595413208008e+00 -1.148607015609741211e+00
2.176000000000000000e+03 6.341353225708007812e+01 6.783348321914672852e-01 -1.467560887336730957e+00 3.041843414306640625e+00 4.722847342491149902e-01 -1.371103405952453613e+00
2.177000000000000000e+03 4.753923416137695312e+00 2.171552181243896484e+00 2.133348733186721802e-01 2.057232856750488281e-01 1.257174462080001831e-01 1.064138412475585938e-01
2.178000000000000000e+03 4.281328678131103516e+00 -2.592523574829101562e+00 9.975205659866333008e-01 5.241198539733886719e-01 4.564921259880065918e-01 8.243242502212524414e-01
2.179000000000000000e+03 4.561160564422607422e+00 -2.588873863220214844e+00 1.126778244972229004e+00 5.690380334854125977e-01 5.087448954582214355e-01 9.424442648887634277e-01
2.180000000000000000e+03 6.404727458953857422e+00 -2.418806076049804688e+00 2.207569599151611328e+00 1.037431120872497559e+00 9.735001921653747559e-01 1.874876856803894043e+00
2.181000000000000000e+03 9.471159934997558594e+00 2.183059453964233398e+00 1.219082474708557129e+00 7.691269874572753906e+00 2.673105716705322266e+00 -3.566972732543945312e+00
2.182000000000000000e+03 8.105546951293945312e+00 1.924363255500793457e+00 1.866234064102172852e+00 2.139407396316528320e+00 1.201692461967468262e+00 -2.222686290740966797e+00
2.183000000000000000e+03 6.565458297729492188e+00 -2.226238250732421875e+00 2.284538745880126953e+00 9.702304005622863770e-01 9.764307737350463867e-01 1.848264932632446289e+00
2.184000000000000000e+03 7.679853439331054688e+00 2.159075021743774414e+00 1.533108234405517578e+00 1.733227729797363281e+00 9.799007773399353027e-01 -1.730641841888427734e+00
2.185000000000000000e+03 7.229105472564697266e+00 -2.522129297256469727e+00 2.718784093856811523e+00 1.807991623878479004e+00 1.358032703399658203e+00 2.693439722061157227e+00
2.186000000000000000e+03 7.762742996215820312e+00 -2.452697753906250000e+00 3.070773839950561523e+00 2.510776042938232422e+00 1.674464941024780273e+00 3.220770835876464844e+00
2.187000000000000000e+03 8.123195648193359375e+00 -2.350591421127319336e+00 3.270757675170898438e+00 3.113627672195434570e+00 1.915315628051757812e+00 3.591803312301635742e+00
2.188000000000000000e+03 9.002449989318847656e+00 -2.212643623352050781e+00 3.257358074188232422e+00 5.691785335540771484e+00 2.684742927551269531e+00 4.403408527374267578e+00
2.189000000000000000e+03 3.372067213058471680e+00 6.650999546051025391e+00 2.187537848949432373e-01 8.096798658370971680e-01 3.085300922393798828e-01 -2.984649240970611572e-01
2.190000000000000000e+03 6.142338752746582031e+00 2.150023221969604492e+00 6.882834434509277344e-01 5.112100839614868164e-01 3.598480522632598877e-01 -4.038938283920288086e-01
2.191000000000000000e+03 5.347422122955322266e+00 2.086641788482666016e+00 3.194719552993774414e-01 2.903360128402709961e-01 1.829423904418945312e-01 -4.648917168378829956e-02
2.192000000000000000e+03 8.615988731384277344e+00 -1.993272185325622559e+00 3.868200063705444336e+00 4.075974464416503906e+00 2.383252382278442383e+00 4.195603370666503906e+00
2.193000000000000000e+03 9.354835510253906250e+00 -2.087131977081298828e+00 3.199186563491821289e+00 7.412133216857910156e+00 3.183396100997924805e+00 4.621529579162597656e+00
2.194000000000000000e+03 8.830855369567871094e+00 -1.962571859359741211e+00 3.905896663665771484e+00 4.860106468200683594e+00 2.629801034927368164e+00 4.513505935668945312e+00
2.195000000000000000e+03 5.435620307922363281e+00 2.270471096038818359e+00 4.747424125671386719e-01 3.593965768814086914e-01 2.502416968345642090e-01 -1.501272469758987427e-01
2.196000000000000000e+03 4.969735622406005859e+00 2.170899391174316406e+00 2.682513296604156494e-01 2.497974336147308350e-01 1.554146260023117065e-01 4.648490250110626221e-02
2.197000000000000000e+03 5.169552326202392578e+00 2.135528802871704102e+00 2.980026602745056152e-01 2.658295035362243652e-01 1.691496372222900391e-01 4.439468961209058762e-03
2.198000000000000000e+03 4.764968395233154297e+00 2.481848478317260742e+00 3.536325097084045410e-01 2.754579186439514160e-01 1.887271255254745483e-01 3.474003821611404419e-02
2.199000000000000000e+03 9.571558952331542969e+00 -2.070904970169067383e+00 2.963259458541870117e+00 8.519483566284179688e+00 3.444822788238525391e+00 4.464992046356201172e+00
2.200000000000000000e+03 3.534186601638793945e+00 2.577427864074707031e+00 1.640924811363220215e-01 9.822402894496917725e-02 7.869495451450347900e-02 2.470006346702575684e-01
2.201000000000000000e+03 1.200716781616210938e+01 5.516383051872253418e-01 7.107199668884277344e+00 9.542258262634277344e+00 4.994837284088134766e+00 1.610081791877746582e+00
2.202000000000000000e+03 1.211075687408447266e+01 -4.241152405738830566e-01 7.756887912750244141e+00 8.837355613708496094e+00 4.978272914886474609e+00 -4.858038127422332764e-01
2.203000000000000000e+03 1.160703086853027344e+01 -1.638826727867126465e+00 4.528844356536865234e+00 1.051935482025146484e+01 4.514460086822509766e+00 -1.072018384933471680e+00
2.204000000000000000e+03 9.943354606628417969e+00 -1.684838652610778809e+00 3.126980781555175781e+00 1.146359252929687500e+01 4.377171993255615234e+00 4.086899757385253906e+00
2.205000000000000000e+03 1.068495559692382812e+01 -2.379328727722167969e+00 2.138231277465820312e+00 1.066232013702392578e+01 3.840165615081787109e+00 1.504111051559448242e+00
2.206000000000000000e+03 1.285140514373779297e+01 1.261815279722213745e-01 6.466605186462402344e+00 7.355509757995605469e+00 4.146634578704833984e+00 3.469219505786895752e-01
2.207000000000000000e+03 1.104543113708496094e+01 1.944198250770568848e+00 1.338002920150756836e+00 1.217700576782226562e+01 4.054502487182617188e+00 2.403375953435897827e-01
2.208000000000000000e+03 1.221622180938720703e+01 3.850263059139251709e-01 7.193655967712402344e+00 8.906620979309082031e+00 4.830082893371582031e+00 1.142763614654541016e+00
2.209000000000000000e+03 1.151139259338378906e+01 1.420315146446228027e+00 3.579419136047363281e+00 1.173582077026367188e+01 4.594572067260742188e+00 1.796005129814147949e+00
2.210000000000000000e+03 1.107814407348632812e+01 -1.626938700675964355e+00 3.955161809921264648e+00 1.218852138519287109e+01 4.843104839324951172e+00 -3.388088345527648926e-01
2.211000000000000000e+03 1.174037933349609375e+01 -1.185648918151855469e+00 6.112273216247558594e+00 1.029605007171630859e+01 4.922496795654296875e+00 -1.442499399185180664e+00
2.212000000000000000e+03 1.038667201995849609e+01 2.351927995681762695e+00 4.017380177974700928e-01 1.088831901550292969e+01 3.387017011642456055e+00 -1.817605257034301758e+00
2.213000000000000000e+03 1.520376777648925781e+01 4.290389060974121094e+00 7.119526267051696777e-01 6.274076938629150391e+00 2.095808982849121094e+00 3.374584317207336426e-01
2.214000000000000000e+03 1.600959014892578125e+01 4.350659370422363281e+00 6.925790905952453613e-01 5.529331207275390625e+00 1.866573095321655273e+00 5.709426850080490112e-02
2.215000000000000000e+03 1.145102691650390625e+01 -1.405940532684326172e+00 5.199469089508056641e+00 1.132856369018554688e+01 4.958409786224365234e+00 -1.222986102104187012e+00
2.216000000000000000e+03 1.220911312103271484e+01 -7.234268784523010254e-01 7.171658992767333984e+00 8.720709800720214844e+00 4.767710685729980469e+00 -9.794428944587707520e-01
2.217000000000000000e+03 3.282247781753540039e+00 1.906864762306213379e+00 -6.283065676689147949e-02 1.084077730774879456e-02 -1.559696346521377563e-02 3.357987403869628906e-01
2.218000000000000000e+03 3.183437347412109375e+00 -2.373288154602050781e+00 5.142757892608642578e-01 3.303218781948089600e-01 2.533792853355407715e-01 3.599654138088226318e-01
2.219000000000000000e+03 2.525662183761596680e+00 -2.207282781600952148e+00 3.109824061393737793e-01 2.245764583349227905e-01 1.606676578521728516e-01 1.601734608411788940e-01
2.220000000000000000e+03 1.735424160957336426e+00 -5.113042831420898438e+00 1.871445477008819580e-01 9.009739160537719727e-01 3.264355361461639404e-01 6.268792152404785156e-01
2.221000000000000000e+03 3.408438444137573242e+00 -2.457077026367187500e+00 6.150395274162292480e-01 3.820261061191558838e-01 2.991196811199188232e-01 4.690546691417694092e-01
2.222000000000000000e+03 1.606296062469482422e+00 -2.016801118850708008e+00 1.500530689954757690e-01 5.010069161653518677e-02 6.004612892866134644e-02 -1.875728927552700043e-02
2.223000000000000000e+03 1.693791627883911133e+00 -3.240477800369262695e+00 2.007453739643096924e-01 3.041884303092956543e-01 1.514801383018493652e-01 2.256840765476226807e-01
2.224000000000000000e+03 2.049322843551635742e+00 -2.368920326232910156e+00 2.286342084407806396e-01 2.020910978317260742e-01 1.292175948619842529e-01 1.167351827025413513e-01
2.225000000000000000e+03 3.546876668930053711e+00 2.233756780624389648e+00 7.469488680362701416e-02 5.693556740880012512e-02 3.948913514614105225e-02 2.876085340976715088e-01
2.226000000000000000e+03 2.899152994155883789e+00 1.958937168121337891e+00 -5.113337561488151550e-02 -1.664565131068229675e-02 -2.033370733261108398e-02 3.424702286720275879e-01
2.227000000000000000e+03 3.122157573699951172e+00 2.283858776092529297e+00 5.115110799670219421e-02 8.070834912359714508e-03 1.776658184826374054e-02 3.179110586643218994e-01
2.228000000000000000e+03 1.249349832534790039e+00 4.188865661621093750e+00 6.747569888830184937e-02 -4.027397036552429199e-01 -1.005792021751403809e-01 1.633180528879165649e-01
2.229000000000000000e+03 1.346280694007873535e+00 2.529751777648925781e+00 2.065110392868518829e-02 -2.356209307909011841e-01 -6.449095159769058228e-02 2.688857316970825195e-01
2.230000000000000000e+03 1.064643859863281250e+00 -3.079415082931518555e+00 7.330087572336196899e-02 8.130977302789688110e-02 4.638319462537765503e-02 8.430042117834091187e-02
2.231000000000000000e+03 2.820203781127929688e+00 -3.441868782043457031e+00 5.147318243980407715e-01 6.389053463935852051e-01 3.460911512374877930e-01 6.103922128677368164e-01
2.232000000000000000e+03 1.850898146629333496e+00 -6.149137020111083984e+00 1.277552843093872070e-01 1.351106643676757812e+00 4.436585903167724609e-01 8.310096263885498047e-01
2.233000000000000000e+03 2.701489067077636719e+01 -5.455564975738525391e+00 2.784204244613647461e+00 7.483504414558410645e-01 1.059766411781311035e+00 -2.191252946853637695e+00
2.234000000000000000e+03 2.250889015197753906e+01 -1.471801185607910156e+01 -1.401897192001342773e+00 4.720189273357391357e-01 -2.789634764194488525e-01 -3.620851039886474609e-01
2.235000000000000000e+03 3.177641868591308594e+00 -7.686296463012695312e+00 3.361405059695243835e-02 2.487117767333984375e+00 7.562195658683776855e-01 1.527866244316101074e+00
2.236000000000000000e+03 2.830787658691406250e+00 -6.870745658874511719e+00 1.343565881252288818e-01 2.028008222579956055e+00 6.487094759941101074e-01 1.324305891990661621e+00
2.237000000000000000e+03 2.589462280273437500e+00 -5.982131958007812500e+00 2.472606152296066284e-01 1.549234390258789062e+00 5.389484763145446777e-01 1.113459825515747070e+00
2.238000000000000000e+03 3.063931703567504883e+00 -2.594764947891235352e+00 5.005490183830261230e-01 3.755872249603271484e-01 2.628408670425415039e-01 3.932718932628631592e-01
2.239000000000000000e+03 3.308196640014648438e+01 -1.311692142486572266e+01 1.127451300621032715e+00 3.580329895019531250e+00 1.412334322929382324e+00 -1.509362936019897461e+00
2.240000000000000000e+03 3.025714874267578125e+00 -9.083228111267089844e+00 -1.715661734342575073e-01 2.987150669097900391e+00 8.446753621101379395e-01 1.341196775436401367e+00
2.241000000000000000e+03 7.088565826416015625e+01 -6.131999969482421875e+00 -4.166604876518249512e-01 8.383753776550292969e+00 2.390127897262573242e+00 -2.559668384492397308e-02
2.242000000000000000e+03 2.494385242462158203e+00 3.242622137069702148e+00 1.372371464967727661e-01 -5.905024707317352295e-02 2.345606870949268341e-02 2.645764648914337158e-01
2.243000000000000000e+03 1.855038452148437500e+01 -1.310458946228027344e+01 -1.399049520492553711e+00 7.152085900306701660e-01 -2.051522880792617798e-01 -4.305781126022338867e-01
2.244000000000000000e+03 3.816302871704101562e+01 -1.491316318511962891e+01 1.011566221714019775e-01 1.030628776550292969e+01 3.122233390808105469e+00 -1.786534935235977173e-01
2.245000000000000000e+03 2.556823730468750000e+01 -5.472194194793701172e+00 2.768060445785522461e+00 1.054346919059753418e+00 1.146722197532653809e+00 -1.983694076538085938e+00
2.246000000000000000e+03 8.490905761718750000e+00 -1.413388156890869141e+01 -1.963647842407226562e+00 4.979736328125000000e+00 9.048265814781188965e-01 3.071920633316040039e+00
2.247000000000000000e+03 3.333049774169921875e+00 8.470839500427246094e+00 7.718971371650695801e-02 1.113873839378356934e+00 3.573190569877624512e-01 -3.534546196460723877e-01
2.248000000000000000e+03 5.189354419708251953e+00 -1.316191959381103516e+01 -1.294506430625915527e+00 5.511338710784912109e+00 1.265049695968627930e+00 1.354236721992492676e+00
2.249000000000000000e+03 4.240293884277343750e+01 -2.311066246032714844e+01 8.644811511039733887e-01 5.301543712615966797e+00 1.849807381629943848e+00 -1.260145425796508789e+00
2.250000000000000000e+03 3.961334228515625000e+01 -2.224295997619628906e+01 1.310398340225219727e+00 8.576307296752929688e+00 2.966011762619018555e+00 -1.647693365812301636e-01
2.251000000000000000e+03 4.692775344848632812e+01 6.414229869842529297e+00 6.953331828117370605e-01 2.698419809341430664e+00 1.018125891685485840e+00 2.163823366165161133e+00
2.252000000000000000e+03 3.621406936645507812e+01 -1.747458267211914062e+01 -7.853400111198425293e-01 1.036761379241943359e+01 2.874681949615478516e+00 -3.143965005874633789e-01
2.253000000000000000e+03 4.644526290893554688e+01 4.522874832153320312e+00 -4.604614377021789551e-01 2.516796350479125977e+00 6.169005036354064941e-01 2.451189279556274414e+00
2.254000000000000000e+03 4.538176345825195312e+01 6.912015438079833984e+00 9.625697135925292969e-01 4.484181880950927734e+00 1.634025454521179199e+00 2.591555595397949219e+00
2.255000000000000000e+03 4.799524688720703125e+01 -3.006476402282714844e+01 7.956793904304504395e-02 1.852471470832824707e+00 5.796118378639221191e-01 -1.004063367843627930e+00
2.256000000000000000e+03 6.056692886352539062e+01 1.668870568275451660e+00 -1.528699278831481934e+00 1.291597008705139160e+00 -7.113067805767059326e-02 -9.627577066421508789e-01
2.257000000000000000e+03 5.651518249511718750e+01 2.819949865341186523e+00 -1.702776432037353516e+00 3.955278098583221436e-01 -3.921745717525482178e-01 -1.666202247142791748e-01
2.258000000000000000e+03 2.732083320617675781e+00 -2.745535659790039062e+01 -3.306732177734375000e-01 7.879695415496826172e+00 2.264706611633300781e+00 2.165254831314086914e+00
2.259000000000000000e+03 4.413079833984375000e+01 4.046492576599121094e+00 -9.946203827857971191e-01 5.867870807647705078e+00 1.461975097656250000e+00 3.060489892959594727e+00
2.260000000000000000e+03 3.761546707153320312e+01 -1.958959197998046875e+01 4.829021096229553223e-01 1.131956958770751953e+01 3.540741443634033203e+00 8.410739898681640625e-01
2.261000000000000000e+03 1.240060710906982422e+01 -1.266056728363037109e+01 -1.253659129142761230e+00 1.133380532264709473e+00 -3.608355671167373657e-02 1.972309947013854980e+00
2.262000000000000000e+03 2.648164272308349609e+00 3.988792419433593750e+00 2.141073495149612427e-01 4.870624467730522156e-02 7.884407788515090942e-02 1.516582071781158447e-01
2.263000000000000000e+03 2.145435571670532227e+00 3.730876445770263672e+00 1.325403749942779541e-01 -1.189333349466323853e-01 4.082113038748502731e-03 2.128982394933700562e-01
2.264000000000000000e+03 1.326569843292236328e+01 9.868558883666992188e+00 -6.741194725036621094e-01 7.099231719970703125e+00 1.927533745765686035e+00 -3.977611660957336426e-01
2.265000000000000000e+03 1.365471649169921875e+01 1.213601493835449219e+01 -2.084768414497375488e-01 7.342813968658447266e+00 2.140301227569580078e+00 -6.302144527435302734e-01
2.266000000000000000e+03 1.840579795837402344e+01 2.238926410675048828e+00 2.038470029830932617e+00 2.803878784179687500e+00 1.452704668045043945e+00 -9.306671619415283203e-01
2.267000000000000000e+03 1.868057823181152344e+01 -1.174619197845458984e+01 -5.109885931015014648e-01 8.758429884910583496e-01 1.094563230872154236e-01 -6.382951736450195312e-01
2.268000000000000000e+03 3.630593061447143555e+00 -8.316728591918945312e+00 -1.073795333504676819e-01 2.855493545532226562e+00 8.244341611862182617e-01 1.687789797782897949e+00
2.269000000000000000e+03 4.723161697387695312e+00 -3.267576217651367188e+01 -1.077132701873779297e+00 6.439391136169433594e+00 1.608677625656127930e+00 -4.226580634713172913e-02
2.270000000000000000e+03 4.334342002868652344e+00 -3.556176757812500000e+01 -4.375438690185546875e-01 6.912399291992187500e+00 1.942456722259521484e+00 -2.247925400733947754e-01
2.271000000000000000e+03 4.483967304229736328e+00 -1.129563045501708984e+01 -8.244445323944091797e-01 4.385281562805175781e+00 1.068251132965087891e+00 1.532077789306640625e+00
2.272000000000000000e+03 3.520252609252929688e+01 -1.406380844116210938e+01 2.499381154775619507e-01 6.899255275726318359e+00 2.144757986068725586e+00 -1.157977104187011719e+00
2.273000000000000000e+03 7.333358001708984375e+01 2.829059791564941406e+01 1.141555309295654297e-01 5.929677963256835938e+00 1.813150048255920410e+00 -9.732603281736373901e-02
2.274000000000000000e+03 4.742266082763671875e+01 2.215476989746093750e+01 6.651811599731445312e-01 4.592540264129638672e+00 1.577316403388977051e+00 1.074794292449951172e+00
2.275000000000000000e+03 4.587564468383789062e+01 2.679645538330078125e+01 3.351615071296691895e-01 4.304385662078857422e+00 1.391864180564880371e+00 5.708754062652587891e-01
2.276000000000000000e+03 4.494687080383300781e+00 -1.514916038513183594e+01 -9.273188114166259766e-01 6.317215919494628906e+00 1.616969227790832520e+00 4.650800526142120361e-01
2.277000000000000000e+03 7.374805450439453125e+01 -2.907600784301757812e+01 -1.730995923280715942e-01 9.373489379882812500e+00 2.760116815567016602e+00 -1.190661549568176270e+00
2.278000000000000000e+03 4.666980361938476562e+01 2.077617263793945312e+01 6.982040405273437500e-01 4.873915672302246094e+00 1.671635985374450684e+00 1.211981058120727539e+00
2.279000000000000000e+03 7.596160888671875000e+01 -2.714235115051269531e+01 1.650804281234741211e-01 8.866035461425781250e+00 2.709334611892700195e+00 -1.204877376556396484e+00
2.280000000000000000e+03 4.540715026855468750e+01 2.250103569030761719e+01 4.058039486408233643e-01 5.002861499786376953e+00 1.622599720954895020e+00 8.611329793930053711e-01
2.281000000000000000e+03 4.773361968994140625e+01 2.008925247192382812e+01 9.234157204627990723e-01 4.574903011322021484e+00 1.649495720863342285e+00 1.340750217437744141e+00
2.282000000000000000e+03 4.311378860473632812e+01 -2.944923973083496094e+01 9.000331908464431763e-02 4.498497962951660156e+00 1.376550316810607910e+00 -1.578469038009643555e+00
2.283000000000000000e+03 4.548602294921875000e+01 -2.716718292236328125e+01 6.080706715583801270e-01 2.656352758407592773e+00 9.793270230293273926e-01 -1.365476608276367188e+00
2.284000000000000000e+03 4.249734115600585938e+01 -2.738913536071777344e+01 5.511783957481384277e-01 4.940475940704345703e+00 1.647496342658996582e+00 -1.607387542724609375e+00
2.285000000000000000e+03 7.422785186767578125e+01 2.179784011840820312e+01 1.363698095083236694e-01 6.169760704040527344e+00 1.891839146614074707e+00 -3.164631128311157227e-01
2.286000000000000000e+03 7.513994598388671875e+01 2.457673072814941406e+01 9.223007410764694214e-02 6.221373081207275391e+00 1.894080877304077148e+00 -1.921222060918807983e-01
2.287000000000000000e+03 7.547319793701171875e+01 1.938107872009277344e+01 9.384249895811080933e-02 6.494262218475341797e+00 1.976431488990783691e+00 -3.656589984893798828e-01
2.288000000000000000e+03 7.557059478759765625e+01 1.280031871795654297e+01 3.272582218050956726e-02 7.005663394927978516e+00 2.111516714096069336e+00 -5.604784488677978516e-01
2.289000000000000000e+03 7.439142608642578125e+01 1.542160892486572266e+01 1.147138625383377075e-01 6.498109817504882812e+00 1.983847022056579590e+00 -5.873583555221557617e-01
2.290000000000000000e+03 7.614456176757812500e+01 -2.248840904235839844e+01 2.841668426990509033e-01 8.450530052185058594e+00 2.620409011840820312e+00 -6.563377976417541504e-01
2.291000000000000000e+03 7.509994506835937500e+01 -2.254262924194335938e+01 4.124509990215301514e-01 9.102766036987304688e+00 2.854565143585205078e+00 -7.108127474784851074e-01
2.292000000000000000e+03 7.605647277832031250e+01 -1.989851760864257812e+01 3.069025278091430664e-01 8.374088287353515625e+00 2.604297161102294922e+00 -3.603569269180297852e-01
2.293000000000000000e+03 7.426338195800781250e+01 8.873332977294921875e+00 -9.126305580139160156e-02 7.022974491119384766e+00 2.079513549804687500e+00 -6.868032217025756836e-01
2.294000000000000000e+03 7.437992095947265625e+01 4.839734077453613281e+00 -2.668431699275970459e-01 7.443302154541015625e+00 2.152937650680541992e+00 -5.031780600547790527e-01
2.295000000000000000e+03 7.416422271728515625e+01 5.392597913742065430e-01 -4.909754991531372070e-01 7.796419143676757812e+00 2.191632986068725586e+00 -9.403368085622787476e-02
2.296000000000000000e+03 7.410300445556640625e+01 2.033904552459716797e+00 -4.317987263202667236e-01 7.655637264251708984e+00 2.167151451110839844e+00 -2.727942466735839844e-01
2.297000000000000000e+03 7.347382354736328125e+01 2.575015640258789062e+01 1.434123218059539795e-01 5.971286296844482422e+00 1.834409475326538086e+00 -1.930935531854629517e-01
2.298000000000000000e+03 7.500845336914062500e+01 2.591332626342773438e+01 8.411117643117904663e-02 6.174615383148193359e+00 1.877617955207824707e+00 -1.544487029314041138e-01
2.299000000000000000e+03 7.406359100341796875e+01 -6.700757980346679688e+00 -2.607908546924591064e-01 8.511519432067871094e+00 2.475218772888183594e+00 6.474729776382446289e-01
2.300000000000000000e+03 7.544602966308593750e+01 -5.280984401702880859e+00 -2.324942797422409058e-01 8.325088500976562500e+00 2.427778482437133789e+00 6.421863436698913574e-01
2.301000000000000000e+03 1.978724479675292969e+01 -1.872394323348999023e+00 3.638534784317016602e+00 1.387592434883117676e+00 1.507838129997253418e+00 -1.706972599029541016e+00
2.302000000000000000e+03 7.421218872070312500e+01 -9.459547996520996094e+00 4.986772313714027405e-02 8.780142784118652344e+00 2.649003267288208008e+00 7.539314627647399902e-01
2.303000000000000000e+03 7.431510162353515625e+01 1.159849739074707031e+01 1.731852814555168152e-02 6.774092197418212891e+00 2.037423133850097656e+00 -6.895637512207031250e-01
2.304000000000000000e+03 7.550522613525390625e+01 -1.298872089385986328e+01 3.573776185512542725e-01 8.422399520874023438e+00 2.633933067321777344e+00 5.756806731224060059e-01
2.305000000000000000e+03 7.236990356445312500e+01 -1.805346870422363281e+01 6.445599198341369629e-01 1.154415416717529297e+01 3.656614065170288086e+00 -5.059989690780639648e-01
2.306000000000000000e+03 7.533513641357421875e+01 -1.140842819213867188e+01 2.198795676231384277e-01 8.478665351867675781e+00 2.609563589096069336e+00 7.616806626319885254e-01
2.307000000000000000e+03 7.444574737548828125e+01 -1.471438312530517578e+01 6.309563517570495605e-01 9.207112312316894531e+00 2.951420783996582031e+00 2.357825636863708496e-01
2.308000000000000000e+03 7.535723114013671875e+01 -9.773946762084960938e+00 4.672071337699890137e-02 8.464376449584960938e+00 2.553329229354858398e+00 8.065382838249206543e-01
2.309000000000000000e+03 7.503985595703125000e+01 -2.132921218872070312e+01 4.064823687076568604e-01 9.226562500000000000e+00 2.889913558959960938e+00 -5.478623509407043457e-01
2.310000000000000000e+03 7.146838378906250000e+01 -4.080444335937500000e+00 -6.241858601570129395e-01 7.922371387481689453e+00 2.189455747604370117e+00 4.398711025714874268e-02
2.311000000000000000e+03 7.427685546875000000e+01 -3.628613233566284180e+00 -4.053884446620941162e-01 8.185769081115722656e+00 2.334114313125610352e+00 4.098702371120452881e-01
2.312000000000000000e+03 7.411232757568359375e+01 -5.099799633026123047e+00 -3.818052709102630615e-01 8.335119247436523438e+00 2.385994195938110352e+00 5.268274545669555664e-01
2.313000000000000000e+03 7.399260711669921875e+01 -2.687130165100097656e+01 3.804242610931396484e-01 9.493259429931640625e+00 2.962105035781860352e+00 -1.203282713890075684e+00
2.314000000000000000e+03 7.608684539794921875e+01 -2.377622222900390625e+01 3.193435072898864746e-01 8.492525100708007812e+00 2.643560647964477539e+00 -8.250283598899841309e-01
2.315000000000000000e+03 7.417317962646484375e+01 1.798379516601562500e+01 1.409142315387725830e-01 6.319758415222167969e+00 1.938201785087585449e+00 -4.941722750663757324e-01
2.316000000000000000e+03 7.589841461181640625e+01 -2.506870269775390625e+01 2.639887332916259766e-01 8.698719978332519531e+00 2.688812494277954102e+00 -1.010178446769714355e+00
2.317000000000000000e+03 7.427663421630859375e+01 -8.181230545043945312e+00 -1.413445770740509033e-01 8.630120277404785156e+00 2.546632766723632812e+00 7.419956922531127930e-01
2.318000000000000000e+03 7.437084197998046875e+01 -2.250990629196166992e+00 -4.381058514118194580e-01 8.102297782897949219e+00 2.299257516860961914e+00 2.743499875068664551e-01
2.319000000000000000e+03 7.426834869384765625e+01 7.498242378234863281e+00 -1.279855668544769287e-01 7.172070503234863281e+00 2.113225460052490234e+00 -6.443311572074890137e-01
2.320000000000000000e+03 7.148165130615234375e+01 3.304349136352539062e+01 5.167770758271217346e-02 5.749836921691894531e+00 1.740454316139221191e+00 9.723733179271221161e-03
2.321000000000000000e+03 7.352572631835937500e+01 -3.121938514709472656e+01 -5.790464878082275391e-01 9.125206947326660156e+00 2.563848257064819336e+00 -9.792377352714538574e-01
2.322000000000000000e+03 7.437355804443359375e+01 1.417140388488769531e+01 8.531155437231063843e-02 6.595809459686279297e+00 2.004336357116699219e+00 -6.309543848037719727e-01
2.323000000000000000e+03 7.418062591552734375e+01 2.065853881835937500e+01 1.462261527776718140e-01 6.194245338439941406e+00 1.902141451835632324e+00 -3.808221518993377686e-01
2.324000000000000000e+03 4.243244552612304688e+01 -2.582618331909179688e+01 9.043815135955810547e-01 5.100748538970947266e+00 1.801539063453674316e+00 -1.507159709930419922e+00
2.325000000000000000e+03 7.395750427246093750e+01 3.158772087097167969e+01 4.270919412374496460e-02 6.000069618225097656e+00 1.812833666801452637e+00 -2.189226634800434113e-02
2.326000000000000000e+03 9.888504028320312500e+00 2.857044410705566406e+01 -8.746255189180374146e-02 5.060356140136718750e+00 1.491868138313293457e+00 -1.267540693283081055e+00
2.327000000000000000e+03 4.394030094146728516e+00 2.688344764709472656e+01 6.384739279747009277e-02 3.605363845825195312e+00 1.100763320922851562e+00 -1.081881284713745117e+00
2.328000000000000000e+03 7.449663543701171875e+01 -3.511774063110351562e+01 -5.375306606292724609e-01 8.807380676269531250e+00 2.480955123901367188e+00 -6.068695783615112305e-01
2.329000000000000000e+03 1.717973899841308594e+01 -1.174379253387451172e+01 -6.761154532432556152e-01 9.424065351486206055e-01 7.988732308149337769e-02 -3.383145332336425781e-01
2.330000000000000000e+03 9.081931114196777344e+00 2.408337402343750000e+01 5.212259292602539062e-01 5.146542072296142578e+00 1.700330376625061035e+00 -1.178534626960754395e+00
2.331000000000000000e+03 1.204996490478515625e+01 2.625132369995117188e+01 3.883556723594665527e-01 6.153180599212646484e+00 1.962460875511169434e+00 -8.330203890800476074e-01
2.332000000000000000e+03 1.215860652923583984e+01 1.593433094024658203e+01 5.105876922607421875e-01 7.240570545196533203e+00 2.325347423553466797e+00 -6.364829540252685547e-01
2.333000000000000000e+03 1.045796489715576172e+01 1.856825256347656250e+01 6.950965523719787598e-01 6.214650154113769531e+00 2.072924137115478516e+00 -7.467172741889953613e-01
2.334000000000000000e+03 5.754806995391845703e+00 2.814418029785156250e+01 1.203311234712600708e-02 4.116598606109619141e+00 1.238589525222778320e+00 -1.263699412345886230e+00
2.335000000000000000e+03 3.959115028381347656e+00 1.848506355285644531e+01 1.392047405242919922e-01 2.376220464706420898e+00 7.546275258064270020e-01 -4.940825998783111572e-01
2.336000000000000000e+03 3.499298810958862305e+00 1.179391288757324219e+01 -4.147576913237571716e-02 1.568904638290405273e+00 4.582286477088928223e-01 -3.284941017627716064e-01
2.337000000000000000e+03 4.606226921081542969e+00 3.196837615966796875e+01 -1.755159795284271240e-01 4.342731952667236328e+00 1.250164747238159180e+00 -9.799101948738098145e-01
2.338000000000000000e+03 3.801074218750000000e+01 -1.069848823547363281e+01 1.318983435630798340e+00 9.633995056152343750e+00 3.285893440246582031e+00 5.854159966111183167e-02
2.339000000000000000e+03 4.621742248535156250e+01 1.010549354553222656e+01 1.839541792869567871e+00 4.397846698760986328e+00 1.871216535568237305e+00 2.464603185653686523e+00
2.340000000000000000e+03 4.590044784545898438e+01 1.203865337371826172e+01 1.748407721519470215e+00 4.901019096374511719e+00 1.994827985763549805e+00 2.386776924133300781e+00
2.341000000000000000e+03 5.859694957733154297e+00 2.156482887268066406e+01 2.851731777191162109e-01 3.584515094757080078e+00 1.160906434059143066e+00 -8.856819272041320801e-01
2.342000000000000000e+03 5.579886913299560547e+00 1.952903747558593750e+01 3.176064789295196533e-01 3.366253137588500977e+00 1.105157852172851562e+00 -6.964310407638549805e-01
2.343000000000000000e+03 5.377988815307617188e+00 2.063928222656250000e+01 3.035026192665100098e-01 3.308043003082275391e+00 1.083463668823242188e+00 -8.240475058555603027e-01
2.344000000000000000e+03 5.617542743682861328e+00 1.796475982666015625e+01 2.475440055131912231e-01 3.276094675064086914e+00 1.057091593742370605e+00 -5.762654542922973633e-01
2.345000000000000000e+03 5.117353916168212891e+00 1.545327758789062500e+01 8.981398493051528931e-02 2.820807695388793945e+00 8.731865286827087402e-01 -4.132689237594604492e-01
2.346000000000000000e+03 3.216209793090820312e+01 -1.272306728363037109e+01 1.395897150039672852e+00 2.422688484191894531e+00 1.145575642585754395e+00 -1.566213130950927734e+00
2.347000000000000000e+03 5.524875259399414062e+01 3.139688491821289062e+00 -1.695332765579223633e+00 3.944937884807586670e-01 -3.902516663074493408e-01 -1.887892931699752808e-02
2.348000000000000000e+03 5.337946319580078125e+01 5.005854606628417969e+00 -6.125857234001159668e-01 5.446195602416992188e-01 -2.038984186947345734e-02 1.024857014417648315e-01
2.349000000000000000e+03 9.652940750122070312e+00 -1.312574577331542969e+01 -1.692378878593444824e+00 3.559976339340209961e+00 5.602792501449584961e-01 3.154368638992309570e+00
2.350000000000000000e+03 6.038700580596923828e+00 3.511148452758789062e+01 -3.998966217041015625e-01 4.595566272735595703e+00 1.258700966835021973e+00 -8.736026883125305176e-01
2.351000000000000000e+03 5.968810558319091797e+00 1.382350730895996094e+01 -1.843427121639251709e-02 3.312487602233886719e+00 9.882159829139709473e-01 -4.374594986438751221e-01
2.352000000000000000e+03 4.521331310272216797e+00 1.163856601715087891e+01 -6.587316095829010010e-02 2.227891206741333008e+00 6.486054062843322754e-01 -4.174065887928009033e-01
2.353000000000000000e+03 4.944427871704101562e+01 2.008112907409667969e+01 1.111264467239379883e+00 4.120355129241943359e+00 1.569485783576965332e+00 1.313131332397460938e+00
2.354000000000000000e+03 1.428842449188232422e+01 9.771368026733398438e+00 -5.829802751541137695e-01 7.039482116699218750e+00 1.936950564384460449e+00 -4.127563536167144775e-01
2.355000000000000000e+03 1.475612926483154297e+01 7.216754436492919922e+00 -6.037836670875549316e-01 6.816914081573486328e+00 1.863939046859741211e+00 -1.200823858380317688e-01
2.356000000000000000e+03 5.450410461425781250e+01 4.662916660308837891e+00 -8.309930562973022461e-01 5.693700313568115234e-01 -7.848691195249557495e-02 -1.021467894315719604e-01
2.357000000000000000e+03 3.933372879028320312e+01 -2.356682777404785156e+01 1.592556595802307129e+00 8.565821647644042969e+00 3.047513484954833984e+00 -2.468950003385543823e-01
2.358000000000000000e+03 1.404023456573486328e+01 1.095192623138427734e+01 -3.920761048793792725e-01 7.179944992065429688e+00 2.036360502243041992e+00 -5.582919120788574219e-01
2.359000000000000000e+03 1.581983470916748047e+01 5.350969314575195312e+00 1.284773498773574829e-01 5.905344486236572266e+00 1.810146570205688477e+00 9.052719175815582275e-02
2.360000000000000000e+03 1.155285549163818359e+01 2.017754554748535156e+00 1.835088729858398438e+00 1.105576610565185547e+01 3.867256402969360352e+00 9.172568917274475098e-01
2.361000000000000000e+03 6.237922668457031250e+01 2.493968963623046875e+00 -1.145018815994262695e+00 2.477048635482788086e+00 3.996089100837707520e-01 -1.384688854217529297e+00
2.362000000000000000e+03 6.148828506469726562e+01 -1.995270699262619019e-02 -1.858830451965332031e+00 1.386209011077880859e+00 -1.417864412069320679e-01 -8.731745481491088867e-01
2.363000000000000000e+03 3.600057601928710938e+01 -1.188201045989990234e+01 1.219812035560607910e+00 7.229920864105224609e+00 2.534919738769531250e+00 -7.244368791580200195e-01
2.364000000000000000e+03 3.465106201171875000e+01 -1.519215202331542969e+01 -3.708395957946777344e-01 6.434132099151611328e+00 1.818987727165222168e+00 -1.628658175468444824e+00
2.365000000000000000e+03 4.829958724975585938e+01 2.595067405700683594e+01 4.543243050575256348e-01 4.216464519500732422e+00 1.401236653327941895e+00 8.568109869956970215e-01
2.366000000000000000e+03 4.593287277221679688e+01 2.836452484130859375e+01 1.975183933973312378e-01 4.050301551818847656e+00 1.274345993995666504e+00 5.766326785087585449e-01
2.367000000000000000e+03 4.513444137573242188e+01 1.517073345184326172e+01 1.279062867164611816e+00 5.815910816192626953e+00 2.128492116928100586e+00 2.064151048660278320e+00
2.368000000000000000e+03 4.647253036499023438e+01 1.511183357238769531e+01 1.487045764923095703e+00 4.938548088073730469e+00 1.927678108215332031e+00 2.017036199569702148e+00
2.369000000000000000e+03 7.223105621337890625e+01 -1.671803665161132812e+01 8.979243636131286621e-01 1.145209598541259766e+01 3.705006122589111328e+00 -4.334374666213989258e-01
2.370000000000000000e+03 3.991423034667968750e+01 -1.938778495788574219e+01 2.189904451370239258e-01 9.813740730285644531e+00 3.009819269180297852e+00 5.292158126831054688e-01
2.371000000000000000e+03 3.847292709350585938e+01 -1.819772911071777344e+01 1.381985843181610107e-01 1.084802150726318359e+01 3.295866012573242188e+00 7.654288411140441895e-01
2.372000000000000000e+03 7.339538574218750000e+01 -8.670111656188964844e+00 -8.460646122694015503e-02 8.974071502685546875e+00 2.666839599609375000e+00 6.356374025344848633e-01
2.373000000000000000e+03 7.124472808837890625e+01 -1.133168125152587891e+01 4.733457267284393311e-01 1.044865226745605469e+01 3.276599407196044922e+00 -5.970030277967453003e-02
2.374000000000000000e+03 1.342271041870117188e+01 -1.272188472747802734e+01 -1.323325514793395996e+00 9.804334044456481934e-01 -1.028676480054855347e-01 1.324562549591064453e+00
2.375000000000000000e+03 6.944012165069580078e+00 -1.105828475952148438e+01 -1.188569068908691406e+00 4.627040386199951172e+00 1.031541347503662109e+00 2.660232782363891602e+00
2.376000000000000000e+03 6.657312393188476562e+00 2.490811157226562500e+01 2.751950025558471680e-01 4.149246215820312500e+00 1.327332258224487305e+00 -1.228108048439025879e+00
2.377000000000000000e+03 6.101965332031250000e+01 2.945090532302856445e+00 -1.072788834571838379e+00 1.796345472335815430e+00 2.170670032501220703e-01 -1.171770095825195312e+00
2.378000000000000000e+03 6.721675109863281250e+01 -4.104606246948242188e+01 -3.278219699859619141e-02 4.394999027252197266e+00 1.308665037155151367e+00 1.766370087862014771e-01
2.379000000000000000e+03 5.964464187622070312e+01 3.357582569122314453e+00 -1.007672786712646484e+00 1.262047886848449707e+00 7.631254196166992188e-02 -9.361391067504882812e-01
2.380000000000000000e+03 4.335709762573242188e+01 5.741242885589599609e+00 2.496449202299118042e-01 6.644430637359619141e+00 2.068222522735595703e+00 2.912404298782348633e+00
2.381000000000000000e+03 7.328721618652343750e+01 -2.397489356994628906e+01 6.829892992973327637e-01 1.023449325561523438e+01 3.275244712829589844e+00 -7.456809878349304199e-01
2.382000000000000000e+03 2.893165588378906250e+01 -1.320352458953857422e+01 7.903654575347900391e-01 4.577750861644744873e-01 3.744421601295471191e-01 -1.065130352973937988e+00
2.383000000000000000e+03 2.738067817687988281e+01 -1.317771434783935547e+01 4.362708330154418945e-01 1.445108354091644287e-01 1.742345094680786133e-01 -9.131060242652893066e-01
2.384000000000000000e+03 1.878559494018554688e+01 -9.570094347000122070e-01 3.601981639862060547e+00 1.892484068870544434e+00 1.648339748382568359e+00 -1.574701428413391113e+00
2.385000000000000000e+03 7.393273925781250000e+01 -2.152503967285156250e+01 5.348418354988098145e-01 9.988078117370605469e+00 3.156876087188720703e+00 -5.520557761192321777e-01
2.386000000000000000e+03 5.086189651489257812e+01 4.891941547393798828e+00 -7.052075266838073730e-01 4.842120707035064697e-01 -6.629864871501922607e-02 4.846436679363250732e-01
2.387000000000000000e+03 4.463917541503906250e+01 6.160350799560546875e+00 6.774080395698547363e-01 5.118659019470214844e+00 1.738820195198059082e+00 2.751973628997802734e+00
2.388000000000000000e+03 5.450908660888671875e+01 6.889281272888183594e+00 2.949452102184295654e-01 9.036594033241271973e-01 3.595813810825347900e-01 -5.305910855531692505e-02
2.389000000000000000e+03 7.155908966064453125e+01 -1.262694358825683594e+01 8.210667967796325684e-01 1.078131198883056641e+01 3.480713605880737305e+00 -6.408945471048355103e-02
2.390000000000000000e+03 7.236503601074218750e+01 -1.100489139556884766e+01 3.427991569042205811e-01 9.777258872985839844e+00 3.036017417907714844e+00 3.261325359344482422e-01
2.391000000000000000e+03 1.334861755371093750e+01 3.545263671875000000e+01 -1.113638043403625488e+00 4.036039829254150391e+00 8.767204880714416504e-01 -3.791417181491851807e-01
2.392000000000000000e+03 8.444281578063964844e+00 2.132168388366699219e+01 5.706760287284851074e-01 4.909090518951416016e+00 1.643929958343505859e+00 -9.519422054290771484e-01
2.393000000000000000e+03 3.947999191284179688e+01 -2.126052474975585938e+01 8.709540963172912598e-01 9.158635139465332031e+00 3.008876800537109375e+00 4.293494522571563721e-01
2.394000000000000000e+03 4.027154922485351562e+01 -2.434791564941406250e+01 1.441089272499084473e+00 7.449719429016113281e+00 2.667242765426635742e+00 -7.744551897048950195e-01
2.395000000000000000e+03 1.320143318176269531e+01 1.334459495544433594e+01 1.670359820127487183e-02 7.415889739990234375e+00 2.229778051376342773e+00 -6.437036991119384766e-01
2.396000000000000000e+03 2.964073753356933594e+01 -8.891871452331542969e+00 2.601994991302490234e+00 7.353941798210144043e-01 1.001216769218444824e+00 -1.834276080131530762e+00
2.397000000000000000e+03 3.107405471801757812e+01 -6.914921283721923828e+00 3.024118423461914062e+00 8.626224994659423828e-01 1.166022300720214844e+00 -1.753565549850463867e+00
2.398000000000000000e+03 3.944735717773437500e+01 -5.066999435424804688e+00 1.669300436973571777e+00 1.071468353271484375e+01 3.715195178985595703e+00 1.720660805702209473e+00
2.399000000000000000e+03 3.458782196044921875e+01 -4.568750858306884766e+00 2.257332086563110352e+00 2.686244964599609375e+00 1.483073115348815918e+00 7.893758825957775116e-03
2.400000000000000000e+03 3.802201461791992188e+01 -6.474864959716796875e+00 2.155833721160888672e+00 8.527741432189941406e+00 3.205072641372680664e+00 8.670635223388671875e-01
2.401000000000000000e+03 1.104928302764892578e+01 2.000187683105468750e+01 7.306494116783142090e-01 6.588919162750244141e+00 2.195870637893676758e+00 -8.242993950843811035e-01
2.402000000000000000e+03 6.582378387451171875e+00 1.769305229187011719e+01 2.933470010757446289e-01 3.786865234375000000e+00 1.224063634872436523e+00 -6.066893339157104492e-01
2.403000000000000000e+03 3.877197265625000000e+01 -7.076867818832397461e-01 -5.009602904319763184e-01 8.054008483886718750e+00 2.265914678573608398e+00 1.293716073036193848e+00
2.404000000000000000e+03 3.637425994873046875e+01 -3.429650878906250000e+01 -1.535747766494750977e+00 5.718894958496093750e+00 1.254944205284118652e+00 1.809949278831481934e-01
2.405000000000000000e+03 3.975560760498046875e+01 -2.973455619812011719e+01 -1.148592084646224976e-01 6.279062747955322266e+00 1.849261164665222168e+00 -1.189210057258605957e+00
2.406000000000000000e+03 2.097293090820312500e+01 -1.446306514739990234e+01 -1.641007065773010254e+00 5.641480684280395508e-01 -3.230576813220977783e-01 -3.371992111206054688e-01
2.407000000000000000e+03 2.190045547485351562e+01 -1.586514759063720703e+01 -2.135615825653076172e+00 5.009422898292541504e-01 -4.904020726680755615e-01 -1.117722690105438232e-01
2.408000000000000000e+03 3.080892944335937500e+01 -5.229488849639892578e+00 2.990099668502807617e+00 2.000550627708435059e-01 9.570464491844177246e-01 -1.754462361335754395e+00
2.409000000000000000e+03 7.426940155029296875e+01 -1.326538753509521484e+01 5.522475838661193848e-01 9.158082962036132812e+00 2.913099050521850586e+00 4.935100674629211426e-01
2.410000000000000000e+03 6.902189636230468750e+01 -3.688221740722656250e+01 -5.487769842147827148e-01 5.893784046173095703e+00 1.603502035140991211e+00 2.830456793308258057e-01
2.411000000000000000e+03 7.154386138916015625e+01 -3.348881912231445312e+01 -9.350140094757080078e-01 8.115830421447753906e+00 2.154244899749755859e+00 -3.093858063220977783e-01
2.412000000000000000e+03 3.457760620117187500e+01 -6.272679805755615234e+00 2.718960762023925781e+00 3.081914424896240234e+00 1.740262508392333984e+00 -3.261073827743530273e-01
2.413000000000000000e+03 2.665172004699707031e+01 -8.396454811096191406e+00 2.212915420532226562e+00 4.643409550189971924e-01 8.031768798828125000e-01 -1.818122029304504395e+00
2.414000000000000000e+03 2.518312454223632812e+01 -1.171422290802001953e+01 6.947231888771057129e-01 3.411853015422821045e-01 3.107725679874420166e-01 -1.039700388908386230e+00
2.415000000000000000e+03 4.037251663208007812e+01 -2.859177589416503906e+01 2.411630898714065552e-01 6.309226512908935547e+00 1.965116977691650391e+00 -1.283670783042907715e+00
2.416000000000000000e+03 7.219960784912109375e+01 4.095354080200195312e+01 -6.738867610692977905e-03 5.880215167999267578e+00 1.762042880058288574e+00 7.576958276331424713e-03
2.417000000000000000e+03 8.893717765808105469e+00 1.694390678405761719e+01 3.713407516479492188e-01 5.115953922271728516e+00 1.646188378334045410e+00 -5.943837761878967285e-01
2.418000000000000000e+03 1.133392810821533203e+01 2.164709281921386719e+01 7.522920370101928711e-01 6.725136280059814453e+00 2.243228435516357422e+00 -8.440988659858703613e-01
2.419000000000000000e+03 3.984237670898437500e+01 -2.684062957763671875e+01 1.003085970878601074e+00 7.055799961090087891e+00 2.417665719985961914e+00 -1.045262098312377930e+00
2.420000000000000000e+03 6.998049926757812500e+01 -5.983564376831054688e+00 -3.661839067935943604e-01 8.113144874572753906e+00 2.324088096618652344e+00 -4.327705204486846924e-01
2.421000000000000000e+03 1.112836074829101562e+01 2.811187362670898438e+01 5.125829018652439117e-03 5.437195301055908203e+00 1.632696270942687988e+00 -1.081806302070617676e+00
2.422000000000000000e+03 9.167648315429687500e+00 3.086445808410644531e+01 -3.716891109943389893e-01 4.784966468811035156e+00 1.323983192443847656e+00 -1.242359638214111328e+00
2.423000000000000000e+03 1.178974342346191406e+01 2.473830795288085938e+01 6.069392561912536621e-01 6.422845840454101562e+00 2.108935594558715820e+00 -8.248926997184753418e-01
2.424000000000000000e+03 1.004902458190917969e+01 2.213146209716796875e+01 6.910262107849121094e-01 5.790380477905273438e+00 1.944422006607055664e+00 -9.814413785934448242e-01
2.425000000000000000e+03 4.500264739990234375e+01 3.115029335021972656e+01 -2.515489757061004639e-01 3.755762338638305664e+00 1.051263928413391113e+00 5.217748880386352539e-01
2.426000000000000000e+03 6.566897583007812500e+01 1.099164128303527832e+00 -1.264879107475280762e+00 4.593667507171630859e+00 9.986365437507629395e-01 -1.322181344032287598e+00
2.427000000000000000e+03 6.487773895263671875e+01 2.224862575531005859e+00 -1.162382364273071289e+00 4.045440196990966797e+00 8.649173378944396973e-01 -1.449449419975280762e+00
2.428000000000000000e+03 1.318345069885253906e+01 3.801803588867187500e+01 -1.171070337295532227e+00 3.775470256805419922e+00 7.813200354576110840e-01 -2.403948605060577393e-01
2.429000000000000000e+03 7.044090270996093750e+01 -3.502170562744140625e+01 -9.085621833801269531e-01 7.380726814270019531e+00 1.941649436950683594e+00 1.517282575368881226e-01
2.430000000000000000e+03 4.193971252441406250e+01 -2.814498138427734375e+01 4.102271795272827148e-01 5.317275524139404297e+00 1.718250751495361328e+00 -1.515156269073486328e+00
2.431000000000000000e+03 1.317803573608398438e+01 3.067393684387207031e+01 -5.051974654197692871e-01 5.007812976837158203e+00 1.350784659385681152e+00 -5.653371214866638184e-01
2.432000000000000000e+03 7.227065086364746094e+00 2.962603759765625000e+01 -1.343742907047271729e-01 4.508690834045410156e+00 1.312294960021972656e+00 -1.324537277221679688e+00
2.433000000000000000e+03 2.741039276123046875e+01 -4.123246002197265625e+01 -6.182473897933959961e-01 1.369944691658020020e+00 2.255091965198516846e-01 1.852900087833404541e-01
2.434000000000000000e+03 2.641352081298828125e+01 -3.610291290283203125e+01 -6.377804279327392578e-01 8.648576736450195312e-01 6.812316179275512695e-02 6.167023181915283203e-01
2.435000000000000000e+03 2.845633506774902344e+01 -3.679876708984375000e+01 -7.677721977233886719e-01 1.672139763832092285e+00 2.713102698326110840e-01 8.811141848564147949e-01
2.436000000000000000e+03 3.224568939208984375e+01 -4.132783126831054688e+01 -1.444133281707763672e+00 3.526700258255004883e+00 6.247701048851013184e-01 1.830149888992309570e-01
2.437000000000000000e+03 4.858175277709960938e+00 2.870441675186157227e+00 4.931240975856781006e-01 4.401955604553222656e-01 2.799958884716033936e-01 -1.065398305654525757e-01
2.438000000000000000e+03 5.239467144012451172e+00 2.379729032516479492e+00 4.569256305694580078e-01 3.870180249214172363e-01 2.531830966472625732e-01 -1.082657724618911743e-01
2.439000000000000000e+03 5.456345558166503906e+00 -2.693243026733398438e+00 1.600253462791442871e+00 8.242298364639282227e-01 7.273449897766113281e-01 1.437533736228942871e+00
2.440000000000000000e+03 9.577997207641601562e+00 2.487812995910644531e+00 8.288247585296630859e-01 7.993918418884277344e+00 2.646822929382324219e+00 -3.129455327987670898e+00
2.441000000000000000e+03 8.554847717285156250e+00 2.487631082534790039e+00 1.558413982391357422e+00 4.143042087554931641e+00 1.710436820983886719e+00 -2.944741249084472656e+00
2.442000000000000000e+03 8.820457458496093750e+00 -2.231299638748168945e+00 3.312536954879760742e+00 5.133584022521972656e+00 2.533836364746093750e+00 4.325150012969970703e+00
2.443000000000000000e+03 8.837164878845214844e+00 -2.484752655029296875e+00 3.006026506423950195e+00 5.341113090515136719e+00 2.504142045974731445e+00 4.230627059936523438e+00
2.444000000000000000e+03 7.434731960296630859e+00 -2.616429805755615234e+00 2.792008399963378906e+00 2.185251235961914062e+00 1.493177890777587891e+00 2.972530841827392578e+00
2.445000000000000000e+03 7.656334400177001953e+00 2.884651660919189453e+00 1.372366547584533691e+00 2.527498722076416016e+00 1.169959545135498047e+00 -1.978342533111572266e+00
2.446000000000000000e+03 7.892553806304931641e+00 -2.189656496047973633e+00 3.330358982086181641e+00 2.441650867462158203e+00 1.731602907180786133e+00 3.278145551681518555e+00
2.447000000000000000e+03 3.898844957351684570e+00 6.222624778747558594e+00 2.943609356880187988e-01 1.015405893325805664e+00 3.929300606250762939e-01 -3.636606037616729736e-01
2.448000000000000000e+03 9.098518371582031250e+00 -2.613973140716552734e+00 2.656012535095214844e+00 6.262371063232421875e+00 2.675515174865722656e+00 4.188522815704345703e+00
2.449000000000000000e+03 1.246389484405517578e+01 -4.157676994800567627e-01 7.161931037902832031e+00 7.988536357879638672e+00 4.545140266418457031e+00 -4.631760418415069580e-01
2.450000000000000000e+03 1.039984130859375000e+01 -2.457216978073120117e+00 1.994605660438537598e+00 1.017478561401367188e+01 3.650817394256591797e+00 2.265310049057006836e+00
2.451000000000000000e+03 9.323689460754394531e+00 2.650011539459228516e+00 9.301636219024658203e-01 6.883747577667236328e+00 2.344173431396484375e+00 -3.208078145980834961e+00
2.452000000000000000e+03 1.123711872100830078e+01 -2.185848474502563477e+00 2.858412027359008789e+00 1.067867088317871094e+01 4.061124801635742188e+00 8.358854800462722778e-02
2.453000000000000000e+03 1.268152809143066406e+01 3.851541280746459961e-01 6.462013721466064453e+00 7.802155971527099609e+00 4.279251098632812500e+00 7.855758070945739746e-01
2.454000000000000000e+03 1.027848052978515625e+01 2.694965362548828125e+00 3.065538704395294189e-01 9.831198692321777344e+00 3.041325807571411133e+00 -1.907244324684143066e+00
2.455000000000000000e+03 1.229928684234619141e+01 8.157280087471008301e-01 5.917344093322753906e+00 9.040706634521484375e+00 4.487415313720703125e+00 1.594694256782531738e+00
2.456000000000000000e+03 1.143200206756591797e+01 -1.751975178718566895e+00 4.070947647094726562e+00 1.089245510101318359e+01 4.489020824432373047e+00 -8.253148198127746582e-01
2.457000000000000000e+03 1.192076873779296875e+01 -7.842949032783508301e-01 7.399113655090332031e+00 9.557516098022460938e+00 5.086988925933837891e+00 -1.158786416053771973e+00
2.458000000000000000e+03 3.544138669967651367e+00 -6.508844852447509766e+00 2.809590697288513184e-01 2.100279331207275391e+00 7.143715620040893555e-01 1.613760948181152344e+00
2.459000000000000000e+03 1.575841712951660156e+01 3.441796064376831055e+00 1.467824220657348633e+00 5.404208183288574219e+00 2.061609745025634766e+00 1.522563248872756958e-01
2.460000000000000000e+03 1.177843570709228516e+01 1.321936130523681641e+00 4.208621025085449219e+00 1.083436679840087891e+01 4.512896537780761719e+00 1.949392080307006836e+00
2.461000000000000000e+03 1.148795700073242188e+01 2.330651283264160156e+00 1.281652569770812988e+00 1.080912780761718750e+01 3.627234220504760742e+00 5.280336737632751465e-01
2.462000000000000000e+03 3.447115421295166016e+00 2.926692485809326172e+00 2.276784032583236694e-01 1.257797181606292725e-01 1.060374379158020020e-01 2.083144485950469971e-01
2.463000000000000000e+03 4.151577949523925781e+00 3.056157350540161133e+00 3.611218929290771484e-01 2.936399281024932861e-01 1.964285522699356079e-01 6.539475172758102417e-02
2.464000000000000000e+03 2.884146690368652344e+00 2.907783508300781250e+00 1.392980217933654785e-01 6.090510636568069458e-03 4.361655935645103455e-02 2.771900892257690430e-01
2.465000000000000000e+03 3.124945402145385742e+00 -5.013715744018554688e+00 4.817359745502471924e-01 1.299177885055541992e+00 5.342741608619689941e-01 1.162132024765014648e+00
2.466000000000000000e+03 3.850908041000366211e+00 -7.192636489868164062e+00 1.470454633235931396e-01 2.475873231887817383e+00 7.868756055831909180e-01 1.795258045196533203e+00
2.467000000000000000e+03 2.924313783645629883e+00 6.008339881896972656e+00 2.357446700334548950e-01 5.023176670074462891e-01 2.214187085628509521e-01 -1.708117276430130005e-01
2.468000000000000000e+03 3.905429124832153320e+00 7.170927047729492188e+00 1.502348780632019043e-01 1.248921394348144531e+00 4.197468757629394531e-01 -4.165581166744232178e-01
2.469000000000000000e+03 4.458947658538818359e+00 -1.041734504699707031e+01 -6.482411026954650879e-01 4.028746128082275391e+00 1.014151453971862793e+00 1.727252840995788574e+00
2.470000000000000000e+03 4.555118083953857422e+00 -9.615925788879394531e+00 -4.887976944446563721e-01 3.738291740417480469e+00 9.748482108116149902e-01 1.914237141609191895e+00
2.471000000000000000e+03 2.003197860717773438e+01 -1.319637203216552734e+01 -1.224659919738769531e+00 6.930440068244934082e-01 -1.594847887754440308e-01 -5.145316720008850098e-01
2.472000000000000000e+03 2.353113365173339844e+01 -1.474658107757568359e+01 -1.298560380935668945e+00 3.682930171489715576e-01 -2.790802121162414551e-01 -3.088757991790771484e-01
2.473000000000000000e+03 2.147719192504882812e+01 -4.734653472900390625e+00 3.101473093032836914e+00 1.056015372276306152e+00 1.247246503829956055e+00 -1.562849164009094238e+00
2.474000000000000000e+03 2.147544860839843750e+01 -3.455972433090209961e+00 3.549333810806274414e+00 1.046825289726257324e+00 1.378847718238830566e+00 -1.607896089553833008e+00
2.475000000000000000e+03 6.109464168548583984e+00 -1.106679534912109375e+01 -1.129248619079589844e+00 4.675932407379150391e+00 1.064005255699157715e+00 2.335279941558837891e+00
2.476000000000000000e+03 4.692365169525146484e+00 -1.222458076477050781e+01 -1.002259135246276855e+00 4.843325614929199219e+00 1.152319908142089844e+00 1.377243638038635254e+00
2.477000000000000000e+03 1.884299087524414062e+01 -1.848127245903015137e+00 3.698171138763427734e+00 1.787857294082641602e+00 1.645808577537536621e+00 -1.633386611938476562e+00
2.478000000000000000e+03 1.961214256286621094e+01 -2.847393274307250977e+00 3.669703483581542969e+00 1.403006196022033691e+00 1.521812915802001953e+00 -1.660296440124511719e+00
2.479000000000000000e+03 1.302117347717285156e+01 1.083751010894775391e+01 -5.344005823135375977e-01 7.068407058715820312e+00 1.960201859474182129e+00 -4.350494146347045898e-01
2.480000000000000000e+03 5.537434577941894531e+00 7.277544975280761719e+00 1.428326070308685303e-01 2.402604579925537109e+00 7.636311650276184082e-01 -7.646759152412414551e-01
2.481000000000000000e+03 3.696123123168945312e+01 -1.203753948211669922e+01 9.989298582077026367e-01 8.448393821716308594e+00 2.834197044372558594e+00 -4.228500425815582275e-01
2.482000000000000000e+03 1.924040985107421875e+01 -1.370771503448486328e+01 -1.601688027381896973e+00 6.670374870300292969e-01 -2.803951799869537354e-01 -4.137357175350189209e-01
2.483000000000000000e+03 1.520484733581542969e+01 -1.092256164550781250e+01 -3.310694396495819092e-01 1.415375590324401855e+00 3.252918422222137451e-01 3.497150540351867676e-01
2.484000000000000000e+03 7.400861358642578125e+01 -1.174658107757568359e+01 3.634331524372100830e-01 9.113428115844726562e+00 2.843058347702026367e+00 6.192598938941955566e-01
2.485000000000000000e+03 1.460733509063720703e+01 5.494477272033691406e+00 -1.281333267688751221e-01 6.795699119567871094e+00 2.000269651412963867e+00 1.541959345340728760e-01
2.486000000000000000e+03 2.661180019378662109e+00 5.271862030029296875e+00 2.198444008827209473e-01 2.359348088502883911e-01 1.367337703704833984e-01 -2.486076951026916504e-02
2.487000000000000000e+03 1.453403949737548828e+01 6.477878093719482422e+00 -5.375481247901916504e-01 6.862571716308593750e+00 1.897507190704345703e+00 -2.257096208631992340e-02
2.488000000000000000e+03 1.383379650115966797e+01 7.894608497619628906e+00 -7.670581936836242676e-01 7.116738796234130859e+00 1.904904127120971680e+00 -1.839679628610610962e-01
2.489000000000000000e+03 1.353586196899414062e+01 8.507522583007812500e+00 -7.846356034278869629e-01 7.087526798248291016e+00 1.890867352485656738e+00 -2.730903327465057373e-01
2.490000000000000000e+03 4.207885742187500000e+00 9.516505241394042969e+00 -4.678015597164630890e-03 1.850309491157531738e+00 5.536894202232360840e-01 -4.562361538410186768e-01
2.491000000000000000e+03 4.353357315063476562e+00 1.053670501708984375e+01 -5.536569654941558838e-02 2.036534309387207031e+00 5.943505764007568359e-01 -4.373211562633514404e-01
2.492000000000000000e+03 2.586484670639038086e+00 4.565685749053955078e+00 2.180596590042114258e-01 8.580523729324340820e-02 9.115947037935256958e-02 8.715606480836868286e-02
2.493000000000000000e+03 6.008883666992187500e+01 4.685196876525878906e+00 -5.743974447250366211e-01 1.687210321426391602e+00 3.338438868522644043e-01 -1.074901938438415527e+00
2.494000000000000000e+03 2.005845642089843750e+01 -1.406187725067138672e+01 -1.648923754692077637e+00 6.585589051246643066e-01 -2.971094548702239990e-01 -4.149341881275177002e-01
2.495000000000000000e+03 1.460284709930419922e+01 -1.239280891418457031e+01 -1.107010245323181152e+00 8.350354433059692383e-01 -8.159243315458297729e-02 7.287006378173828125e-01
2.496000000000000000e+03 1.144580650329589844e+01 -1.195651531219482422e+01 -1.119244933128356934e+00 2.435412168502807617e+00 3.948501646518707275e-01 2.582523107528686523e+00
2.497000000000000000e+03 1.772042846679687500e+01 3.166432857513427734e+00 1.444121241569519043e+00 3.614830493927001953e+00 1.517685532569885254e+00 -5.728005170822143555e-01
2.498000000000000000e+03 1.625270462036132812e+01 -1.249742794036865234e+01 -1.121263861656188965e+00 7.887189984321594238e-01 -9.976344555616378784e-02 -4.050703346729278564e-02
2.499000000000000000e+03 1.784116554260253906e+01 -1.244349288940429688e+01 -9.600566029548645020e-01 7.965182065963745117e-01 -4.906152561306953430e-02 -4.103164076805114746e-01
2.500000000000000000e+03 1.056794261932373047e+01 2.512426567077636719e+01 4.924596846103668213e-01 5.736573696136474609e+00 1.868710041046142578e+00 -1.088794946670532227e+00
2.501000000000000000e+03 2.319271278381347656e+01 -5.959472179412841797e+00 2.749376296997070312e+00 9.826709032058715820e-01 1.119614124298095703e+00 -1.558607935905456543e+00
2.502000000000000000e+03 5.382411193847656250e+01 6.064467906951904297e+00 -8.273907005786895752e-02 7.350143790245056152e-01 1.956825852394104004e-01 2.380552887916564941e-02
2.503000000000000000e+03 5.570356369018554688e+01 4.396274089813232422e+00 -9.573133587837219238e-01 5.929669141769409180e-01 -1.093039289116859436e-01 -2.426374256610870361e-01
2.504000000000000000e+03 2.701358795166015625e+01 -7.068447113037109375e+00 2.572958469390869141e+00 5.986976623535156250e-01 9.514968395233154297e-01 -2.089015722274780273e+00
2.505000000000000000e+03 7.827959060668945312e+00 1.656843566894531250e+01 2.995661199092864990e-01 4.522091865539550781e+00 1.446497440338134766e+00 -5.467807054519653320e-01
2.506000000000000000e+03 1.898394775390625000e+01 1.247040271759033203e+00 2.586940050125122070e+00 2.165763378143310547e+00 1.425811052322387695e+00 -1.283900856971740723e+00
2.507000000000000000e+03 1.856073379516601562e+01 -4.901900514960289001e-02 3.384392976760864258e+00 2.139407873153686523e+00 1.657140254974365234e+00 -1.407009959220886230e+00
2.508000000000000000e+03 4.841781616210937500e+01 2.341311073303222656e+01 6.694930195808410645e-01 4.326451301574707031e+00 1.498783230781555176e+00 1.024923920631408691e+00
2.509000000000000000e+03 4.642758560180664062e+01 2.314356422424316406e+01 5.052101016044616699e-01 4.714907169342041016e+00 1.566035151481628418e+00 9.043844342231750488e-01
2.510000000000000000e+03 4.206486129760742188e+01 3.486710786819458008e+00 -1.349260926246643066e+00 9.105558395385742188e+00 2.326889038085937500e+00 2.369699954986572266e+00
2.511000000000000000e+03 7.525947093963623047e+00 -1.300155544281005859e+01 -1.747511863708496094e+00 5.235771656036376953e+00 1.046477913856506348e+00 2.706668376922607422e+00
2.512000000000000000e+03 7.250998687744140625e+01 -3.223035812377929688e+01 -7.391065359115600586e-01 8.753745079040527344e+00 2.404391765594482422e+00 -6.449646353721618652e-01
2.513000000000000000e+03 7.428463745117187500e+01 -3.234796905517578125e+01 -5.315774083137512207e-01 9.044449806213378906e+00 2.553861618041992188e+00 -9.423834085464477539e-01
2.514000000000000000e+03 8.602587699890136719e+00 2.913733673095703125e+01 -1.266884505748748779e-01 4.780141353607177734e+00 1.396035909652709961e+00 -1.336419224739074707e+00
2.515000000000000000e+03 3.736974716186523438e+01 -1.848778724670410156e+01 1.034579053521156311e-01 1.074507427215576172e+01 3.254559516906738281e+00 7.770634889602661133e-01
2.516000000000000000e+03 4.137947082519531250e+01 -2.277615928649902344e+01 9.327766895294189453e-01 7.084247112274169922e+00 2.405107259750366211e+00 -7.681549787521362305e-01
2.517000000000000000e+03 4.856812286376953125e+01 5.950757503509521484e+00 4.405223727226257324e-01 1.136564850807189941e+00 4.731261432170867920e-01 1.392506003379821777e+00
2.518000000000000000e+03 7.200614166259765625e+01 2.547307777404785156e+01 1.990200579166412354e-01 5.771894931793212891e+00 1.791274428367614746e+00 -2.061929851770401001e-01
2.519000000000000000e+03 7.146482849121093750e+01 1.736876869201660156e+01 2.768760025501251221e-01 5.755695819854736328e+00 1.809771656990051270e+00 -6.252710819244384766e-01
2.520000000000000000e+03 7.325614166259765625e+01 1.534570598602294922e+01 1.567828953266143799e-01 6.256984233856201172e+00 1.924130082130432129e+00 -6.414884328842163086e-01
2.521000000000000000e+03 6.773805999755859375e+01 -6.283221840858459473e-01 -1.199079871177673340e+00 5.984810829162597656e+00 1.435719251632690430e+00 -9.002888202667236328e-01
2.522000000000000000e+03 7.178595733642578125e+01 9.344239234924316406e+00 -7.551420480012893677e-02 6.269713401794433594e+00 1.858259797096252441e+00 -9.109406471252441406e-01
2.523000000000000000e+03 7.303513336181640625e+01 9.037509918212890625e+00 -9.314777702093124390e-02 6.646693706512451172e+00 1.966063857078552246e+00 -8.107758760452270508e-01
2.524000000000000000e+03 7.248040771484375000e+01 -7.988936424255371094e+00 -1.795064657926559448e-01 8.932041168212890625e+00 2.625760555267333984e+00 3.983191549777984619e-01
2.525000000000000000e+03 6.842516326904296875e+01 3.546787977218627930e+00 -8.037199974060058594e-01 5.672858715057373047e+00 1.460741519927978516e+00 -1.111509561538696289e+00
2.526000000000000000e+03 7.274064636230468750e+01 2.567126512527465820e+00 -5.391306877136230469e-01 7.241650104522705078e+00 2.010755777359008789e+00 -4.576698839664459229e-01
2.527000000000000000e+03 7.458685302734375000e+01 -1.611207771301269531e+01 6.292618513107299805e-01 9.271847724914550781e+00 2.970332860946655273e+00 5.271054059267044067e-02
2.528000000000000000e+03 1.182336807250976562e+01 3.309622573852539062e+01 -8.085094094276428223e-01 4.588278293609619141e+00 1.133930563926696777e+00 -7.517979741096496582e-01
2.529000000000000000e+03 7.117819213867187500e+01 -5.168935775756835938e+00 -5.172590613365173340e-01 8.147597312927246094e+00 2.289101362228393555e+00 -1.660198322497308254e-03
2.530000000000000000e+03 4.163505554199218750e+01 -2.922456741333007812e+01 1.489619761705398560e-01 5.353165626525878906e+00 1.650638222694396973e+00 -1.562567353248596191e+00
2.531000000000000000e+03 7.436219787597656250e+01 -8.931372165679931641e-01 -4.551098048686981201e-01 7.986539840698242188e+00 2.259428977966308594e+00 1.122857630252838135e-01
2.532000000000000000e+03 7.231539154052734375e+01 -4.501889050006866455e-01 -7.309674620628356934e-01 7.501435279846191406e+00 2.031140327453613281e+00 -1.731273531913757324e-01
2.533000000000000000e+03 7.434433746337890625e+01 6.164445400238037109e+00 -2.034587860107421875e-01 7.298687934875488281e+00 2.128568887710571289e+00 -5.799170136451721191e-01
2.534000000000000000e+03 6.899796295166015625e+01 -3.546605825424194336e+00 -7.132642865180969238e-01 7.071382522583007812e+00 1.907435417175292969e+00 -4.836933314800262451e-01
2.535000000000000000e+03 7.432181549072265625e+01 1.290488719940185547e+01 6.824252754449844360e-02 6.682441234588623047e+00 2.025205135345458984e+00 -6.672126650810241699e-01
2.536000000000000000e+03 7.404667663574218750e+01 1.936401176452636719e+01 1.487974673509597778e-01 6.227550983428955078e+00 1.912904500961303711e+00 -4.397267401218414307e-01
2.537000000000000000e+03 7.132886505126953125e+01 2.660815238952636719e+01 2.071809321641921997e-01 5.679848194122314453e+00 1.766108751296997070e+00 -1.599066555500030518e-01
2.538000000000000000e+03 7.622778415679931641e+00 2.317147827148437500e+01 4.644467234611511230e-01 4.498764514923095703e+00 1.488963365554809570e+00 -1.123615264892578125e+00
2.539000000000000000e+03 5.854583263397216797e+00 -1.490643596649169922e+01 -1.318481087684631348e+00 6.528347969055175781e+00 1.562960028648376465e+00 1.329943180084228516e+00
2.540000000000000000e+03 7.300536155700683594e+00 -1.398943138122558594e+01 -1.809609174728393555e+00 5.989770412445068359e+00 1.254048347473144531e+00 2.471864700317382812e+00
2.541000000000000000e+03 6.254188060760498047e+00 1.861559486389160156e+01 3.128504455089569092e-01 3.663546323776245117e+00 1.192919015884399414e+00 -6.504529714584350586e-01
2.542000000000000000e+03 3.794942474365234375e+01 -9.304137229919433594e+00 1.863221287727355957e+00 9.393317222595214844e+00 3.376961708068847656e+00 2.608088850975036621e-01
2.543000000000000000e+03 3.461472702026367188e+01 -1.230040168762207031e+01 1.219468832015991211e+00 5.291848659515380859e+00 1.953395247459411621e+00 -1.133841156959533691e+00
2.544000000000000000e+03 7.287907409667968750e+01 -3.447663497924804688e+01 -7.118265628814697266e-01 8.416134834289550781e+00 2.311292409896850586e+00 -4.033001363277435303e-01
2.545000000000000000e+03 6.843202114105224609e+00 2.634594726562500000e+01 1.709189265966415405e-01 4.283684730529785156e+00 1.336381196975708008e+00 -1.309777498245239258e+00
2.546000000000000000e+03 6.303743839263916016e+00 2.005436706542968750e+01 4.338901042938232422e-01 3.831444978713989258e+00 1.279600501060485840e+00 -7.858569622039794922e-01
2.547000000000000000e+03 6.358672142028808594e+00 1.510913848876953125e+01 9.447290003299713135e-02 3.636234998703002930e+00 1.119212388992309570e+00 -4.497824907302856445e-01
2.548000000000000000e+03 4.688726425170898438e+00 1.283955478668212891e+01 -4.787619039416313171e-02 2.443845272064208984e+00 7.187907099723815918e-01 -3.997657597064971924e-01
2.549000000000000000e+03 1.045582962036132812e+01 1.656863594055175781e+01 4.585813879966735840e-01 6.060437679290771484e+00 1.955705761909484863e+00 -5.935877561569213867e-01
2.550000000000000000e+03 6.118775367736816406e+00 -1.376371002197265625e+01 -1.524346828460693359e+00 6.081373691558837891e+00 1.367107987403869629e+00 1.707399368286132812e+00
2.551000000000000000e+03 4.055896377563476562e+01 -2.593096923828125000e+01 1.052046179771423340e+00 6.716274261474609375e+00 2.330496072769165039e+00 -1.252340197563171387e+00
2.552000000000000000e+03 5.828881072998046875e+01 3.739191532135009766e+00 -1.000533580780029297e+00 9.120692014694213867e-01 -2.653931640088558197e-02 -6.721869707107543945e-01
2.553000000000000000e+03 7.584587574005126953e+00 3.514260864257812500e+01 -5.554647445678710938e-01 4.610454559326171875e+00 1.216496944427490234e+00 -8.864480257034301758e-01
2.554000000000000000e+03 5.285372161865234375e+01 6.593900203704833984e+00 2.350175380706787109e-01 7.787777781486511230e-01 3.041386008262634277e-01 2.636517584323883057e-01
2.555000000000000000e+03 1.110428524017333984e+01 1.540009021759033203e+01 3.426561653614044189e-01 6.462874412536621094e+00 2.041659116744995117e+00 -5.215490460395812988e-01
2.556000000000000000e+03 6.371032333374023438e+01 2.034608602523803711e+00 -1.210053920745849609e+00 3.308213472366333008e+00 6.294478178024291992e-01 -1.432169556617736816e+00
2.557000000000000000e+03 5.597747325897216797e+00 1.142663860321044922e+01 -1.180548891425132751e-01 2.959802627563476562e+00 8.525243401527404785e-01 -4.998792707920074463e-01
2.558000000000000000e+03 1.168293666839599609e+01 1.164959239959716797e+01 -4.086646735668182373e-01 6.659965038299560547e+00 1.875390172004699707e+00 -4.332927763462066650e-01
2.559000000000000000e+03 5.174895095825195312e+01 7.165391445159912109e+00 5.939934253692626953e-01 1.001098036766052246e+00 4.785274565219879150e-01 5.634840726852416992e-01
2.560000000000000000e+03 4.634633255004882812e+01 1.348527622222900391e+01 1.703799605369567871e+00 4.816090583801269531e+00 1.955967068672180176e+00 2.200921297073364258e+00
2.561000000000000000e+03 3.825453186035156250e+01 -1.605634880065917969e+01 -3.161802887916564941e-01 1.072124576568603516e+01 3.121519804000854492e+00 1.741556227207183838e-01
2.562000000000000000e+03 2.585551643371582031e+01 -1.273584651947021484e+01 3.057534396648406982e-01 2.327819168567657471e-01 1.615606099367141724e-01 -9.450379014015197754e-01
2.563000000000000000e+03 2.372971534729003906e+01 -8.923150062561035156e+00 1.606702804565429688e+00 6.894350051879882812e-01 6.888413429260253906e-01 -1.498081564903259277e+00
2.564000000000000000e+03 4.929624557495117188e+01 1.816125679016113281e+01 1.349258661270141602e+00 4.002510547637939453e+00 1.605530738830566406e+00 1.472877502441406250e+00
2.565000000000000000e+03 4.691086196899414062e+01 1.145019721984863281e+01 1.843924880027770996e+00 4.182198047637939453e+00 1.807836890220642090e+00 2.240652084350585938e+00
2.566000000000000000e+03 9.678321838378906250e+00 2.067280387878417969e+01 6.681840419769287109e-01 5.578991413116455078e+00 1.874152660369873047e+00 -8.898725509643554688e-01
2.567000000000000000e+03 2.193469810485839844e+01 -1.187738513946533203e+01 -9.814982861280441284e-02 6.464686393737792969e-01 1.644956469535827637e-01 -9.228883385658264160e-01
2.568000000000000000e+03 2.190290451049804688e+01 -1.367799472808837891e+01 -1.164454579353332520e+00 5.954346060752868652e-01 -1.707059890031814575e-01 -5.457924604415893555e-01
2.569000000000000000e+03 3.813515472412109375e+01 -5.067393779754638672e+00 1.803158283233642578e+00 8.300696372985839844e+00 3.031156301498413086e+00 1.295760035514831543e+00
2.570000000000000000e+03 3.597697448730468750e+01 -1.090307331085205078e+01 1.632693290710449219e+00 6.875657558441162109e+00 2.552505254745483398e+00 -4.325916767120361328e-01
2.571000000000000000e+03 3.684754562377929688e+01 -3.693038940429687500e+00 1.431822538375854492e+00 5.636669158935546875e+00 2.120547533035278320e+00 9.598690867424011230e-01
2.572000000000000000e+03 3.831363296508789062e+01 -3.672885656356811523e+00 1.389041185379028320e+00 8.067041397094726562e+00 2.836824655532836914e+00 1.315779209136962891e+00
2.573000000000000000e+03 4.616855621337890625e+01 -2.916633796691894531e+01 2.288235276937484741e-01 2.640134811401367188e+00 8.606875538825988770e-01 -1.315772175788879395e+00
2.574000000000000000e+03 4.623334884643554688e+01 -3.451692581176757812e+01 -6.062943339347839355e-01 3.073382139205932617e+00 7.401263117790222168e-01 -1.054195165634155273e+00
2.575000000000000000e+03 1.032050132751464844e+01 2.362076187133789062e+01 6.252428293228149414e-01 5.818481445312500000e+00 1.933117389678955078e+00 -1.041872382164001465e+00
2.576000000000000000e+03 5.536361312866210938e+01 7.805829048156738281e+00 5.474332571029663086e-01 1.185122728347778320e+00 5.197668075561523438e-01 -1.784378737211227417e-01
2.577000000000000000e+03 4.540485763549804688e+01 8.907574653625488281e+00 1.626008868217468262e+00 4.778190612792968750e+00 1.921259880065917969e+00 2.607421159744262695e+00
2.578000000000000000e+03 4.724465942382812500e+01 8.301731109619140625e+00 1.465145349502563477e+00 3.153230905532836914e+00 1.385512948036193848e+00 2.130790472030639648e+00
2.579000000000000000e+03 7.859341621398925781e+00 2.452742576599121094e+01 3.792426884174346924e-01 4.605805873870849609e+00 1.495514512062072754e+00 -1.231368780136108398e+00
2.580000000000000000e+03 7.201253509521484375e+01 -8.994968414306640625e+00 -6.392190605401992798e-02 9.311228752136230469e+00 2.774192094802856445e+00 2.902457714080810547e-01
2.581000000000000000e+03 7.200157928466796875e+01 -9.943714141845703125e+00 1.097368448972702026e-01 9.552118301391601562e+00 2.898556470870971680e+00 2.955062687397003174e-01
2.582000000000000000e+03 3.794230270385742188e+01 -7.898020744323730469e+00 2.095330953598022461e+00 8.937208175659179688e+00 3.309761524200439453e+00 6.870288848876953125e-01
2.583000000000000000e+03 3.412604522705078125e+01 -1.344458770751953125e+01 7.670614719390869141e-01 4.803132057189941406e+00 1.671058058738708496e+00 -1.504439592361450195e+00
2.584000000000000000e+03 3.143753051757812500e+01 -8.698533058166503906e+00 2.779499530792236328e+00 1.430300712585449219e+00 1.262940049171447754e+00 -1.614725351333618164e+00
2.585000000000000000e+03 4.978363800048828125e+01 8.942499160766601562e+00 1.446779489517211914e+00 1.887587428092956543e+00 1.000310063362121582e+00 1.342172622680664062e+00
2.586000000000000000e+03 5.180091094970703125e+01 4.352233886718750000e+00 -1.027119994163513184e+00 3.973649740219116211e-01 -1.889265179634094238e-01 3.190016746520996094e-01
2.587000000000000000e+03 4.826249313354492188e+01 2.867791748046875000e+01 1.803761869668960571e-01 4.088914394378662109e+00 1.280787110328674316e+00 7.729867696762084961e-01
2.588000000000000000e+03 1.144668292999267578e+01 2.957103157043457031e+01 -2.999165356159210205e-01 5.200372695922851562e+00 1.470136880874633789e+00 -1.002086639404296875e+00
2.589000000000000000e+03 1.232589721679687500e+01 3.158148574829101562e+01 -6.591675877571105957e-01 4.839820384979248047e+00 1.254195809364318848e+00 -7.679164409637451172e-01
2.590000000000000000e+03 6.814298248291015625e+01 -2.158328056335449219e+00 -1.050892472267150879e+00 6.436771869659423828e+00 1.615763783454895020e+00 -6.968224644660949707e-01
2.591000000000000000e+03 4.626914978027343750e+01 7.724145412445068359e+00 1.392017245292663574e+00 3.686838150024414062e+00 1.523656606674194336e+00 2.462638854980468750e+00
2.592000000000000000e+03 4.598919677734375000e+01 5.788851737976074219e+00 5.031959414482116699e-01 3.370605707168579102e+00 1.162140488624572754e+00 2.533267736434936523e+00
2.593000000000000000e+03 2.356831550598144531e+01 -1.113887786865234375e+01 6.304756402969360352e-01 4.994387924671173096e-01 3.389743268489837646e-01 -1.077189445495605469e+00
2.594000000000000000e+03 5.052877044677734375e+01 3.174958801269531250e+01 -1.477752178907394409e-01 4.101152420043945312e+00 1.186013221740722656e+00 7.421342730522155762e-01
2.595000000000000000e+03 5.873471832275390625e+01 5.053385257720947266e+00 -4.540919065475463867e-01 1.295699954032897949e+00 2.524823844432830811e-01 -8.460350036621093750e-01
2.596000000000000000e+03 5.740510177612304688e+01 5.412740707397460938e+00 -3.724792003631591797e-01 1.046331405639648438e+00 2.021556496620178223e-01 -5.984926223754882812e-01
2.597000000000000000e+03 4.418830490112304688e+01 5.258502483367919922e+00 -8.059816807508468628e-02 5.707623004913330078e+00 1.688107490539550781e+00 2.808886289596557617e+00
2.598000000000000000e+03 1.343188858032226562e+01 3.347896575927734375e+01 -9.486469626426696777e-01 4.329371452331542969e+00 1.014217376708984375e+00 -4.315720200538635254e-01
2.599000000000000000e+03 2.490906333923339844e+01 -1.329730319976806641e+01 -1.491244733333587646e-01 2.744727134704589844e-01 3.760447353124618530e-02 -6.571829915046691895e-01
2.600000000000000000e+03 2.281884956359863281e+01 -5.002390861511230469e+00 3.039930820465087891e+00 1.009965300559997559e+00 1.214968800544738770e+00 -1.555582046508789062e+00
2.601000000000000000e+03 2.185027503967285156e+01 -5.455029010772705078e+00 2.933330774307250977e+00 1.016272306442260742e+00 1.184880971908569336e+00 -1.535448789596557617e+00
2.602000000000000000e+03 6.772760868072509766e+00 -3.784046936035156250e+01 1.829920113086700439e-01 3.896178960800170898e+00 1.223751306533813477e+00 -2.444214820861816406e-01
2.603000000000000000e+03 9.145357131958007812e+00 -3.825323486328125000e+01 4.277697801589965820e-01 2.079558134078979492e+00 7.521983981132507324e-01 -2.666973471641540527e-01
2.604000000000000000e+03 6.881375885009765625e+01 -4.816698074340820312e+00 -4.120056331157684326e-01 7.327383518218994141e+00 2.074613332748413086e+00 -6.553017497062683105e-01
2.605000000000000000e+03 9.150677680969238281e+00 1.429590892791748047e+01 5.458163470029830933e-02 5.244517803192138672e+00 1.589729785919189453e+00 -4.741686284542083740e-01
2.606000000000000000e+03 1.070035076141357422e+01 1.375536060333251953e+01 4.757885355502367020e-03 6.169269084930419922e+00 1.852208137512207031e+00 -4.355255067348480225e-01
2.607000000000000000e+03 3.541424560546875000e+01 -5.454415798187255859e+00 2.305346965789794922e+00 4.169506549835205078e+00 1.942456007003784180e+00 2.108425348997116089e-01
2.608000000000000000e+03 9.559874534606933594e+00 3.396903610229492188e+01 -6.997938156127929688e-01 4.636966228485107422e+00 1.181151747703552246e+00 -9.715739488601684570e-01
2.609000000000000000e+03 7.281302642822265625e+01 1.775817680358886719e+01 1.984783262014389038e-01 6.052188873291015625e+00 1.875200152397155762e+00 -5.662236809730529785e-01
2.610000000000000000e+03 2.837636184692382812e+01 -7.824326038360595703e+00 2.625147581100463867e+00 4.984789192676544189e-01 9.370880126953125000e-01 -2.012685060501098633e+00
2.611000000000000000e+03 6.753942871093750000e+01 1.059072375297546387e+00 -1.154980778694152832e+00 5.624176025390625000e+00 1.340758562088012695e+00 -1.076094865798950195e+00
2.612000000000000000e+03 7.295503997802734375e+01 7.590878486633300781e+00 -1.811379641294479370e-01 6.763375759124755859e+00 1.974671363830566406e+00 -7.787138223648071289e-01
2.613000000000000000e+03 3.663270950317382812e+01 -7.960271835327148438e+00 2.351232051849365234e+00 6.904883861541748047e+00 2.776834726333618164e+00 1.175233423709869385e-01
2.614000000000000000e+03 3.846817398071289062e+01 -3.428980255126953125e+01 -1.405793905258178711e+00 5.709373474121093750e+00 1.291073918342590332e+00 -4.276208281517028809e-01
2.615000000000000000e+03 4.542052459716796875e+01 -3.253861999511718750e+01 -3.668256998062133789e-01 3.325367450714111328e+00 8.875625729560852051e-01 -1.222656607627868652e+00
2.616000000000000000e+03 7.129600524902343750e+01 2.878504180908203125e+01 1.662145555019378662e-01 5.681880474090576172e+00 1.754428505897521973e+00 -8.541675657033920288e-02
2.617000000000000000e+03 7.275530242919921875e+01 2.957539367675781250e+01 1.075015142560005188e-01 5.863165378570556641e+00 1.791200041770935059e+00 -6.793138384819030762e-02
2.618000000000000000e+03 4.950859451293945312e+01 2.460818099975585938e+01 6.292924284934997559e-01 4.179935932159423828e+00 1.442768573760986328e+00 9.772199392318725586e-01
2.619000000000000000e+03 4.961077499389648438e+01 2.727412414550781250e+01 3.723007142543792725e-01 4.098654747009277344e+00 1.341286659240722656e+00 8.721638321876525879e-01
2.620000000000000000e+03 6.640675354003906250e+01 -3.822108459472656250e+01 -1.743342429399490356e-01 4.067931175231933594e+00 1.168079137802124023e+00 5.537971854209899902e-01
2.621000000000000000e+03 6.601789093017578125e+01 -8.881333470344543457e-01 -1.353091835975646973e+00 5.097807884216308594e+00 1.123414874076843262e+00 -1.139287829399108887e+00
2.622000000000000000e+03 4.858865356445312500e+01 1.413584995269775391e+01 1.768086910247802734e+00 3.746265172958374023e+00 1.654305696487426758e+00 1.807130336761474609e+00
2.623000000000000000e+03 4.091947174072265625e+01 -2.756458854675292969e+01 5.751638412475585938e-01 6.028227806091308594e+00 1.981017470359802246e+00 -1.524408578872680664e+00
2.624000000000000000e+03 3.462979125976562500e+01 -3.441355514526367188e+01 -1.410343289375305176e+00 5.246479034423828125e+00 1.150840640068054199e+00 7.868556380271911621e-01
2.625000000000000000e+03 2.169015502929687500e+01 -3.848371505737304688e+01 -2.628084421157836914e-01 -1.903322041034698486e-01 -1.359421908855438232e-01 3.335563838481903076e-01
2.626000000000000000e+03 6.199995994567871094e+00 -3.335927200317382812e+01 -1.032745242118835449e+00 4.726665496826171875e+00 1.108176112174987793e+00 -4.400883615016937256e-01
2.627000000000000000e+03 5.827902793884277344e+00 -2.431717157363891602e+00 1.805520534515380859e+00 7.787069678306579590e-01 7.752682566642761230e-01 1.488201737403869629e+00
2.628000000000000000e+03 8.750831604003906250e+00 3.054796934127807617e+00 1.011474490165710449e+00 5.246462345123291016e+00 1.877381086349487305e+00 -2.814545392990112305e+00
2.629000000000000000e+03 6.276024341583251953e+00 2.315679788589477539e+00 8.145158290863037109e-01 6.830517649650573730e-01 4.492702782154083252e-01 -5.683755278587341309e-01
2.630000000000000000e+03 5.765524387359619141e+00 2.704893350601196289e+00 7.492663860321044922e-01 6.722787022590637207e-01 4.264635443687438965e-01 -4.402503669261932373e-01
2.631000000000000000e+03 7.045145034790039062e+00 -2.432225227355957031e+00 2.656361341476440430e+00 1.509531378746032715e+00 1.249767780303955078e+00 2.448741197586059570e+00
2.632000000000000000e+03 9.048871040344238281e+00 2.374732255935668945e+00 1.427646160125732422e+00 5.828169345855712891e+00 2.176744699478149414e+00 -3.397210836410522461e+00
2.633000000000000000e+03 5.582057476043701172e+00 2.480485200881958008e+00 5.998336076736450195e-01 4.934554398059844971e-01 3.279867172241210938e-01 -2.757662534713745117e-01
2.634000000000000000e+03 6.819280624389648438e+00 -2.975190162658691406e+00 2.338611364364624023e+00 1.794074535369873047e+00 1.239805817604064941e+00 2.573047876358032227e+00
2.635000000000000000e+03 7.131229400634765625e+00 -2.771696329116821289e+00 2.568675518035888672e+00 1.951854825019836426e+00 1.356159090995788574e+00 2.753771543502807617e+00
2.636000000000000000e+03 8.306464195251464844e+00 2.611180543899536133e+00 1.509425282478332520e+00 3.547448158264160156e+00 1.517061948776245117e+00 -2.625925064086914062e+00
2.637000000000000000e+03 8.000647544860839844e+00 2.359172344207763672e+00 1.650545358657836914e+00 2.615994691848754883e+00 1.279962062835693359e+00 -2.291124820709228516e+00
2.638000000000000000e+03 7.474546432495117188e+00 2.195231199264526367e+00 1.434380173683166504e+00 1.510193586349487305e+00 8.833721280097961426e-01 -1.555272698402404785e+00
2.639000000000000000e+03 8.612362861633300781e+00 -2.529568910598754883e+00 3.037997961044311523e+00 4.662763118743896484e+00 2.310228347778320312e+00 4.085183620452880859e+00
2.640000000000000000e+03 7.657133102416992188e+00 -2.750879049301147461e+00 2.747827529907226562e+00 2.652607679367065430e+00 1.620130658149719238e+00 3.221037864685058594e+00
2.641000000000000000e+03 6.810235500335693359e+00 2.252065420150756836e+00 1.060927510261535645e+00 9.283454418182373047e-01 5.967819094657897949e-01 -9.199410676956176758e-01
2.642000000000000000e+03 6.362598896026611328e+00 3.062357902526855469e+00 9.944798946380615234e-01 1.226612687110900879e+00 6.663277745246887207e-01 -9.249181747436523438e-01
2.643000000000000000e+03 7.257404327392578125e+00 -3.088165998458862305e+00 2.427683591842651367e+00 2.383804082870483398e+00 1.443446397781372070e+00 2.974352836608886719e+00
2.644000000000000000e+03 9.597680091857910156e+00 -2.414587497711181641e+00 2.437623023986816406e+00 8.160096168518066406e+00 3.179315805435180664e+00 4.037135601043701172e+00
2.645000000000000000e+03 9.950460433959960938e+00 2.557221889495849609e+00 5.244156122207641602e-01 9.150898933410644531e+00 2.902594327926635742e+00 -2.638298273086547852e+00
2.646000000000000000e+03 8.975808143615722656e+00 2.935420751571655273e+00 9.903559684753417969e-01 5.734376430511474609e+00 2.017419815063476562e+00 -2.991420507431030273e+00
2.647000000000000000e+03 1.200656032562255859e+01 -1.686741590499877930e+00 4.715630054473876953e+00 9.355881690979003906e+00 4.221453666687011719e+00 -1.299999475479125977e+00
2.648000000000000000e+03 9.832819938659667969e+00 -2.446488142013549805e+00 2.210103511810302734e+00 8.933540344238281250e+00 3.343093156814575195e+00 3.611227989196777344e+00
2.649000000000000000e+03 4.585124492645263672e+00 2.886751174926757812e+00 4.289569556713104248e-01 3.803309202194213867e-01 2.427863627672195435e-01 -2.887008525431156158e-02
2.650000000000000000e+03 1.207306289672851562e+01 1.500572681427001953e+00 3.902657508850097656e+00 1.012590694427490234e+01 4.208569526672363281e+00 1.785496473312377930e+00
2.651000000000000000e+03 4.559290885925292969e+00 -2.939146280288696289e+00 1.152642607688903809e+00 7.045763134956359863e-01 5.571656823158264160e-01 1.090105891227722168e+00
2.652000000000000000e+03 1.083894729614257812e+01 2.580611467361450195e+00 3.741170763969421387e-01 1.069611454010009766e+01 3.321069478988647461e+00 -8.568953275680541992e-01
2.653000000000000000e+03 1.160155200958251953e+01 -2.004784822463989258e+00 3.659202575683593750e+00 1.008950519561767578e+01 4.124612331390380859e+00 -7.147001624107360840e-01
2.654000000000000000e+03 1.046928882598876953e+01 2.605532884597778320e+00 2.499485313892364502e-01 1.039229011535644531e+01 3.192671775817871094e+00 -1.697141170501708984e+00
2.655000000000000000e+03 1.280298328399658203e+01 8.333712816238403320e-01 5.466401100158691406e+00 7.919851303100585938e+00 4.015875816345214844e+00 1.179950714111328125e+00
2.656000000000000000e+03 1.204444313049316406e+01 -1.263783931732177734e+00 5.916310310363769531e+00 9.274076461791992188e+00 4.557116031646728516e+00 -1.383769512176513672e+00
2.657000000000000000e+03 4.496805191040039062e+00 3.146856546401977539e+00 4.678981006145477295e-01 4.211841225624084473e-01 2.667246758937835693e-01 -6.657911837100982666e-02
2.658000000000000000e+03 1.233018875122070312e+01 1.293626546859741211e+00 4.566635608673095703e+00 9.316955566406250000e+00 4.165077209472656250e+00 1.736495137214660645e+00
2.659000000000000000e+03 1.502823352813720703e+01 4.960828781127929688e+00 2.955487370491027832e-01 6.504979133605957031e+00 2.040158271789550781e+00 2.682242691516876221e-01
2.660000000000000000e+03 3.052471160888671875e+00 -4.291419029235839844e+00 5.381661653518676758e-01 9.724966287612915039e-01 4.531988501548767090e-01 9.325453042984008789e-01
2.661000000000000000e+03 4.205202102661132812e+00 -4.191678524017333984e+00 8.788502812385559082e-01 1.218893766403198242e+00 6.293231844902038574e-01 1.390965580940246582e+00
2.662000000000000000e+03 3.197646617889404297e+00 3.279297590255737305e+00 2.366360872983932495e-01 1.169469580054283142e-01 1.060749143362045288e-01 1.925798952579498291e-01
2.663000000000000000e+03 2.806487560272216797e+00 -2.977281808853149414e+00 4.551601409912109375e-01 4.828179478645324707e-01 2.813934385776519775e-01 4.571139216423034668e-01
2.664000000000000000e+03 2.379169225692749023e+00 -4.221549987792968750e+00 3.661698997020721436e-01 7.760692834854125977e-01 3.426717519760131836e-01 6.675443053245544434e-01
2.665000000000000000e+03 4.010753154754638672e+00 3.270468235015869141e+00 3.691495060920715332e-01 3.202520012855529785e-01 2.068204432725906372e-01 4.659903049468994141e-02
2.666000000000000000e+03 3.299919366836547852e+00 -5.765019893646240234e+00 3.841104507446289062e-01 1.695650100708007812e+00 6.239281892776489258e-01 1.397710204124450684e+00
2.667000000000000000e+03 4.147716522216796875e+00 8.589950561523437500e+00 5.419295653700828552e-02 1.674673080444335938e+00 5.186597704887390137e-01 -4.839409887790679932e-01
2.668000000000000000e+03 4.889564037322998047e+00 8.581678390502929688e+00 3.187070414423942566e-02 2.158611059188842773e+00 6.571445465087890625e-01 -5.860767960548400879e-01
2.669000000000000000e+03 1.397854804992675781e+01 7.248971462249755859e+00 -7.147811055183410645e-01 7.129502773284912109e+00 1.924416542053222656e+00 -1.116455718874931335e-01
2.670000000000000000e+03 1.234451198577880859e+01 9.784450531005859375e+00 -7.169482111930847168e-01 6.930325984954833984e+00 1.864013314247131348e+00 -4.162934422492980957e-01
2.671000000000000000e+03 1.257964038848876953e+01 9.013720512390136719e+00 -7.988533377647399902e-01 7.037141323089599609e+00 1.871486425399780273e+00 -3.809802234172821045e-01
2.672000000000000000e+03 1.299141693115234375e+01 5.100506305694580078e+00 -2.809314727783203125e-01 7.801400184631347656e+00 2.256140708923339844e+00 8.091029524803161621e-02
2.673000000000000000e+03 2.438831329345703125e+00 -5.088797092437744141e+00 3.162418305873870850e-01 1.129311561584472656e+00 4.336660206317901611e-01 8.959990143775939941e-01
2.674000000000000000e+03 4.209230899810791016e+00 -7.776755332946777344e+00 2.394137717783451080e-02 2.852381944656372070e+00 8.628970384597778320e-01 1.947080254554748535e+00
2.675000000000000000e+03 5.259369373321533203e+00 6.549080848693847656e+00 2.886182069778442383e-01 1.985346674919128418e+00 6.821894645690917969e-01 -7.257864475250244141e-01
2.676000000000000000e+03 3.511128902435302734e+00 5.692403316497802734e+00 3.223221898078918457e-01 7.040709257125854492e-01 3.079179227352142334e-01 -2.518331110477447510e-01
2.677000000000000000e+03 5.044222354888916016e+00 -6.429209232330322266e+00 4.329461455345153809e-01 2.601392269134521484e+00 9.103015065193176270e-01 2.250852823257446289e+00
2.678000000000000000e+03 3.577415227890014648e+00 3.511697769165039062e+00 3.129103779792785645e-01 2.508263587951660156e-01 1.691210120916366577e-01 9.511831402778625488e-02
2.679000000000000000e+03 2.092835617065429688e+01 -4.258017063140869141e+00 3.277732610702514648e+00 1.155631899833679199e+00 1.330009341239929199e+00 -1.550031781196594238e+00
2.680000000000000000e+03 5.474987506866455078e+00 7.848828315734863281e+00 8.066299557685852051e-02 2.456591844558715820e+00 7.611764669418334961e-01 -7.264010906219482422e-01
2.681000000000000000e+03 4.158137321472167969e+00 7.784502029418945312e+00 1.244701817631721497e-01 1.531141400337219238e+00 4.966834783554077148e-01 -4.962500333786010742e-01
2.682000000000000000e+03 1.643699264526367188e+01 3.086419343948364258e+00 1.721509456634521484e+00 4.761119365692138672e+00 1.944788694381713867e+00 -7.323399186134338379e-02
2.683000000000000000e+03 1.769589233398437500e+01 1.711934924125671387e+00 2.556156873703002930e+00 3.164905071258544922e+00 1.716318607330322266e+00 -8.319454193115234375e-01
2.684000000000000000e+03 1.938310241699218750e+01 -1.243520832061767578e+01 -7.097714543342590332e-01 7.414516806602478027e-01 9.504074230790138245e-03 -5.969573259353637695e-01
2.685000000000000000e+03 5.442557334899902344e+00 -1.188223266601562500e+01 -1.210760474205017090e+00 5.005397319793701172e+00 1.138391137123107910e+00 1.818367004394531250e+00
2.686000000000000000e+03 5.276284694671630859e+00 -9.663866996765136719e+00 -6.056995391845703125e-01 3.971568346023559570e+00 1.009760618209838867e+00 2.175609350204467773e+00
2.687000000000000000e+03 2.885029315948486328e+00 3.607592105865478516e+00 2.178209871053695679e-01 8.071684092283248901e-02 8.956135064363479614e-02 1.734868139028549194e-01
2.688000000000000000e+03 7.301112365722656250e+01 -3.287850618362426758e+00 -5.460135340690612793e-01 8.035175323486328125e+00 2.246748685836791992e+00 2.517432570457458496e-01
2.689000000000000000e+03 1.265117645263671875e+01 1.190631961822509766e+01 -3.262834846973419189e-01 7.024244308471679688e+00 2.009388208389282227e+00 -4.768891632556915283e-01
2.690000000000000000e+03 1.205272293090820312e+01 1.067251586914062500e+01 -5.828723311424255371e-01 6.814366340637207031e+00 1.869448304176330566e+00 -4.360643029212951660e-01
2.691000000000000000e+03 7.492281913757324219e+00 1.450727272033691406e+01 5.625435709953308105e-02 4.273844718933105469e+00 1.299029707908630371e+00 -4.794902801513671875e-01
2.692000000000000000e+03 1.046118259429931641e+01 -1.127857971191406250e+01 -1.066471338272094727e+00 3.378111362457275391e+00 6.934920549392700195e-01 2.792559623718261719e+00
2.693000000000000000e+03 7.226606750488281250e+01 -5.706285476684570312e+00 -4.254358708858489990e-01 8.358758926391601562e+00 2.379996776580810547e+00 3.073587119579315186e-01
2.694000000000000000e+03 1.167901134490966797e+01 1.419664096832275391e+01 1.136869341135025024e-01 6.760256290435791016e+00 2.062182903289794922e+00 -4.948379397392272949e-01
2.695000000000000000e+03 5.055092334747314453e+00 9.430948257446289062e+00 -3.847334161400794983e-02 2.402236700057983398e+00 7.091289758682250977e-01 -5.776675939559936523e-01
2.696000000000000000e+03 2.020731163024902344e+01 -1.181873607635498047e+01 -3.417619466781616211e-01 8.073685765266418457e-01 1.396819949150085449e-01 -8.196505308151245117e-01
2.697000000000000000e+03 2.297701644897460938e+01 -1.291070175170898438e+01 -3.381147980690002441e-01 4.874317944049835205e-01 4.479509964585304260e-02 -7.050114274024963379e-01
2.698000000000000000e+03 2.568659782409667969e+01 -6.820605754852294922e+00 2.440249919891357422e+00 7.603673934936523438e-01 9.601852297782897949e-01 -1.934082865715026855e+00
2.699000000000000000e+03 5.722480297088623047e+00 1.260301017761230469e+01 -8.291970938444137573e-02 3.114568233489990234e+00 9.094945192337036133e-01 -4.521188437938690186e-01
2.700000000000000000e+03 7.126175403594970703e+00 1.914270019531250000e+01 4.213955700397491455e-01 4.159003734588623047e+00 1.374119877815246582e+00 -7.565985918045043945e-01
2.701000000000000000e+03 1.543014144897460938e+01 2.754850864410400391e+00 2.108216285705566406e+00 5.476364135742187500e+00 2.275374174118041992e+00 2.665317952632904053e-01
2.702000000000000000e+03 1.260811710357666016e+01 -7.101533412933349609e-01 6.627895832061767578e+00 7.699575901031494141e+00 4.298241615295410156e+00 -8.394063711166381836e-01
2.703000000000000000e+03 1.852086830139160156e+01 -3.567620038986206055e+00 3.430264711380004883e+00 1.857649564743041992e+00 1.586374282836914062e+00 -1.620352625846862793e+00
2.704000000000000000e+03 6.475010871887207031e+00 2.358255577087402344e+01 3.328427374362945557e-01 4.006474971771240234e+00 1.301795244216918945e+00 -1.119207978248596191e+00
2.705000000000000000e+03 7.315344238281250000e+01 1.426685619354248047e+01 1.330813169479370117e-01 6.276183605194091797e+00 1.922779440879821777e+00 -7.078681588172912598e-01
2.706000000000000000e+03 1.819038009643554688e+01 8.519982099533081055e-01 3.017660617828369141e+00 2.575516223907470703e+00 1.677953004837036133e+00 -1.174682617187500000e+00
2.707000000000000000e+03 1.566772842407226562e+01 -1.171985912322998047e+01 -7.573976516723632812e-01 9.717708826065063477e-01 6.431198120117187500e-02 1.265018135309219360e-01
2.708000000000000000e+03 1.327980613708496094e+01 -1.172059059143066406e+01 -8.131794929504394531e-01 1.581767797470092773e+00 2.305765151977539062e-01 1.356093168258666992e+00
2.709000000000000000e+03 1.220196437835693359e+01 -1.105376911163330078e+01 -7.007712125778198242e-01 2.407531976699829102e+00 5.120282173156738281e-01 1.983617424964904785e+00
2.710000000000000000e+03 1.660077095031738281e+01 -1.101876258850097656e+01 -2.735003829002380371e-01 1.238772988319396973e+00 2.895817756652832031e-01 -2.378935664892196655e-01
2.711000000000000000e+03 1.425609779357910156e+01 -1.142592525482177734e+01 -6.893836855888366699e-01 1.504299283027648926e+00 2.444746792316436768e-01 8.609900474548339844e-01
2.712000000000000000e+03 1.878522682189941406e+01 -1.045696353912353516e+01 2.242571711540222168e-01 1.047302484512329102e+00 3.814679086208343506e-01 -8.195255994796752930e-01
2.713000000000000000e+03 5.362936496734619141e+00 1.036064243316650391e+01 -9.921507537364959717e-02 2.737651824951171875e+00 7.915310263633728027e-01 -5.432976484298706055e-01
2.714000000000000000e+03 3.565663528442382812e+01 -1.292922306060791016e+01 7.188645601272583008e-01 6.924550533294677734e+00 2.293024539947509766e+00 -9.187455773353576660e-01
2.715000000000000000e+03 5.354992294311523438e+01 7.636135578155517578e+00 6.427808403968811035e-01 1.060107707977294922e+00 5.108665227890014648e-01 1.836983263492584229e-01
2.716000000000000000e+03 5.484465026855468750e+01 5.875935554504394531e+00 -1.902671307325363159e-01 7.889453768730163574e-01 1.796034723520278931e-01 -1.460095793008804321e-01
2.717000000000000000e+03 2.342138862609863281e+01 -6.955768108367919922e+00 2.299341917037963867e+00 9.390035867691040039e-01 9.715036153793334961e-01 -1.585847616195678711e+00
2.718000000000000000e+03 3.674447250366210938e+01 -6.521377086639404297e+00 2.338696718215942383e+00 6.471469402313232422e+00 2.643049716949462891e+00 4.814991056919097900e-01
2.719000000000000000e+03 7.307836914062500000e+01 3.893872261047363281e+00 -4.172451496124267578e-01 7.197868347167968750e+00 2.034186840057373047e+00 -5.482072234153747559e-01
2.720000000000000000e+03 6.937344360351562500e+01 -4.224581718444824219e-01 -1.049675822257995605e+00 6.658428192138671875e+00 1.682625651359558105e+00 -6.136362552642822266e-01
2.721000000000000000e+03 7.317845153808593750e+01 -2.001070737838745117e+00 -5.678771138191223145e-01 7.895511150360107422e+00 2.198290348052978516e+00 1.370534449815750122e-01
2.722000000000000000e+03 5.607641601562500000e+01 5.760200977325439453e+00 -2.187159806489944458e-01 8.722180128097534180e-01 1.960505992174148560e-01 -3.756448626518249512e-01
2.723000000000000000e+03 5.655446624755859375e+01 7.152084827423095703e+00 2.710109055042266846e-01 1.189921021461486816e+00 4.382795691490173340e-01 -4.189017713069915771e-01
2.724000000000000000e+03 5.840261936187744141e+00 -1.244158077239990234e+01 -1.403764128684997559e+00 5.338689804077148438e+00 1.180477738380432129e+00 1.967478752136230469e+00
2.725000000000000000e+03 2.616874885559082031e+01 -9.441804885864257812e+00 1.826315283775329590e+00 4.773298799991607666e-01 6.910935640335083008e-01 -1.621015667915344238e+00
2.726000000000000000e+03 2.715771102905273438e+01 -1.029347229003906250e+01 1.690169215202331543e+00 3.315213620662689209e-01 6.065071821212768555e-01 -1.512490034103393555e+00
2.727000000000000000e+03 7.253898620605468750e+01 2.256125259399414062e+01 2.103661000728607178e-01 5.868617057800292969e+00 1.823694944381713867e+00 -3.384363055229187012e-01
2.728000000000000000e+03 7.392540740966796875e+01 2.300010681152343750e+01 1.424359679222106934e-01 6.103521347045898438e+00 1.873787164688110352e+00 -2.829321324825286865e-01
2.729000000000000000e+03 7.316309356689453125e+01 6.237604141235351562e+00 -2.581119835376739502e-01 6.950691699981689453e+00 2.007773876190185547e+00 -7.129395008087158203e-01
2.730000000000000000e+03 6.757575225830078125e+01 2.800730466842651367e+00 -9.429206848144531250e-01 5.415258407592773438e+00 1.341701269149780273e+00 -1.183928251266479492e+00
2.731000000000000000e+03 1.795775985717773438e+01 -2.599284648895263672e+00 3.656309127807617188e+00 2.189591884613037109e+00 1.753770351409912109e+00 -1.611917972564697266e+00
2.732000000000000000e+03 7.301237487792968750e+01 1.302383136749267578e+01 1.086599305272102356e-01 6.315826416015625000e+00 1.927345991134643555e+00 -7.530071735382080078e-01
2.733000000000000000e+03 7.205347442626953125e+01 1.055803203582763672e+01 -1.125815883278846741e-02 6.233937263488769531e+00 1.866803765296936035e+00 -8.920159339904785156e-01
2.734000000000000000e+03 7.276775360107421875e+01 -4.648595809936523438e+00 -4.892420172691345215e-01 8.198311805725097656e+00 2.312721014022827148e+00 3.274241685867309570e-01
2.735000000000000000e+03 7.208309173583984375e+01 2.052722930908203125e+01 2.386289685964584351e-01 5.839476585388183594e+00 1.823431730270385742e+00 -4.323126375675201416e-01
2.736000000000000000e+03 7.170277404785156250e+01 -2.831133604049682617e+00 -6.964497566223144531e-01 7.743478775024414062e+00 2.114108562469482422e+00 4.844971001148223877e-03
2.737000000000000000e+03 2.431010055541992188e+01 -5.669855594635009766e+00 2.725026607513427734e+00 1.117014408111572266e+00 1.152612328529357910e+00 -1.674384713172912598e+00
2.738000000000000000e+03 9.601552009582519531e+00 -1.217963695526123047e+01 -1.383604526519775391e+00 3.755393981933593750e+00 7.115368247032165527e-01 3.023966789245605469e+00
2.739000000000000000e+03 6.105189800262451172e+00 -1.178005981445312500e+01 -1.319033145904541016e+00 4.966975212097167969e+00 1.094382643699645996e+00 2.273245811462402344e+00
2.740000000000000000e+03 6.580647468566894531e+00 -1.278663539886474609e+01 -1.611217856407165527e+00 5.395278453826904297e+00 1.135218143463134766e+00 2.280897617340087891e+00
2.741000000000000000e+03 2.101537322998046875e+01 -1.267810058593750000e+01 -6.079339981079101562e-01 6.480786204338073730e-01 1.204339042305946350e-02 -6.757599115371704102e-01
2.742000000000000000e+03 8.736568450927734375e+00 1.806134414672851562e+01 5.234391093254089355e-01 5.046671867370605469e+00 1.671033263206481934e+00 -6.897128224372863770e-01
2.743000000000000000e+03 7.621611595153808594e+00 1.794724082946777344e+01 4.154101610183715820e-01 4.400116443634033203e+00 1.444657921791076660e+00 -6.401609182357788086e-01
2.744000000000000000e+03 6.146924972534179688e+01 4.307029247283935547e+00 -6.553511619567871094e-01 2.224785327911376953e+00 4.708302617073059082e-01 -1.283947467803955078e+00
2.745000000000000000e+03 6.050612640380859375e+01 6.067606449127197266e+00 -1.753819733858108521e-01 2.058990478515625000e+00 5.650825500488281250e-01 -1.123188972473144531e+00
2.746000000000000000e+03 3.289337539672851562e+01 -6.764641761779785156e+00 2.937247037887573242e+00 1.711961150169372559e+00 1.394762396812438965e+00 -1.065495610237121582e+00
2.747000000000000000e+03 6.287484741210937500e+01 3.902739048004150391e+00 -7.917764782905578613e-01 2.948739051818847656e+00 6.470887660980224609e-01 -1.424948573112487793e+00
2.748000000000000000e+03 7.202716827392578125e+01 1.161892223358154297e+01 6.977127492427825928e-02 6.144250869750976562e+00 1.864206671714782715e+00 -8.557100892066955566e-01
2.749000000000000000e+03 3.404241561889648438e+01 -7.390772342681884766e+00 2.746212244033813477e+00 3.072235345840454102e+00 1.745534300804138184e+00 -7.498862743377685547e-01
2.750000000000000000e+03 2.682923698425292969e+01 -1.222019386291503906e+01 8.396899700164794922e-01 2.995981872081756592e-01 3.417864441871643066e-01 -1.053425788879394531e+00
2.751000000000000000e+03 2.787123298645019531e+01 -1.234995651245117188e+01 9.359406232833862305e-01 1.986536532640457153e-01 3.403782844543457031e-01 -1.120136618614196777e+00
2.752000000000000000e+03 3.061115646362304688e+01 -1.304426860809326172e+01 1.259133219718933105e+00 1.009850263595581055e+00 6.806949973106384277e-01 -1.524621367454528809e+00
2.753000000000000000e+03 7.678842544555664062e+00 3.155115699768066406e+01 -3.484552204608917236e-01 4.618104457855224609e+00 1.280894875526428223e+00 -1.221491456031799316e+00
2.754000000000000000e+03 4.724296951293945312e+01 9.518581390380859375e+00 1.770744562149047852e+00 3.443351030349731445e+00 1.564228653907775879e+00 2.188358545303344727e+00
2.755000000000000000e+03 5.069224929809570312e+01 7.948712825775146484e+00 1.070430278778076172e+00 1.303080677986145020e+00 7.120532989501953125e-01 9.196436405181884766e-01
2.756000000000000000e+03 4.719576644897460938e+01 1.906616401672363281e+01 9.791020154953002930e-01 4.778593063354492188e+00 1.727308511734008789e+00 1.475300073623657227e+00
2.757000000000000000e+03 5.055838394165039062e+01 2.321380805969238281e+01 8.286033868789672852e-01 4.062137126922607422e+00 1.467222213745117188e+00 1.050714612007141113e+00
2.758000000000000000e+03 7.256211090087890625e+01 1.913662338256835938e+01 2.207314968109130859e-01 5.956028461456298828e+00 1.853028059005737305e+00 -4.979992508888244629e-01
2.759000000000000000e+03 7.073272705078125000e+01 1.997464752197265625e+01 3.285032808780670166e-01 5.561424732208251953e+00 1.766978502273559570e+00 -4.839199781417846680e-01
2.760000000000000000e+03 6.410627746582031250e+01 3.266413688659667969e+00 -9.111673831939697266e-01 3.538083314895629883e+00 7.880747914314270020e-01 -1.448649168014526367e+00
2.761000000000000000e+03 9.325266838073730469e+00 2.555788040161132812e+01 3.621984720230102539e-01 5.164833545684814453e+00 1.658109545707702637e+00 -1.249498486518859863e+00
2.762000000000000000e+03 3.671318435668945312e+01 -9.394571304321289062e+00 2.022739410400390625e+00 7.364048480987548828e+00 2.816036462783813477e+00 4.250571504235267639e-02
2.763000000000000000e+03 4.851173019409179688e+01 2.116771507263183594e+01 8.974105715751647949e-01 4.378236293792724609e+00 1.582694053649902344e+00 1.252027273178100586e+00
2.764000000000000000e+03 6.863735198974609375e+01 2.896786308288574219e+01 2.273733168840408325e-01 5.393604278564453125e+00 1.686293244361877441e+00 -3.556544706225395203e-02
2.765000000000000000e+03 6.850195407867431641e+00 -1.026889991760253906e+01 -9.643251299858093262e-01 4.392375469207763672e+00 1.028415203094482422e+00 2.681510686874389648e+00
2.766000000000000000e+03 3.284745407104492188e+01 -1.198349952697753906e+01 1.530085086822509766e+00 3.216118097305297852e+00 1.423860907554626465e+00 -1.387383103370666504e+00
2.767000000000000000e+03 6.839637756347656250e+01 1.955382227897644043e-01 -1.197188973426818848e+00 6.118012428283691406e+00 1.476247072219848633e+00 -8.728576898574829102e-01
2.768000000000000000e+03 7.301649475097656250e+01 3.185802698135375977e-01 -6.232944726943969727e-01 7.581178188323974609e+00 2.087365150451660156e+00 -1.885887682437896729e-01
2.769000000000000000e+03 7.197594451904296875e+01 4.517003059387207031e+00 -4.600214064121246338e-01 6.769712924957275391e+00 1.892907500267028809e+00 -7.286865115165710449e-01
2.770000000000000000e+03 3.088193130493164062e+01 -9.843388557434082031e+00 2.393226623535156250e+00 1.347027063369750977e+00 1.122076153755187988e+00 -1.629595756530761719e+00
2.771000000000000000e+03 3.031380271911621094e+01 -7.847772598266601562e+00 2.789043426513671875e+00 8.642995953559875488e-01 1.096002936363220215e+00 -1.860999584197998047e+00
2.772000000000000000e+03 3.671884155273437500e+01 -5.114726066589355469e+00 2.116691350936889648e+00 5.829608440399169922e+00 2.383889913558959961e+00 6.290236711502075195e-01
2.773000000000000000e+03 3.555965042114257812e+01 -6.554657936096191406e+00 2.530307292938232422e+00 4.953330516815185547e+00 2.245091199874877930e+00 3.756378963589668274e-02
2.774000000000000000e+03 7.123293304443359375e+01 3.376486897468566895e-01 -8.536450862884521484e-01 7.118236064910888672e+00 1.879377245903015137e+00 -4.306199848651885986e-01
2.775000000000000000e+03 4.708753967285156250e+01 1.805773735046386719e+01 1.111842632293701172e+00 4.798005580902099609e+00 1.772954344749450684e+00 1.608292698860168457e+00
2.776000000000000000e+03 6.666651153564453125e+01 1.998460769653320312e+00 -1.087478041648864746e+00 5.064585208892822266e+00 1.193132162094116211e+00 -1.249390125274658203e+00
2.777000000000000000e+03 6.916465759277343750e+01 -2.309042453765869141e+00 -9.425162672996520996e-01 6.924591064453125000e+00 1.794622421264648438e+00 -4.862060546875000000e-01
2.778000000000000000e+03 2.068481826782226562e+01 -5.029267311096191406e+00 3.012284517288208008e+00 1.183001160621643066e+00 1.258585691452026367e+00 -1.555565953254699707e+00
2.779000000000000000e+03 7.176773834228515625e+01 -6.571636199951171875e+00 -3.817287087440490723e-01 8.553662300109863281e+00 2.451580286026000977e+00 1.550280898809432983e-01
2.780000000000000000e+03 7.121743011474609375e+01 6.407052040100097656e+00 -3.269567489624023438e-01 6.352096080780029297e+00 1.807541847229003906e+00 -9.141287803649902344e-01
2.781000000000000000e+03 1.120011520385742188e+01 3.091271972656250000e+01 -5.008306503295898438e-01 4.967565536499023438e+00 1.340020418167114258e+00 -9.919761419296264648e-01
2.782000000000000000e+03 7.120411682128906250e+01 3.533130264282226562e+01 1.456348411738872528e-02 5.760631561279296875e+00 1.732558488845825195e+00 1.598356291651725769e-02
2.783000000000000000e+03 6.821889495849609375e+01 3.490156173706054688e+01 3.487300872802734375e-02 5.457315921783447266e+00 1.647656679153442383e+00 7.280122488737106323e-02
2.784000000000000000e+03 4.121276092529296875e+01 -3.062418937683105469e+01 -3.811998963356018066e-01 5.570793151855468750e+00 1.556877970695495605e+00 -1.383858084678649902e+00
2.785000000000000000e+03 4.654935836791992188e+01 -3.052883338928222656e+01 4.026152193546295166e-02 2.626516580581665039e+00 8.000334501266479492e-01 -1.229948401451110840e+00
2.786000000000000000e+03 9.448611259460449219e+00 1.591901397705078125e+01 3.189713656902313232e-01 5.428253173828125000e+00 1.724167346954345703e+00 -5.331886410713195801e-01
2.787000000000000000e+03 9.578330039978027344e+00 2.706603431701660156e+01 1.734536588191986084e-01 5.133402824401855469e+00 1.592056989669799805e+00 -1.288247704505920410e+00
2.788000000000000000e+03 7.168363189697265625e+01 1.285665798187255859e+01 1.428745836019515991e-01 6.001551151275634766e+00 1.843327760696411133e+00 -8.321067690849304199e-01
2.789000000000000000e+03 8.304247856140136719e+00 2.751658248901367188e+01 7.684218883514404297e-02 4.735091209411621094e+00 1.443580031394958496e+00 -1.361342430114746094e+00
2.790000000000000000e+03 5.786142349243164062e+01 6.756855010986328125e+00 1.042297109961509705e-01 1.371083855628967285e+00 4.425940811634063721e-01 -6.927753686904907227e-01
2.791000000000000000e+03 2.405787277221679688e+01 -1.222639369964599609e+01 1.226044371724128723e-01 4.166863560676574707e-01 1.617872416973114014e-01 -9.372320175170898438e-01
2.792000000000000000e+03 9.704612731933593750e+00 1.754812812805175781e+01 5.392435193061828613e-01 5.677168846130371094e+00 1.864923715591430664e+00 -6.486557722091674805e-01
2.793000000000000000e+03 8.377487182617187500e+00 1.533895301818847656e+01 1.781639307737350464e-01 4.762981414794921875e+00 1.482343673706054688e+00 -5.127164721488952637e-01
2.794000000000000000e+03 7.319632720947265625e+01 2.127556037902832031e+01 1.863972693681716919e-01 6.020285606384277344e+00 1.862004756927490234e+00 -3.891977965831756592e-01
2.795000000000000000e+03 4.097309494018554688e+01 -3.249990081787109375e+01 -8.018798828125000000e-01 5.347992420196533203e+00 1.363833785057067871e+00 -1.135555148124694824e+00
2.796000000000000000e+03 4.300545120239257812e+01 -2.826968002319335938e+01 4.176282584667205811e-01 4.468794345855712891e+00 1.465926766395568848e+00 -1.641118049621582031e+00
2.797000000000000000e+03 7.876228332519531250e+00 3.348233413696289062e+01 -5.044584274291992188e-01 4.626682281494140625e+00 1.236667156219482422e+00 -1.037019491195678711e+00
2.798000000000000000e+03 7.028822422027587891e+00 2.789336967468261719e+01 3.550980985164642334e-02 4.410865783691406250e+00 1.333912611007690430e+00 -1.347532749176025391e+00
2.799000000000000000e+03 6.872412109375000000e+01 -1.343642473220825195e+00 -1.076270103454589844e+00 6.588867187500000000e+00 1.653779149055480957e+00 -6.425268650054931641e-01
2.800000000000000000e+03 7.021681976318359375e+01 -3.733624696731567383e+00 -6.811414957046508789e-01 7.577309131622314453e+00 2.068850278854370117e+00 -2.553694248199462891e-01
2.801000000000000000e+03 7.471393585205078125e+01 -1.746905136108398438e+01 5.549468994140625000e-01 9.294399261474609375e+00 2.954803943634033203e+00 -1.902909278869628906e-01
2.802000000000000000e+03 7.002625274658203125e+01 2.762966918945312500e+01 2.273260653018951416e-01 5.511748790740966797e+00 1.721722483634948730e+00 -1.009137779474258423e-01
2.803000000000000000e+03 1.083096122741699219e+01 2.662889671325683594e+01 2.712436616420745850e-01 5.602828979492187500e+00 1.762221813201904297e+00 -1.113425135612487793e+00
2.804000000000000000e+03 4.896760940551757812e+01 1.625465965270996094e+01 1.558708310127258301e+00 3.876344203948974609e+00 1.630515694618225098e+00 1.625274658203125000e+00
2.805000000000000000e+03 4.761790847778320312e+01 1.287619400024414062e+01 1.795898675918579102e+00 4.009212017059326172e+00 1.741533279418945312e+00 2.039948701858520508e+00
2.806000000000000000e+03 5.077852249145507812e+01 2.577092361450195312e+01 5.631921291351318359e-01 4.090761661529541016e+00 1.396186113357543945e+00 9.320705533027648926e-01
2.807000000000000000e+03 1.040357971191406250e+01 3.707264328002929688e+01 -8.940976858139038086e-01 4.335875034332275391e+00 1.032533288002014160e+00 -6.028174161911010742e-01
2.808000000000000000e+03 8.913591384887695312e+00 3.569608306884765625e+01 -7.152163982391357422e-01 4.603901386260986328e+00 1.166605591773986816e+00 -7.887016534805297852e-01
2.809000000000000000e+03 2.485705757141113281e+01 -9.467639923095703125e+00 1.570745944976806641e+00 5.147785544395446777e-01 6.256573796272277832e-01 -1.528674006462097168e+00
2.810000000000000000e+03 8.078004837036132812e+00 2.598082923889160156e+01 2.664365470409393311e-01 4.686285495758056641e+00 1.485816717147827148e+00 -1.322455048561096191e+00
2.811000000000000000e+03 7.025762939453125000e+01 3.031206321716308594e+01 1.576005816459655762e-01 5.581202983856201172e+00 1.721641063690185547e+00 -3.440713882446289062e-02
2.812000000000000000e+03 4.789471817016601562e+01 7.110699176788330078e+00 1.094653606414794922e+00 2.178779363632202148e+00 9.820299148559570312e-01 1.928366780281066895e+00
2.813000000000000000e+03 4.886507797241210938e+01 7.936091899871826172e+00 1.330001711845397949e+00 1.887391448020935059e+00 9.652179479598999023e-01 1.532513976097106934e+00
2.814000000000000000e+03 4.965526199340820312e+01 6.857411861419677734e+00 7.477490901947021484e-01 1.227184414863586426e+00 5.924800634384155273e-01 1.104685664176940918e+00
2.815000000000000000e+03 7.405711364746093750e+01 -2.266477012634277344e+01 5.293816328048706055e-01 9.901696205139160156e+00 3.129323244094848633e+00 -6.585739254951477051e-01
2.816000000000000000e+03 4.780379104614257812e+01 1.547001934051513672e+01 1.581559777259826660e+00 4.293374061584472656e+00 1.762480139732360840e+00 1.868382811546325684e+00
2.817000000000000000e+03 4.996141433715820312e+01 1.709046363830566406e+01 1.505697965621948242e+00 3.714815855026245117e+00 1.566154122352600098e+00 1.461930155754089355e+00
2.818000000000000000e+03 5.072622299194335938e+01 1.611341285705566406e+01 1.636080145835876465e+00 3.342927455902099609e+00 1.493702292442321777e+00 1.355749487876892090e+00
2.819000000000000000e+03 1.762162780761718750e+01 4.126876831054687500e+01 -1.273850560188293457e+00 2.199398040771484375e+00 2.776642441749572754e-01 3.058452531695365906e-02
2.820000000000000000e+03 9.113386154174804688e+00 3.226552724838256836e+00 6.774179339408874512e-01 6.132755756378173828e+00 2.043052196502685547e+00 -2.746392250061035156e+00
2.821000000000000000e+03 8.863512039184570312e+00 2.696440458297729492e+00 1.212353944778442383e+00 5.264390468597412109e+00 1.943023324012756348e+00 -3.082417726516723633e+00
2.822000000000000000e+03 4.002643585205078125e+00 5.385436534881591797e+00 3.984444737434387207e-01 8.920264840126037598e-01 3.871412873268127441e-01 -3.212841749191284180e-01
2.823000000000000000e+03 5.901497364044189453e+00 2.986966609954833984e+00 8.541578650474548340e-01 9.102925658226013184e-01 5.293351411819458008e-01 -6.318452358245849609e-01
2.824000000000000000e+03 6.917829513549804688e+00 -2.657592535018920898e+00 2.494481086730957031e+00 1.625711679458618164e+00 1.236057758331298828e+00 2.489734888076782227e+00
2.825000000000000000e+03 9.713045120239257812e+00 2.785807371139526367e+00 5.072199702262878418e-01 8.110892295837402344e+00 2.585433721542358398e+00 -2.809730529785156250e+00
2.826000000000000000e+03 7.868723392486572266e+00 2.730828046798706055e+00 1.451721429824829102e+00 2.735307216644287109e+00 1.256108522415161133e+00 -2.188924551010131836e+00
2.827000000000000000e+03 7.768417835235595703e+00 2.458685398101806641e+00 1.524433612823486328e+00 2.273131132125854492e+00 1.139269471168518066e+00 -2.000077009201049805e+00
2.828000000000000000e+03 8.898391723632812500e+00 -2.724690675735473633e+00 2.705801725387573242e+00 5.563281059265136719e+00 2.480724811553955078e+00 4.156232357025146484e+00
2.829000000000000000e+03 7.544806003570556641e+00 2.589732408523559570e+00 1.394255638122558594e+00 2.014537572860717773e+00 1.022637963294982910e+00 -1.751625537872314453e+00
2.830000000000000000e+03 8.010038375854492188e+00 -2.631125926971435547e+00 2.973017454147338867e+00 3.199082612991333008e+00 1.851629972457885742e+00 3.566735744476318359e+00
2.831000000000000000e+03 9.389642715454101562e+00 -2.713873386383056641e+00 2.303694963455200195e+00 7.285761833190917969e+00 2.876837015151977539e+00 3.983981847763061523e+00
2.832000000000000000e+03 1.170637893676757812e+01 -2.313426971435546875e+00 3.096125602722167969e+00 9.585246086120605469e+00 3.804411649703979492e+00 -5.343437194824218750e-01
2.833000000000000000e+03 1.899922180175781250e+01 -4.648125648498535156e+00 3.048285961151123047e+00 1.632073640823364258e+00 1.404107928276062012e+00 -1.553785085678100586e+00
2.834000000000000000e+03 1.079394817352294922e+01 -3.057360649108886719e+00 1.612338304519653320e+00 9.198975563049316406e+00 3.243394136428833008e+00 1.547483682632446289e+00
2.835000000000000000e+03 1.094961643218994141e+01 -2.778615474700927734e+00 1.909466147422790527e+00 9.660428047180175781e+00 3.470968246459960938e+00 1.154243588447570801e+00
2.836000000000000000e+03 1.376343631744384766e+01 7.118123173713684082e-01 4.958988189697265625e+00 6.295834541320800781e+00 3.376446962356567383e+00 4.951248466968536377e-01
2.837000000000000000e+03 5.266959190368652344e+00 -3.052756309509277344e+00 1.502619504928588867e+00 9.702549576759338379e-01 7.418623566627502441e-01 1.534972071647644043e+00
2.838000000000000000e+03 1.203415012359619141e+01 -2.267437934875488281e+00 3.527165651321411133e+00 8.982738494873046875e+00 3.752971410751342773e+00 -9.325767755508422852e-01
2.839000000000000000e+03 3.965792894363403320e+00 3.593640327453613281e+00 4.127764701843261719e-01 4.000296890735626221e-01 2.438418418169021606e-01 -1.400457881391048431e-02
2.840000000000000000e+03 9.897569656372070312e+00 3.085775136947631836e+00 2.174403071403503418e-01 8.324285507202148438e+00 2.562517642974853516e+00 -2.426115512847900391e+00
2.841000000000000000e+03 1.081428241729736328e+01 3.326792955398559570e+00 -5.708449706435203552e-02 9.412571907043457031e+00 2.806646347045898438e+00 -1.099435091018676758e+00
2.842000000000000000e+03 1.232397174835205078e+01 -1.807537317276000977e+00 4.592442989349365234e+00 8.530962944030761719e+00 3.937021970748901367e+00 -1.344136238098144531e+00
2.843000000000000000e+03 1.295879364013671875e+01 -5.776655077934265137e-01 6.342051982879638672e+00 7.083380699157714844e+00 4.027629852294921875e+00 -6.348897814750671387e-01
2.844000000000000000e+03 1.273867321014404297e+01 -3.375556766986846924e-01 6.683683395385742188e+00 7.438937187194824219e+00 4.236786365509033203e+00 -2.906547486782073975e-01
2.845000000000000000e+03 1.233049774169921875e+01 -1.326794028282165527e+00 5.628016471862792969e+00 8.508736610412597656e+00 4.241025924682617188e+00 -1.358932018280029297e+00
2.846000000000000000e+03 4.012598514556884766e+00 -3.271386384963989258e+00 9.424055814743041992e-01 7.871096134185791016e-01 5.188545584678649902e-01 1.016204714775085449e+00
2.847000000000000000e+03 3.673303604125976562e+00 -4.279438018798828125e+00 7.474668622016906738e-01 1.137597680091857910e+00 5.655193924903869629e-01 1.216656684875488281e+00
2.848000000000000000e+03 1.122625637054443359e+01 3.170582056045532227e+00 1.349091231822967529e-01 9.848235130310058594e+00 2.994943380355834961e+00 -4.732830226421356201e-01
2.849000000000000000e+03 4.799644470214843750e+00 -3.094172000885009766e+00 1.237597703933715820e+00 8.384906649589538574e-01 6.228265166282653809e-01 1.260661125183105469e+00
2.850000000000000000e+03 6.169582366943359375e+00 2.850969076156616211e+00 9.325506687164306641e-01 9.341174364089965820e-01 5.600004196166992188e-01 -7.301985621452331543e-01
2.851000000000000000e+03 4.951786518096923828e+00 3.261642217636108398e+00 5.902507901191711426e-01 6.082320809364318848e-01 3.595448732376098633e-01 -2.391643822193145752e-01
2.852000000000000000e+03 3.712676763534545898e+00 -2.930171012878417969e+00 7.911510467529296875e-01 5.740078091621398926e-01 4.095476567745208740e-01 7.319774627685546875e-01
2.853000000000000000e+03 3.149199724197387695e+00 -3.039465904235839844e+00 5.938509106636047363e-01 5.501250028610229492e-01 3.431927561759948730e-01 6.122551560401916504e-01
2.854000000000000000e+03 3.494548797607421875e+00 -3.380743026733398438e+00 7.403072714805603027e-01 6.640695333480834961e-01 4.213130474090576172e-01 8.006039857864379883e-01
2.855000000000000000e+03 6.399652957916259766e+00 8.907752037048339844e+00 -1.182371377944946289e-01 3.366707801818847656e+00 9.745412468910217285e-01 -7.412799000740051270e-01
2.856000000000000000e+03 4.471360206604003906e+00 -6.781114578247070312e+00 2.988396883010864258e-01 2.537474393844604492e+00 8.508942723274230957e-01 2.038592576980590820e+00
2.857000000000000000e+03 3.167193651199340820e+00 -3.399195671081542969e+00 6.620629429817199707e-01 6.268805265426635742e-01 3.866830468177795410e-01 7.261815071105957031e-01
2.858000000000000000e+03 1.181952381134033203e+01 8.842173576354980469e+00 -8.209785223007202148e-01 6.882870674133300781e+00 1.818567633628845215e+00 -4.721218049526214600e-01
2.859000000000000000e+03 1.076519203186035156e+01 1.136312103271484375e+01 -4.365543425083160400e-01 6.245537281036376953e+00 1.742694854736328125e+00 -4.640004336833953857e-01
2.860000000000000000e+03 3.591292381286621094e+00 4.466424942016601562e+00 3.760854899883270264e-01 4.736891984939575195e-01 2.549324035644531250e-01 -8.710637688636779785e-02
2.861000000000000000e+03 1.212563419342041016e+01 8.154333114624023438e+00 -8.624332547187805176e-01 7.074328422546386719e+00 1.863568544387817383e+00 -4.320526719093322754e-01
2.862000000000000000e+03 3.250761508941650391e+00 5.121307849884033203e+00 3.156964778900146484e-01 4.882479608058929443e-01 2.411833256483078003e-01 -1.229255050420761108e-01
2.863000000000000000e+03 4.583850860595703125e+00 -8.294812202453613281e+00 -1.648572832345962524e-01 3.188851594924926758e+00 9.071983098983764648e-01 2.072695255279541016e+00
2.864000000000000000e+03 5.880653858184814453e+00 -7.977833271026611328e+00 -8.758297562599182129e-02 3.507658720016479492e+00 1.026022672653198242e+00 2.544452905654907227e+00
2.865000000000000000e+03 1.412199306488037109e+01 5.904114723205566406e+00 -3.966970145702362061e-01 7.080482959747314453e+00 2.005135774612426758e+00 7.598721235990524292e-02
2.866000000000000000e+03 4.357472419738769531e+00 5.815794467926025391e+00 3.773151338100433350e-01 1.192777514457702637e+00 4.710277915000915527e-01 -4.500797390937805176e-01
2.867000000000000000e+03 5.557760715484619141e+00 8.506166458129882812e+00 1.554021728225052357e-03 2.625815391540527344e+00 7.882108688354492188e-01 -6.968199014663696289e-01
2.868000000000000000e+03 1.329308509826660156e+01 7.149412631988525391e+00 -7.899516224861145020e-01 7.291969776153564453e+00 1.950605392456054688e+00 -1.746845990419387817e-01
2.869000000000000000e+03 1.309344482421875000e+01 7.721347808837890625e+00 -8.308793902397155762e-01 7.216474056243896484e+00 1.915678381919860840e+00 -2.609828710556030273e-01
2.870000000000000000e+03 4.205110549926757812e+00 -6.158393383026123047e+00 4.413430094718933105e-01 2.157078266143798828e+00 7.795264124870300293e-01 1.863295078277587891e+00
2.871000000000000000e+03 6.135329723358154297e+00 8.375215530395507812e+00 -4.031315073370933533e-02 3.065222024917602539e+00 9.074726700782775879e-01 -7.680500149726867676e-01
2.872000000000000000e+03 9.998528480529785156e+00 9.091565132141113281e+00 -6.496608853340148926e-01 6.004992961883544922e+00 1.606599688529968262e+00 -7.036887407302856445e-01
2.873000000000000000e+03 1.283212471008300781e+01 8.339537620544433594e+00 -8.460739254951477051e-01 7.137543201446533203e+00 1.887440800666809082e+00 -3.302594721317291260e-01
2.874000000000000000e+03 9.001086235046386719e+00 1.283851623535156250e+01 -1.537971794605255127e-01 5.203271865844726562e+00 1.514842391014099121e+00 -4.766401648521423340e-01
2.875000000000000000e+03 5.326530933380126953e+00 -8.942278861999511719e+00 -3.924860954284667969e-01 3.680425643920898438e+00 9.863818883895874023e-01 2.291074037551879883e+00
2.876000000000000000e+03 5.266653060913085938e+00 -1.039758300781250000e+01 -8.118268847465515137e-01 4.260704040527343750e+00 1.034663200378417969e+00 2.063603162765502930e+00
2.877000000000000000e+03 4.830035209655761719e+00 7.787816524505615234e+00 1.079000458121299744e-01 1.967133641242980957e+00 6.225101351737976074e-01 -6.028661131858825684e-01
2.878000000000000000e+03 4.961181640625000000e+00 7.095020771026611328e+00 1.852762848138809204e-01 1.906604886054992676e+00 6.275643110275268555e-01 -6.372726559638977051e-01
2.879000000000000000e+03 3.123573875427246094e+01 -1.190451717376708984e+01 1.621163606643676758e+00 1.653030276298522949e+00 9.822581410408020020e-01 -1.516360282897949219e+00
2.880000000000000000e+03 8.809010505676269531e+00 2.266823387145996094e+01 5.713580846786499023e-01 5.052973747253417969e+00 1.687299609184265137e+00 -1.073536992073059082e+00
2.881000000000000000e+03 7.156043243408203125e+01 3.370005130767822266e+00 -6.095406413078308105e-01 6.770967006683349609e+00 1.848427891731262207e+00 -6.983771324157714844e-01
2.882000000000000000e+03 5.962706565856933594e+00 -8.454285621643066406e+00 -3.249157667160034180e-01 3.747225522994995117e+00 1.026692986488342285e+00 2.545614957809448242e+00
2.883000000000000000e+03 7.703670024871826172e+00 -1.205771827697753906e+01 -1.513112783432006836e+00 4.771121978759765625e+00 9.774027466773986816e-01 2.815379858016967773e+00
2.884000000000000000e+03 7.195055389404296875e+01 -1.561530590057373047e+00 -7.236713767051696777e-01 7.602997303009033203e+00 2.063797950744628906e+00 -7.994934916496276855e-02
2.885000000000000000e+03 1.307420921325683594e+01 -1.087767028808593750e+01 -5.699195861816406250e-01 2.143984556198120117e+00 4.722194969654083252e-01 1.443600416183471680e+00
2.886000000000000000e+03 3.371690750122070312e+01 -1.134467601776123047e+01 1.821025133132934570e+00 3.970061302185058594e+00 1.737325906753540039e+00 -1.323938846588134766e+00
2.887000000000000000e+03 1.123218727111816406e+01 -1.043498992919921875e+01 -7.050982713699340820e-01 3.235888242721557617e+00 7.592369914054870605e-01 2.375501155853271484e+00
2.888000000000000000e+03 1.123542022705078125e+01 1.268384170532226562e+01 -2.026936858892440796e-01 6.456835746765136719e+00 1.876242637634277344e+00 -4.374566674232482910e-01
2.889000000000000000e+03 1.744045639038085938e+01 4.735687375068664551e-01 3.385677099227905273e+00 2.953844070434570312e+00 1.901856422424316406e+00 -1.044628381729125977e+00
2.890000000000000000e+03 1.598153305053710938e+01 2.393921375274658203e+00 2.390655279159545898e+00 4.832482814788818359e+00 2.166941404342651367e+00 -6.875248625874519348e-03
2.891000000000000000e+03 1.709879302978515625e+01 2.483490467071533203e+00 2.096215963363647461e+00 3.971960783004760742e+00 1.820453047752380371e+00 -4.511554241180419922e-01
2.892000000000000000e+03 2.092993545532226562e+01 -1.111735343933105469e+01 1.963645815849304199e-01 7.800514698028564453e-01 2.929248213768005371e-01 -9.179791808128356934e-01
2.893000000000000000e+03 1.944594764709472656e+01 -1.112711715698242188e+01 1.767988502979278564e-02 9.127175807952880859e-01 2.791192531585693359e-01 -7.911471724510192871e-01
2.894000000000000000e+03 1.114938831329345703e+01 1.045592880249023438e+01 -5.993590354919433594e-01 6.471571445465087891e+00 1.761663675308227539e+00 -4.765288829803466797e-01
2.895000000000000000e+03 1.133192443847656250e+01 -1.117986297607421875e+01 -9.270668029785156250e-01 2.835689544677734375e+00 5.725867748260498047e-01 2.466246366500854492e+00
2.896000000000000000e+03 1.802676200866699219e+01 -1.105028247833251953e+01 -1.161758154630661011e-01 1.068982481956481934e+00 2.858420014381408691e-01 -6.079210042953491211e-01
2.897000000000000000e+03 1.745438194274902344e+01 -1.032142162322998047e+01 1.502581089735031128e-01 1.274791955947875977e+00 4.275150001049041748e-01 -5.725899934768676758e-01
2.898000000000000000e+03 8.640130043029785156e+00 -1.216387462615966797e+01 -1.527548551559448242e+00 4.322306632995605469e+00 8.384274244308471680e-01 3.029800415039062500e+00
2.899000000000000000e+03 9.585921287536621094e+00 -1.132417201995849609e+01 -1.241228222846984863e+00 3.848185777664184570e+00 7.820872664451599121e-01 2.940056562423706055e+00
2.900000000000000000e+03 7.235281372070312500e+01 5.671442508697509766e+00 -3.367941975593566895e-01 6.779526710510253906e+00 1.932819843292236328e+00 -7.501289844512939453e-01
2.901000000000000000e+03 6.923355102539062500e+01 2.536311149597167969e+00 -8.747525215148925781e-01 6.119236469268798828e+00 1.573345184326171875e+00 -9.565683603286743164e-01
2.902000000000000000e+03 1.802668762207031250e+01 -1.837063908576965332e+00 3.704986333847045898e+00 2.204624652862548828e+00 1.772883296012878418e+00 -1.575200796127319336e+00
2.903000000000000000e+03 1.797628021240234375e+01 -1.060381054878234863e+00 3.731061697006225586e+00 2.323689460754394531e+00 1.816425442695617676e+00 -1.482589960098266602e+00
2.904000000000000000e+03 2.261449813842773438e+01 -8.139678955078125000e+00 1.800136089324951172e+00 8.628504872322082520e-01 7.988959550857543945e-01 -1.464142560958862305e+00
2.905000000000000000e+03 1.982486152648925781e+01 -4.921189308166503906e+00 2.959453821182250977e+00 1.372903585433959961e+00 1.299707293510437012e+00 -1.521491169929504395e+00
2.906000000000000000e+03 1.932478904724121094e+01 -3.774330377578735352e+00 3.354057550430297852e+00 1.536841034889221191e+00 1.467269539833068848e+00 -1.588837265968322754e+00
2.907000000000000000e+03 2.557264137268066406e+01 -7.975082397460937500e+00 2.182759523391723633e+00 6.374639272689819336e-01 8.460670113563537598e-01 -1.812092781066894531e+00
2.908000000000000000e+03 2.454637718200683594e+01 -7.849648475646972656e+00 2.058656215667724609e+00 7.316448092460632324e-01 8.370903134346008301e-01 -1.699126720428466797e+00
2.909000000000000000e+03 7.112505340576171875e+01 1.109858798980712891e+01 5.955865606665611267e-02 5.910793304443359375e+00 1.791105628013610840e+00 -9.345577359199523926e-01
2.910000000000000000e+03 7.155327606201171875e+01 7.886106014251708984e+00 -1.975599229335784912e-01 6.329112529754638672e+00 1.839465856552124023e+00 -9.120361208915710449e-01
2.911000000000000000e+03 6.961103439331054688e+00 1.344621562957763672e+01 -5.679415911436080933e-02 3.904574871063232422e+00 1.154334187507629395e+00 -4.553750157356262207e-01
2.912000000000000000e+03 6.937244415283203125e+01 1.955725669860839844e+01 4.128845632076263428e-01 5.282732963562011719e+00 1.708685159683227539e+00 -5.087310075759887695e-01
2.913000000000000000e+03 7.059042358398437500e+01 1.558489894866943359e+01 2.961525917053222656e-01 5.581855773925781250e+00 1.763402462005615234e+00 -7.454546093940734863e-01
2.914000000000000000e+03 2.450103569030761719e+01 -6.808817863464355469e+00 2.403230428695678711e+00 9.082300066947937012e-01 9.934381246566772461e-01 -1.762941360473632812e+00
2.915000000000000000e+03 3.397985839843750000e+01 -9.629726409912109375e+00 2.430802106857299805e+00 3.898998498916625977e+00 1.898940086364746094e+00 -1.037417054176330566e+00
2.916000000000000000e+03 2.899070358276367188e+01 -1.004747772216796875e+01 2.156792402267456055e+00 5.776863098144531250e-01 8.203436136245727539e-01 -1.652384042739868164e+00
2.917000000000000000e+03 7.913852691650390625e+00 2.006632995605468750e+01 5.322465896606445312e-01 4.604300022125244141e+00 1.540964007377624512e+00 -8.393660783767700195e-01
2.918000000000000000e+03 6.859313488006591797e+00 2.088112640380859375e+01 4.174726307392120361e-01 4.045369625091552734e+00 1.338852643966674805e+00 -8.743214607238769531e-01
2.919000000000000000e+03 7.723038673400878906e+00 1.143624401092529297e+01 -2.418934851884841919e-01 4.421640396118164062e+00 1.253924131393432617e+00 -5.528695583343505859e-01
2.920000000000000000e+03 1.032806777954101562e+01 1.231471729278564453e+01 -2.661333680152893066e-01 5.989491462707519531e+00 1.717007398605346680e+00 -4.415295720100402832e-01
2.921000000000000000e+03 3.716641998291015625e+01 -1.736706733703613281e+01 -3.098653256893157959e-01 1.072741985321044922e+01 3.125266313552856445e+00 5.537241697311401367e-01
2.922000000000000000e+03 3.207589721679687500e+01 -7.735139369964599609e+00 2.888796567916870117e+00 1.631023645401000977e+00 1.355946063995361328e+00 -1.417155504226684570e+00
2.923000000000000000e+03 7.314180850982666016e+00 2.192955017089843750e+01 4.448721706867218018e-01 4.308696746826171875e+00 1.426070690155029297e+00 -1.012586116790771484e+00
2.924000000000000000e+03 8.708158493041992188e+00 -1.129556846618652344e+01 -1.242919802665710449e+00 4.227908134460449219e+00 8.954964876174926758e-01 2.952924966812133789e+00
2.925000000000000000e+03 6.977158546447753906e+00 1.041700172424316406e+01 -2.239023596048355103e-01 3.803005933761596680e+00 1.073731064796447754e+00 -6.294904947280883789e-01
2.926000000000000000e+03 6.220206451416015625e+01 7.206905841827392578e+00 1.829516957513988018e-03 2.849766016006469727e+00 8.554787039756774902e-01 -1.244943141937255859e+00
2.927000000000000000e+03 1.033882617950439453e+01 2.997448348999023438e+01 -3.141410946846008301e-01 5.002851963043212891e+00 1.406613230705261230e+00 -1.174231886863708496e+00
2.928000000000000000e+03 6.586698913574218750e+01 3.022785902023315430e+00 -9.920349717140197754e-01 4.565669536590576172e+00 1.072090268135070801e+00 -1.395064949989318848e+00
2.929000000000000000e+03 7.014715576171875000e+01 1.394659757614135742e+00 -8.911428451538085938e-01 6.636694431304931641e+00 1.723665475845336914e+00 -6.878342628479003906e-01
2.930000000000000000e+03 3.523175048828125000e+01 -1.141891956329345703e+01 1.650966763496398926e+00 5.794397354125976562e+00 2.233609199523925781e+00 -8.350660204887390137e-01
2.931000000000000000e+03 4.970313262939453125e+01 1.098599720001220703e+01 1.820474743843078613e+00 2.522298336029052734e+00 1.302831888198852539e+00 1.539679050445556641e+00
2.932000000000000000e+03 1.009063148498535156e+01 1.484842777252197266e+01 1.678330600261688232e-01 5.782296180725097656e+00 1.785038709640502930e+00 -4.866786897182464600e-01
2.933000000000000000e+03 7.002714538574218750e+01 4.994470119476318359e+00 -5.415858030319213867e-01 6.090013504028320312e+00 1.664528369903564453e+00 -1.001547932624816895e+00
2.934000000000000000e+03 4.314860153198242188e+01 -3.093296623229980469e+01 -2.236999124288558960e-01 4.335540294647216797e+00 1.233552098274230957e+00 -1.462176442146301270e+00
2.935000000000000000e+03 9.134595870971679688e+00 1.931587982177734375e+01 5.941533446311950684e-01 5.265486240386962891e+00 1.757891774177551270e+00 -8.010450005531311035e-01
2.936000000000000000e+03 7.037199401855468750e+01 -2.409656286239624023e+00 -8.629590272903442383e-01 7.322120666503906250e+00 1.937748432159423828e+00 -2.810430526733398438e-01
2.937000000000000000e+03 5.606431961059570312e+01 8.936521530151367188e+00 8.580704927444458008e-01 1.462748408317565918e+00 6.962456703186035156e-01 -2.132271975278854370e-01
2.938000000000000000e+03 5.254998016357421875e+01 8.349010467529296875e+00 1.041402101516723633e+00 1.219513773918151855e+00 6.782747507095336914e-01 4.932545125484466553e-01
2.939000000000000000e+03 7.213132476806640625e+01 -3.612679290771484375e+01 -6.842285990715026855e-01 7.730953693389892578e+00 2.114017486572265625e+00 -1.218920648097991943e-01
2.940000000000000000e+03 7.181241607666015625e+01 1.610058593750000000e+01 2.301036268472671509e-01 5.868553638458251953e+00 1.829597234725952148e+00 -6.960330009460449219e-01
2.941000000000000000e+03 7.044621276855468750e+01 1.226675796508789062e+01 1.559230536222457886e-01 5.646922111511230469e+00 1.740853548049926758e+00 -9.286752343177795410e-01
2.942000000000000000e+03 2.243597793579101562e+01 -7.173567771911621094e+00 2.256707668304443359e+00 9.328987002372741699e-01 9.568819403648376465e-01 -1.495193362236022949e+00
2.943000000000000000e+03 4.791849136352539062e+01 1.073260498046875000e+01 1.892010688781738281e+00 3.380805015563964844e+00 1.581844687461853027e+00 2.041452646255493164e+00
2.944000000000000000e+03 4.811116027832031250e+01 8.911269187927246094e+00 1.566935300827026367e+00 2.636406898498535156e+00 1.261002659797668457e+00 1.898048639297485352e+00
2.945000000000000000e+03 7.031761932373046875e+01 2.124831581115722656e+01 3.429381847381591797e-01 5.478106498718261719e+00 1.746313333511352539e+00 -4.128721952438354492e-01
2.946000000000000000e+03 6.903679656982421875e+01 2.100228309631347656e+01 4.198786318302154541e-01 5.257200717926025391e+00 1.703123807907104492e+00 -4.122888147830963135e-01
2.947000000000000000e+03 4.873332977294921875e+01 -3.135480690002441406e+01 -1.017419025301933289e-01 1.837693691253662109e+00 5.207855105400085449e-01 -8.912022113800048828e-01
2.948000000000000000e+03 6.902259063720703125e+01 2.610716247558593750e+01 3.120365738868713379e-01 5.351036071777343750e+00 1.698921799659729004e+00 -1.524251699447631836e-01
2.949000000000000000e+03 7.048718261718750000e+01 2.401167869567871094e+01 2.865490615367889404e-01 5.545286655426025391e+00 1.749550700187683105e+00 -2.612851262092590332e-01
2.950000000000000000e+03 2.952968788146972656e+01 -1.212853431701660156e+01 1.395703673362731934e+00 5.279486775398254395e-01 5.770956873893737793e-01 -1.297453284263610840e+00
2.951000000000000000e+03 3.198648071289062500e+01 -1.087309074401855469e+01 2.216295242309570312e+00 2.226590394973754883e+00 1.332865715026855469e+00 -1.501069426536560059e+00
2.952000000000000000e+03 5.082328414916992188e+01 1.788952255249023438e+01 1.458909034729003906e+00 3.606369972229003906e+00 1.519583702087402344e+00 1.316047072410583496e+00
2.953000000000000000e+03 2.626035118103027344e+01 -1.114441394805908203e+01 1.168855905532836914e+00 3.286911547183990479e-01 4.492641091346740723e-01 -1.288654685020446777e+00
2.954000000000000000e+03 4.971888351440429688e+01 1.513623332977294922e+01 1.701514840126037598e+00 3.489463329315185547e+00 1.557293415069580078e+00 1.567558288574218750e+00
2.955000000000000000e+03 1.030622577667236328e+01 3.226072692871093750e+01 -6.243644952774047852e-01 4.716016769409179688e+00 1.227495670318603516e+00 -1.035133600234985352e+00
2.956000000000000000e+03 5.020171737670898438e+01 1.895479774475097656e+01 1.314059972763061523e+00 3.853000640869140625e+00 1.550118207931518555e+00 1.347062826156616211e+00
2.957000000000000000e+03 5.150141525268554688e+01 2.177332305908203125e+01 1.039389967918395996e+00 3.879678249359130859e+00 1.475720524787902832e+00 1.071013927459716797e+00
2.958000000000000000e+03 6.974970245361328125e+01 1.820562934875488281e+01 3.903567790985107422e-01 5.357784748077392578e+00 1.724442481994628906e+00 -5.983749032020568848e-01
2.959000000000000000e+03 6.089969635009765625e+01 7.491672515869140625e+00 1.398733854293823242e-01 2.382676124572753906e+00 7.567648291587829590e-01 -1.097731471061706543e+00
2.960000000000000000e+03 5.714370727539062500e+01 8.437795639038085938e+00 6.438135504722595215e-01 1.553316593170166016e+00 6.591390371322631836e-01 -4.748399555683135986e-01
2.961000000000000000e+03 5.159023284912109375e+01 1.714552116394042969e+01 1.542147040367126465e+00 3.356098651885986328e+00 1.469473719596862793e+00 1.204143285751342773e+00
2.962000000000000000e+03 5.118546676635742188e+01 1.965830421447753906e+01 1.267431020736694336e+00 3.736702680587768555e+00 1.501240134239196777e+00 1.189757704734802246e+00
2.963000000000000000e+03 7.052868652343750000e+01 9.922463417053222656e+00 -1.589114964008331299e-02 5.807103157043457031e+00 1.737363576889038086e+00 -9.993901848793029785e-01
2.964000000000000000e+03 6.987959289550781250e+01 6.987004756927490234e+00 -3.140930235385894775e-01 5.837059974670410156e+00 1.656890034675598145e+00 -1.064330458641052246e+00
2.965000000000000000e+03 2.458724784851074219e+01 -1.074075222015380859e+01 9.405868053436279297e-01 4.288029968738555908e-01 4.108169376850128174e-01 -1.266150593757629395e+00
2.966000000000000000e+03 6.506593322753906250e+01 4.133169174194335938e+00 -7.771213054656982422e-01 3.982263326644897461e+00 9.615426063537597656e-01 -1.455872178077697754e+00
2.967000000000000000e+03 6.325199508666992188e+01 5.437784194946289062e+00 -4.506123065948486328e-01 3.193204402923583984e+00 8.227776288986206055e-01 -1.390439987182617188e+00
2.968000000000000000e+03 5.102392196655273438e+01 2.868862152099609375e+01 2.613129317760467529e-01 4.114625453948974609e+00 1.312781453132629395e+00 8.263041973114013672e-01
2.969000000000000000e+03 7.494408416748046875e+01 -2.007844352722167969e+01 4.369996190071105957e-01 9.230687141418457031e+00 2.900306224822998047e+00 -4.664580225944519043e-01
2.970000000000000000e+03 4.814256668090820312e+01 -3.371455001831054688e+01 -3.749478459358215332e-01 2.354548454284667969e+00 5.938801765441894531e-01 -9.261034131050109863e-01
2.971000000000000000e+03 5.041111373901367188e+01 2.094883346557617188e+01 1.084752082824707031e+00 3.978413343429565430e+00 1.518949627876281738e+00 1.203019976615905762e+00
2.972000000000000000e+03 3.364499282836914062e+01 -5.626750946044921875e+00 2.679841518402099609e+00 2.092996597290039062e+00 1.431851387023925781e+00 -6.588722467422485352e-01
2.973000000000000000e+03 5.337196350097656250e+01 9.419959068298339844e+00 1.193796992301940918e+00 1.468312263488769531e+00 7.986327409744262695e-01 4.089243412017822266e-01
2.974000000000000000e+03 7.483305358886718750e+01 -1.879069900512695312e+01 4.789999723434448242e-01 9.320586204528808594e+00 2.939875841140747070e+00 -2.858622372150421143e-01
2.975000000000000000e+03 8.314643859863281250e+00 3.841835403442382812e+01 -7.126833200454711914e-01 4.521099567413330078e+00 1.142524957656860352e+00 -5.082715749740600586e-01
2.976000000000000000e+03 7.691678524017333984e+00 -3.593497467041015625e+01 -1.911835521459579468e-01 3.120367288589477539e+00 8.787551522254943848e-01 -4.237319529056549072e-01
2.977000000000000000e+03 6.973252773284912109e+00 2.569411277770996094e+00 1.211054444313049316e+00 1.313679337501525879e+00 7.574201226234436035e-01 -1.222297072410583496e+00
2.978000000000000000e+03 5.576782226562500000e+00 6.106332778930664062e+00 3.731434941291809082e-01 2.096583604812622070e+00 7.409181594848632812e-01 -8.317778110504150391e-01
2.979000000000000000e+03 8.415730476379394531e+00 2.913350343704223633e+00 1.308017849922180176e+00 4.068583011627197266e+00 1.612980246543884277e+00 -2.661961078643798828e+00
2.980000000000000000e+03 8.207361221313476562e+00 3.073495149612426758e+00 1.246187567710876465e+00 3.756961584091186523e+00 1.500944733619689941e+00 -2.473954677581787109e+00
2.981000000000000000e+03 6.479615688323974609e+00 3.511653184890747070e+00 9.947444796562194824e-01 1.649255752563476562e+00 7.932000756263732910e-01 -1.131183862686157227e+00
2.982000000000000000e+03 6.337376117706298828e+00 -2.913530826568603516e+00 2.048701524734497070e+00 1.331331849098205566e+00 1.014009952545166016e+00 2.092518091201782227e+00
2.983000000000000000e+03 6.583088874816894531e+00 -3.392195940017700195e+00 2.001327753067016602e+00 1.921753525733947754e+00 1.176924347877502441e+00 2.553493261337280273e+00
2.984000000000000000e+03 8.740905761718750000e+00 -3.055040359497070312e+00 2.359154939651489258e+00 5.252230644226074219e+00 2.283415794372558594e+00 3.913305282592773438e+00
2.985000000000000000e+03 8.503026008605957031e+00 -2.954581499099731445e+00 2.582961320877075195e+00 4.570836544036865234e+00 2.146139383316040039e+00 3.893876314163208008e+00
2.986000000000000000e+03 8.552648544311523438e+00 3.190609931945800781e+00 9.960631728172302246e-01 4.690697669982910156e+00 1.706028223037719727e+00 -2.591533899307250977e+00
2.987000000000000000e+03 7.437349319458007812e+00 3.100396871566772461e+00 1.263616681098937988e+00 2.350816488265991211e+00 1.084329962730407715e+00 -1.795086145401000977e+00
2.988000000000000000e+03 7.337682723999023438e+00 -2.868840456008911133e+00 2.566114425659179688e+00 2.303660631179809570e+00 1.460932493209838867e+00 2.974756002426147461e+00
2.989000000000000000e+03 7.754310607910156250e+00 -3.221220493316650391e+00 2.390412569046020508e+00 3.233365535736083984e+00 1.687133431434631348e+00 3.402762174606323242e+00
2.990000000000000000e+03 7.332698345184326172e+00 2.580737113952636719e+00 1.354887485504150391e+00 1.777226448059082031e+00 9.396342039108276367e-01 -1.592821955680847168e+00
2.991000000000000000e+03 8.994778633117675781e+00 -2.987462759017944336e+00 2.273019790649414062e+00 5.811100959777832031e+00 2.425236225128173828e+00 3.934112548828125000e+00
2.992000000000000000e+03 8.265272140502929688e+00 -2.791907072067260742e+00 2.802006721496582031e+00 3.931513309478759766e+00 2.020056009292602539e+00 3.783767700195312500e+00
2.993000000000000000e+03 9.614247322082519531e+00 3.352038383483886719e+00 2.814026176929473877e-01 7.416201591491699219e+00 2.309281349182128906e+00 -2.486891508102416992e+00
2.994000000000000000e+03 9.935103416442871094e+00 -2.981256961822509766e+00 1.721845984458923340e+00 8.410767555236816406e+00 3.039784193038940430e+00 3.136976242065429688e+00
2.995000000000000000e+03 1.297748470306396484e+01 5.622511506080627441e-01 5.882511615753173828e+00 7.370716094970703125e+00 3.975968360900878906e+00 8.369969129562377930e-01
2.996000000000000000e+03 4.653151035308837891e+00 3.434014797210693359e+00 5.288001894950866699e-01 5.494363903999328613e-01 3.234709501266479492e-01 -1.713333576917648315e-01
2.997000000000000000e+03 4.328779697418212891e+00 3.576552152633666992e+00 4.839963614940643311e-01 5.091382265090942383e-01 2.979403734207153320e-01 -1.125777140259742737e-01
2.998000000000000000e+03 1.062975120544433594e+01 2.908944368362426758e+00 1.089299768209457397e-01 9.884665489196777344e+00 2.998078584671020508e+00 -1.341887831687927246e+00
2.999000000000000000e+03 1.015668964385986328e+01 -2.847905397415161133e+00 1.726097941398620605e+00 9.013262748718261719e+00 3.221808195114135742e+00 2.808903455734252930e+00
3.000000000000000000e+03 4.592645168304443359e+00 -5.199338436126708984e+00 7.685187458992004395e-01 1.868838191032409668e+00 7.912070751190185547e-01 1.884664654731750488e+00
3.001000000000000000e+03 1.508475112915039062e+01 2.218737363815307617e+00 2.698698520660400391e+00 5.565137863159179688e+00 2.479151010513305664e+00 3.460910618305206299e-01
3.002000000000000000e+03 1.167584133148193359e+01 3.137462139129638672e+00 4.399321377277374268e-01 9.694222450256347656e+00 3.040246486663818359e+00 1.198151409626007080e-01
3.003000000000000000e+03 1.100147533416748047e+01 3.712200641632080078e+00 -1.796739250421524048e-01 9.014227867126464844e+00 2.650366306304931641e+00 -8.908123373985290527e-01
3.004000000000000000e+03 1.032559680938720703e+01 2.996723890304565430e+00 1.031699925661087036e-01 9.247604370117187500e+00 2.805232286453247070e+00 -1.788290977478027344e+00
3.005000000000000000e+03 1.257507133483886719e+01 2.708458662033081055e+00 1.584749221801757812e+00 8.937223434448242188e+00 3.156591892242431641e+00 9.851897358894348145e-01
3.006000000000000000e+03 1.304446411132812500e+01 1.349336862564086914e+00 4.341622829437255859e+00 7.847765445709228516e+00 3.656816482543945312e+00 1.308194041252136230e+00
3.007000000000000000e+03 1.235786247253417969e+01 1.939482331275939941e+00 2.911277294158935547e+00 9.384896278381347656e+00 3.688852071762084961e+00 1.477549433708190918e+00
3.008000000000000000e+03 5.337152004241943359e+00 2.916576862335205078e+00 6.517840027809143066e-01 6.280729174613952637e-01 3.839570879936218262e-01 -3.238153457641601562e-01
3.009000000000000000e+03 5.535991191864013672e+00 -3.258323907852172852e+00 1.601980447769165039e+00 1.175837516784667969e+00 8.333454132080078125e-01 1.779091119766235352e+00
3.010000000000000000e+03 5.824273586273193359e+00 -3.490695476531982422e+00 1.656851887702941895e+00 1.458640456199645996e+00 9.346477389335632324e-01 2.032016277313232422e+00
3.011000000000000000e+03 3.526099443435668945e+00 3.973229885101318359e+00 3.435380756855010986e-01 3.294324576854705811e-01 2.018911540508270264e-01 2.303145453333854675e-02
3.012000000000000000e+03 4.002383232116699219e+00 4.381796836853027344e+00 4.499466717243194580e-01 5.856897234916687012e-01 3.106909096240997314e-01 -1.622004210948944092e-01
3.013000000000000000e+03 3.774687051773071289e+00 -4.879337310791015625e+00 6.662492752075195312e-01 1.446256399154663086e+00 6.337516903877258301e-01 1.431929111480712891e+00
3.014000000000000000e+03 3.967617511749267578e+00 -5.508950710296630859e+00 5.645552873611450195e-01 1.795512557029724121e+00 7.080203294754028320e-01 1.654094338417053223e+00
3.015000000000000000e+03 4.280118465423583984e+00 -3.301337242126464844e+00 1.065163493156433105e+00 8.210167884826660156e-01 5.658540725708007812e-01 1.136240482330322266e+00
3.016000000000000000e+03 5.559432506561279297e+00 3.369406223297119141e+00 7.731618285179138184e-01 9.203802943229675293e-01 5.080626606941223145e-01 -5.575698018074035645e-01
3.017000000000000000e+03 4.390232563018798828e+00 4.406988620758056641e+00 5.289619565010070801e-01 7.992855906486511230e-01 3.984742462635040283e-01 -3.084202706813812256e-01
3.018000000000000000e+03 4.784331321716308594e+00 6.216943740844726562e+00 3.497937917709350586e-01 1.575582504272460938e+00 5.776129364967346191e-01 -5.978508591651916504e-01
3.019000000000000000e+03 1.652493858337402344e+01 1.879384398460388184e+00 2.712944746017456055e+00 4.193265914916992188e+00 2.071863174438476562e+00 -3.061256706714630127e-01
3.020000000000000000e+03 6.216734886169433594e+00 9.932945251464843750e+00 -1.471604108810424805e-01 3.290547370910644531e+00 9.430160522460937500e-01 -6.334215402603149414e-01
3.021000000000000000e+03 5.794345855712890625e+00 9.212400436401367188e+00 -7.316742837429046631e-02 2.881839275360107422e+00 8.426015377044677734e-01 -6.537188291549682617e-01
3.022000000000000000e+03 1.205010700225830078e+01 -1.031083869934082031e+01 -5.685637593269348145e-01 2.902275323867797852e+00 7.001134753227233887e-01 1.945121288299560547e+00
3.023000000000000000e+03 1.041173171997070312e+01 -1.051516819000244141e+01 -9.066791534423828125e-01 3.600221157073974609e+00 8.080626130104064941e-01 2.680763244628906250e+00
3.024000000000000000e+03 8.051409721374511719e+00 8.393710136413574219e+00 -3.288168311119079590e-01 4.619388103485107422e+00 1.287171363830566406e+00 -9.469537734985351562e-01
3.025000000000000000e+03 5.983781814575195312e+00 -9.655756950378417969e+00 -6.943526268005371094e-01 4.112769603729248047e+00 1.025525093078613281e+00 2.458390235900878906e+00
3.026000000000000000e+03 3.085926532745361328e+00 4.018744468688964844e+00 2.767218947410583496e-01 1.922269016504287720e-01 1.406846344470977783e-01 9.520731121301651001e-02
3.027000000000000000e+03 5.735424041748046875e+00 6.802239894866943359e+00 2.025539129972457886e-01 2.434909343719482422e+00 7.912389636039733887e-01 -8.350613117218017578e-01
3.028000000000000000e+03 6.516198635101318359e+00 7.854816913604736328e+00 -2.580992691218852997e-02 3.297865390777587891e+00 9.816166758537292480e-01 -8.894114494323730469e-01
3.029000000000000000e+03 1.510747432708740234e+01 3.603262662887573242e+00 1.211028695106506348e+00 6.111653804779052734e+00 2.196804761886596680e+00 3.411491215229034424e-01
3.030000000000000000e+03 1.445282363891601562e+01 4.645489692687988281e+00 3.580541908740997314e-01 6.919784545898437500e+00 2.183351755142211914e+00 3.829014301300048828e-01
3.031000000000000000e+03 1.369473361968994141e+01 6.249521732330322266e+00 -6.042102575302124023e-01 7.301952362060546875e+00 2.009322643280029297e+00 -1.009086426347494125e-02
3.032000000000000000e+03 1.241041755676269531e+01 7.531313896179199219e+00 -8.711350560188293457e-01 7.239429950714111328e+00 1.910488486289978027e+00 -3.708919584751129150e-01
3.033000000000000000e+03 1.149741554260253906e+01 9.609260559082031250e+00 -7.267107367515563965e-01 6.681407928466796875e+00 1.786409139633178711e+00 -4.866865575313568115e-01
3.034000000000000000e+03 6.054855346679687500e+00 -1.034854412078857422e+01 -9.175094366073608398e-01 4.401977062225341797e+00 1.045340299606323242e+00 2.396324634552001953e+00
3.035000000000000000e+03 5.504779338836669922e+00 -8.331695556640625000e+00 -2.191741168498992920e-01 3.510150432586669922e+00 9.872928857803344727e-01 2.386449813842773438e+00
3.036000000000000000e+03 4.770542144775390625e+00 -7.357240676879882812e+00 1.172344386577606201e-01 2.869539499282836914e+00 8.960321545600891113e-01 2.167198181152343750e+00
3.037000000000000000e+03 1.070707893371582031e+01 9.378034591674804688e+00 -7.062203884124755859e-01 6.348300457000732422e+00 1.692624092102050781e+00 -5.838724374771118164e-01
3.038000000000000000e+03 1.314355468750000000e+01 -1.178565740585327148e+00 5.606336593627929688e+00 6.867367744445800781e+00 3.742111444473266602e+00 -1.131739735603332520e+00
3.039000000000000000e+03 1.710035705566406250e+01 -3.109294652938842773e+00 3.499650001525878906e+00 2.715797424316406250e+00 1.864634156227111816e+00 -1.576367735862731934e+00
3.040000000000000000e+03 1.394609928131103516e+01 -1.059323978424072266e+01 -3.421984612941741943e-01 2.008136510848999023e+00 4.997814297676086426e-01 9.291867613792419434e-01
3.041000000000000000e+03 8.358876228332519531e+00 1.368377971649169922e+01 -2.270099706947803497e-02 4.804448604583740234e+00 1.434524297714233398e+00 -4.767307639122009277e-01
3.042000000000000000e+03 6.711925983428955078e+00 1.239529800415039062e+01 -1.304732263088226318e-01 3.716973781585693359e+00 1.075950145721435547e+00 -4.934793114662170410e-01
3.043000000000000000e+03 2.079765892028808594e+01 -9.094806671142578125e+00 1.197169303894042969e+00 9.624013304710388184e-01 6.478711962699890137e-01 -1.197935938835144043e+00
3.044000000000000000e+03 2.252443504333496094e+01 -1.090489196777343750e+01 5.441023707389831543e-01 6.121584773063659668e-01 3.468782603740692139e-01 -1.045392632484436035e+00
3.045000000000000000e+03 6.998804473876953125e+01 3.307533502578735352e+00 -7.435542941093444824e-01 6.305684566497802734e+00 1.668639063835144043e+00 -8.987325429916381836e-01
3.046000000000000000e+03 7.823666095733642578e+00 -1.116386127471923828e+01 -1.252135515213012695e+00 4.479861736297607422e+00 9.683179259300231934e-01 2.872745275497436523e+00
3.047000000000000000e+03 6.458712005615234375e+01 5.432507991790771484e+00 -4.978772997856140137e-01 3.761493206024169922e+00 9.790847897529602051e-01 -1.424029111862182617e+00
3.048000000000000000e+03 7.095423889160156250e+01 5.103851795196533203e+00 -4.916019141674041748e-01 6.379141807556152344e+00 1.766261935234069824e+00 -8.967236876487731934e-01
3.049000000000000000e+03 1.609108352661132812e+01 -1.029500865936279297e+01 -6.825806573033332825e-03 1.510679602622985840e+00 4.511561393737792969e-01 -1.567835360765457153e-01
3.050000000000000000e+03 2.008819961547851562e+01 -1.051741886138916016e+01 3.740450143814086914e-01 9.336946010589599609e-01 3.923218846321105957e-01 -9.907901287078857422e-01
3.051000000000000000e+03 1.827483177185058594e+01 -9.681920051574707031e+00 6.442488431930541992e-01 1.314775466918945312e+00 5.877072811126708984e-01 -8.270314931869506836e-01
3.052000000000000000e+03 2.125533485412597656e+01 -6.581168651580810547e+00 2.442073106765747070e+00 1.054451942443847656e+00 1.048957467079162598e+00 -1.471150040626525879e+00
3.053000000000000000e+03 2.088250541687011719e+01 -5.815188884735107422e+00 2.671996355056762695e+00 1.155647277832031250e+00 1.148293137550354004e+00 -1.517919063568115234e+00
3.054000000000000000e+03 6.700998783111572266e+00 1.134714221954345703e+01 -1.772505789995193481e-01 3.683364629745483398e+00 1.051834225654602051e+00 -5.517659187316894531e-01
3.055000000000000000e+03 7.360542297363281250e+00 9.733785629272460938e+00 -2.479319423437118530e-01 4.085452556610107422e+00 1.151256203651428223e+00 -7.048519849777221680e-01
3.056000000000000000e+03 2.218157196044921875e+01 -6.275447845458984375e+00 2.555390596389770508e+00 9.973445534706115723e-01 1.065820574760437012e+00 -1.534496426582336426e+00
3.057000000000000000e+03 2.149407005310058594e+01 -1.027000904083251953e+01 7.159147858619689941e-01 7.759280800819396973e-01 4.475528597831726074e-01 -1.130936503410339355e+00
3.058000000000000000e+03 9.800128936767578125e+00 1.329780864715576172e+01 -8.338952809572219849e-02 5.645550251007080078e+00 1.668648242950439453e+00 -4.556595683097839355e-01
3.059000000000000000e+03 5.152842330932617188e+01 1.113348293304443359e+01 1.686321139335632324e+00 2.069469213485717773e+00 1.126737117767333984e+00 1.034408211708068848e+00
3.060000000000000000e+03 2.054682350158691406e+01 -9.845101356506347656e+00 8.080965280532836914e-01 9.366021156311035156e-01 5.234096050262451172e-01 -1.096173524856567383e+00
3.061000000000000000e+03 6.925264739990234375e+01 1.178358936309814453e+01 1.772475838661193848e-01 5.351077556610107422e+00 1.658497571945190430e+00 -9.985468387603759766e-01
3.062000000000000000e+03 3.530817413330078125e+01 -7.795750617980957031e+00 2.575096368789672852e+00 4.918266296386718750e+00 2.248008728027343750e+00 -1.764073669910430908e-01
3.063000000000000000e+03 7.781393527984619141e+00 1.301473426818847656e+01 -1.075292080640792847e-01 4.437781810760498047e+00 1.299075722694396973e+00 -4.794414639472961426e-01
3.064000000000000000e+03 2.779544067382812500e+01 -9.126911163330078125e+00 2.223257064819335938e+00 5.049757957458496094e-01 8.184698820114135742e-01 -1.801966190338134766e+00
3.065000000000000000e+03 2.833513259887695312e+01 -1.122941493988037109e+01 1.618868827819824219e+00 4.725575149059295654e-01 6.274279356002807617e-01 -1.405925393104553223e+00
3.066000000000000000e+03 5.421902465820312500e+01 1.044323825836181641e+01 1.346058845520019531e+00 1.662069559097290039e+00 9.024385213851928711e-01 3.167125582695007324e-01
3.067000000000000000e+03 3.257754898071289062e+01 -8.817214965820312500e+00 2.748875856399536133e+00 2.243838787078857422e+00 1.497814297676086426e+00 -1.328819990158081055e+00
3.068000000000000000e+03 6.801978302001953125e+01 1.919953536987304688e+01 5.053664445877075195e-01 5.009925365447998047e+00 1.654587507247924805e+00 -5.090678334236145020e-01
3.069000000000000000e+03 6.839547729492187500e+01 1.776454544067382812e+01 4.789825379848480225e-01 5.052667617797851562e+00 1.659495115280151367e+00 -6.149886846542358398e-01
3.070000000000000000e+03 3.016833686828613281e+01 -1.098386764526367188e+01 2.056699991226196289e+00 9.973343014717102051e-01 9.162102937698364258e-01 -1.610625147819519043e+00
3.071000000000000000e+03 3.480452346801757812e+01 -8.929570198059082031e+00 2.418198108673095703e+00 4.801548957824707031e+00 2.165924072265625000e+00 -5.349605679512023926e-01
3.072000000000000000e+03 7.011385345458984375e+01 8.433300018310546875e+00 -1.538134664297103882e-01 5.789342880249023438e+00 1.690658807754516602e+00 -1.059754967689514160e+00
3.073000000000000000e+03 7.014445495605468750e+01 1.689547348022460938e+01 3.452388346195220947e-01 5.455100536346435547e+00 1.740101814270019531e+00 -6.768794059753417969e-01
3.074000000000000000e+03 5.917240905761718750e+01 6.406216621398925781e+00 -5.272114649415016174e-02 1.655018091201782227e+00 4.806890785694122314e-01 -9.068340063095092773e-01
3.075000000000000000e+03 6.186266326904296875e+01 5.740609645843505859e+00 -3.290143907070159912e-01 2.564120292663574219e+00 6.705317497253417969e-01 -1.298689365386962891e+00
3.076000000000000000e+03 5.338714122772216797e+00 2.252981185913085938e+01 2.690386474132537842e-01 3.420677423477172852e+00 1.106914758682250977e+00 -9.527258872985839844e-01
3.077000000000000000e+03 6.289824485778808594e+00 2.241974639892578125e+01 3.711983561515808105e-01 3.875436305999755859e+00 1.273990392684936523e+00 -1.005817651748657227e+00
3.078000000000000000e+03 6.839939117431640625e+01 1.819690823554992676e+00 -9.915177822113037109e-01 5.892477035522460938e+00 1.470287799835205078e+00 -1.009326696395874023e+00
3.079000000000000000e+03 8.022145271301269531e+00 -1.040845775604248047e+01 -1.020937323570251465e+00 4.340235710144042969e+00 9.957895874977111816e-01 2.867623090744018555e+00
3.080000000000000000e+03 1.480133724212646484e+01 -1.016609668731689453e+01 -1.199379190802574158e-01 1.948455095291137695e+00 5.485551357269287109e-01 4.396593272686004639e-01
3.081000000000000000e+03 6.567135620117187500e+01 2.871125030517578125e+01 3.273375332355499268e-01 5.000258922576904297e+00 1.598278999328613281e+00 5.187352374196052551e-02
3.082000000000000000e+03 6.710981750488281250e+01 2.408889961242675781e+01 4.407580196857452393e-01 5.034054756164550781e+00 1.642443895339965820e+00 -1.605743616819381714e-01
3.083000000000000000e+03 7.063490295410156250e+01 -9.555807113647460938e-01 -9.248909354209899902e-01 7.151035785675048828e+00 1.867843389511108398e+00 -3.880345821380615234e-01
3.084000000000000000e+03 6.347190093994140625e+01 6.969735622406005859e+00 -1.206338629126548767e-01 3.340025186538696289e+00 9.658173918724060059e-01 -1.322755336761474609e+00
3.085000000000000000e+03 5.175207519531250000e+01 1.834994888305664062e+01 1.440106272697448730e+00 3.475804805755615234e+00 1.474773287773132324e+00 1.167808532714843750e+00
3.086000000000000000e+03 7.030524444580078125e+01 2.253137397766113281e+01 3.225109577178955078e-01 5.498375892639160156e+00 1.746266007423400879e+00 -3.316698074340820312e-01
3.087000000000000000e+03 5.245076751708984375e+01 1.024662780761718750e+01 1.483492136001586914e+00 1.699959874153137207e+00 9.550356268882751465e-01 7.009141445159912109e-01
3.088000000000000000e+03 5.433322525024414062e+01 8.632204055786132812e+00 9.408382177352905273e-01 1.266986966133117676e+00 6.623475551605224609e-01 1.206015497446060181e-01
3.089000000000000000e+03 5.833422851562500000e+01 8.108183860778808594e+00 4.566450417041778564e-01 1.693871021270751953e+00 6.451548337936401367e-01 -6.946139931678771973e-01
3.090000000000000000e+03 5.158566284179687500e+01 9.139801025390625000e+00 1.302487373352050781e+00 1.536683917045593262e+00 8.517514467239379883e-01 8.227263092994689941e-01
3.091000000000000000e+03 6.717653656005859375e+01 2.719196510314941406e+01 3.409661650657653809e-01 5.132716655731201172e+00 1.642104864120483398e+00 -4.292415454983711243e-02
3.092000000000000000e+03 6.883875274658203125e+01 2.255877494812011719e+01 4.051497280597686768e-01 5.241117954254150391e+00 1.693880319595336914e+00 -3.074544966220855713e-01
3.093000000000000000e+03 4.333578872680664062e+01 -3.274868011474609375e+01 -6.223009824752807617e-01 4.268308162689208984e+00 1.093802094459533691e+00 -1.311965703964233398e+00
3.094000000000000000e+03 7.093542480468750000e+01 2.340615272521972656e+00 -7.263709306716918945e-01 6.749416351318359375e+00 1.806913733482360840e+00 -6.854652166366577148e-01
3.095000000000000000e+03 7.063511657714843750e+01 4.105988025665283203e+00 -6.088864803314208984e-01 6.427437782287597656e+00 1.745565414428710938e+00 -8.745265603065490723e-01
3.096000000000000000e+03 5.255238342285156250e+01 1.636313819885253906e+01 1.616288900375366211e+00 3.062332391738891602e+00 1.403586387634277344e+00 1.048748135566711426e+00
3.097000000000000000e+03 5.229541778564453125e+01 2.030801582336425781e+01 1.239210367202758789e+00 3.661213159561157227e+00 1.470126986503601074e+00 1.067603468894958496e+00
3.098000000000000000e+03 7.063326263427734375e+01 2.549288368225097656e+01 2.579775750637054443e-01 5.577834129333496094e+00 1.750743508338928223e+00 -2.047306448221206665e-01
3.099000000000000000e+03 5.059866333007812500e+01 1.412431430816650391e+01 1.803485393524169922e+00 3.015015840530395508e+00 1.445550441741943359e+00 1.406112790107727051e+00
3.100000000000000000e+03 4.960840606689453125e+01 1.306324768066406250e+01 1.849622964859008789e+00 3.101020097732543945e+00 1.485192894935607910e+00 1.630316019058227539e+00
3.101000000000000000e+03 6.933186340332031250e+01 1.504872989654541016e+01 3.495054543018341064e-01 5.286906242370605469e+00 1.690923452377319336e+00 -8.059498667716979980e-01
3.102000000000000000e+03 7.116669464111328125e+01 1.424465942382812500e+01 2.102155238389968872e-01 5.786342144012451172e+00 1.798967242240905762e+00 -8.056289553642272949e-01
3.103000000000000000e+03 5.176316070556640625e+01 2.417148017883300781e+01 7.771933078765869141e-01 3.995903253555297852e+00 1.431928992271423340e+00 9.583230614662170410e-01
3.104000000000000000e+03 8.911609649658203125e+00 -3.520337820053100586e+00 1.821252107620239258e+00 5.578920841217041016e+00 2.220052003860473633e+00 3.656316280364990234e+00
3.105000000000000000e+03 8.783953666687011719e+00 3.335834503173828125e+00 7.955303192138671875e-01 5.323235511779785156e+00 1.835629701614379883e+00 -2.635404586791992188e+00
3.106000000000000000e+03 9.357995986938476562e+00 -2.988731145858764648e+00 2.031293630599975586e+00 6.935815334320068359e+00 2.690132617950439453e+00 3.765073299407958984e+00
3.107000000000000000e+03 7.850346565246582031e+00 3.130789279937744141e+00 1.245681285858154297e+00 3.143668889999389648e+00 1.316805005073547363e+00 -2.178107023239135742e+00
3.108000000000000000e+03 8.072037696838378906e+00 3.289964199066162109e+00 1.119423866271972656e+00 3.612214088439941406e+00 1.419491410255432129e+00 -2.284588813781738281e+00
3.109000000000000000e+03 7.893991470336914062e+00 -2.925062417984008789e+00 2.678276538848876953e+00 3.242867231369018555e+00 1.776343226432800293e+00 3.495675086975097656e+00
3.110000000000000000e+03 8.140787124633789062e+00 -3.095656156539916992e+00 2.500626087188720703e+00 3.846118450164794922e+00 1.904023408889770508e+00 3.650947093963623047e+00
3.111000000000000000e+03 8.673550605773925781e+00 -2.794745206832885742e+00 2.682221651077270508e+00 4.976469993591308594e+00 2.297607660293579102e+00 4.021992683410644531e+00
3.112000000000000000e+03 9.580682754516601562e+00 -2.711058139801025391e+00 2.206759452819824219e+00 7.822255611419677734e+00 3.008704423904418945e+00 3.871518850326538086e+00
3.113000000000000000e+03 9.583532333374023438e+00 -2.980540037155151367e+00 1.875647902488708496e+00 7.395919799804687500e+00 2.781470298767089844e+00 3.573534250259399414e+00
3.114000000000000000e+03 9.834110260009765625e+00 3.702484607696533203e+00 1.886990293860435486e-02 7.588521003723144531e+00 2.282217264175415039e+00 -2.133335590362548828e+00
3.115000000000000000e+03 1.343693733215332031e+01 -1.328005734831094742e-02 5.817566871643066406e+00 6.478404521942138672e+00 3.688791513442993164e+00 -5.279129371047019958e-02
3.116000000000000000e+03 1.165102291107177734e+01 -2.621140241622924805e+00 2.673518180847167969e+00 9.301955223083496094e+00 3.592642068862915039e+00 -2.229349315166473389e-01
3.117000000000000000e+03 1.145136642456054688e+01 7.939054012298583984e+00 -8.573411703109741211e-01 6.931349754333496094e+00 1.822202563285827637e+00 -5.787550210952758789e-01
3.118000000000000000e+03 5.012018680572509766e+00 -3.438516616821289062e+00 1.342444419860839844e+00 1.110756278038024902e+00 7.359602451324462891e-01 1.582267880439758301e+00
3.119000000000000000e+03 4.239563465118408203e+00 -3.711707115173339844e+00 9.647293686866760254e-01 1.044431090354919434e+00 6.027480959892272949e-01 1.282747864723205566e+00
3.120000000000000000e+03 1.038968276977539062e+01 -3.286541938781738281e+00 1.418160915374755859e+00 8.425439834594726562e+00 2.953080177307128906e+00 2.300683021545410156e+00
3.121000000000000000e+03 1.226408863067626953e+01 2.282091140747070312e+00 2.137596130371093750e+00 9.607010841369628906e+00 3.523382186889648438e+00 1.275050282478332520e+00
3.122000000000000000e+03 6.208415985107421875e+00 3.446764707565307617e+00 9.317070245742797852e-01 1.366544604301452637e+00 6.894754767417907715e-01 -9.303638339042663574e-01
3.123000000000000000e+03 1.149505519866943359e+01 -2.886104583740234375e+00 2.091796875000000000e+00 9.061781883239746094e+00 3.346073627471923828e+00 2.528836131095886230e-01
3.124000000000000000e+03 1.398135852813720703e+01 1.864514589309692383e+00 3.273856401443481445e+00 6.626621246337890625e+00 2.970143318176269531e+00 8.414286971092224121e-01
3.125000000000000000e+03 1.177141952514648438e+01 7.309393405914306641e+00 -8.645851016044616699e-01 7.182534694671630859e+00 1.895384788513183594e+00 -5.204805135726928711e-01
3.126000000000000000e+03 1.356628131866455078e+01 -5.550025105476379395e-01 5.706677913665771484e+00 6.173147201538085938e+00 3.563947439193725586e+00 -6.001517772674560547e-01
3.127000000000000000e+03 1.217819213867187500e+01 3.158147573471069336e+00 7.465783953666687012e-01 9.243211746215820312e+00 2.996937036514282227e+00 5.224499106407165527e-01
3.128000000000000000e+03 9.924671173095703125e+00 5.558532714843750000e+00 -4.747584164142608643e-01 6.692618846893310547e+00 1.865358114242553711e+00 -1.406208753585815430e+00
3.129000000000000000e+03 1.485957431793212891e+01 2.993222713470458984e+00 1.863205790519714355e+00 6.128726959228515625e+00 2.397579669952392578e+00 4.724103808403015137e-01
3.130000000000000000e+03 1.261426925659179688e+01 1.099739909172058105e+00 5.054575920104980469e+00 8.534982681274414062e+00 4.076867580413818359e+00 1.518305659294128418e+00
3.131000000000000000e+03 1.269057559967041016e+01 -1.794103503227233887e+00 4.675019741058349609e+00 7.737111091613769531e+00 3.723639249801635742e+00 -1.351189613342285156e+00
3.132000000000000000e+03 1.728310394287109375e+01 -1.147866606712341309e+00 3.809579133987426758e+00 2.714356899261474609e+00 1.957180738449096680e+00 -1.408353567123413086e+00
3.133000000000000000e+03 1.239251899719238281e+01 -2.195990324020385742e+00 3.859253883361816406e+00 8.243717193603515625e+00 3.630891323089599609e+00 -1.150105118751525879e+00
3.134000000000000000e+03 1.728579521179199219e+01 -1.800257325172424316e+00 3.808305501937866211e+00 2.646672725677490234e+00 1.936493515968322754e+00 -1.502690911293029785e+00
3.135000000000000000e+03 1.434941959381103516e+01 3.198965549468994141e+00 1.577268481254577637e+00 6.743628978729248047e+00 2.496269226074218750e+00 6.405804157257080078e-01
3.136000000000000000e+03 6.028038024902343750e+00 6.402115345001220703e+00 2.778760194778442383e-01 2.562456607818603516e+00 8.520997762680053711e-01 -9.505757093429565430e-01
3.137000000000000000e+03 5.150856971740722656e+00 5.775065898895263672e+00 4.358917772769927979e-01 1.679752826690673828e+00 6.346933841705322266e-01 -6.967763304710388184e-01
3.138000000000000000e+03 5.251866340637207031e+00 3.258263587951660156e+00 6.700363755226135254e-01 7.549807429313659668e-01 4.275051355361938477e-01 -3.731617927551269531e-01
3.139000000000000000e+03 5.426624774932861328e+00 3.814980268478393555e+00 7.481527924537658691e-01 1.076430678367614746e+00 5.473750233650207520e-01 -5.983328223228454590e-01
3.140000000000000000e+03 6.356813430786132812e+00 -7.880612373352050781e+00 -1.165394112467765808e-01 3.657512426376342773e+00 1.062291860580444336e+00 2.691124200820922852e+00
3.141000000000000000e+03 3.589864015579223633e+00 -3.779102087020874023e+00 7.260037064552307129e-01 9.046458601951599121e-01 4.891948699951171875e-01 1.008106708526611328e+00
3.142000000000000000e+03 4.658663272857666016e+00 -3.677220821380615234e+00 1.161929011344909668e+00 1.148226261138916016e+00 6.930465698242187500e-01 1.491274237632751465e+00
3.143000000000000000e+03 6.661656856536865234e+00 -9.572071075439453125e+00 -7.008914947509765625e-01 4.206278324127197266e+00 1.051616072654724121e+00 2.661651849746704102e+00
3.144000000000000000e+03 6.537912368774414062e+00 -8.959990501403808594e+00 -5.292068719863891602e-01 4.024639129638671875e+00 1.048629760742187500e+00 2.672393083572387695e+00
3.145000000000000000e+03 6.038061618804931641e+00 7.372268676757812500e+00 9.791754186153411865e-02 2.815844774246215820e+00 8.741286993026733398e-01 -8.730491399765014648e-01
3.146000000000000000e+03 4.811760902404785156e+00 -5.833783626556396484e+00 6.235744953155517578e-01 2.263373136520385742e+00 8.660843372344970703e-01 2.104944944381713867e+00
3.147000000000000000e+03 6.230092048645019531e+00 -6.408282756805419922e+00 4.836890995502471924e-01 3.184907197952270508e+00 1.100578904151916504e+00 2.719637155532836914e+00
3.148000000000000000e+03 4.762515068054199219e+00 5.413152694702148438e+00 4.718004465103149414e-01 1.316100597381591797e+00 5.363703370094299316e-01 -5.435767769813537598e-01
3.149000000000000000e+03 4.417284488677978516e+00 3.979037761688232422e+00 5.353248119354248047e-01 6.785344481468200684e-01 3.641577661037445068e-01 -2.315073460340499878e-01
3.150000000000000000e+03 1.460487842559814453e+01 4.212101936340332031e+00 6.965108513832092285e-01 6.749040603637695312e+00 2.233665466308593750e+00 4.591504335403442383e-01
3.151000000000000000e+03 6.865272045135498047e+00 8.583909988403320312e+00 -1.531393229961395264e-01 3.708938360214233398e+00 1.066739678382873535e+00 -8.534400463104248047e-01
3.152000000000000000e+03 1.403889369964599609e+01 5.006673336029052734e+00 5.578461289405822754e-02 7.216858863830566406e+00 2.181792974472045898e+00 2.850033640861511230e-01
3.153000000000000000e+03 3.972990036010742188e+00 3.983724117279052734e+00 4.264421164989471436e-01 4.950750470161437988e-01 2.764551341533660889e-01 -9.110046923160552979e-02
3.154000000000000000e+03 5.302034854888916016e+00 -6.985840320587158203e+00 2.580833435058593750e-01 2.957366466522216797e+00 9.646349549293518066e-01 2.380966663360595703e+00
3.155000000000000000e+03 5.788520812988281250e+00 -6.664867401123046875e+00 3.582797646522521973e-01 3.046100854873657227e+00 1.021314144134521484e+00 2.561346530914306641e+00
3.156000000000000000e+03 6.056084632873535156e+00 -7.136051177978515625e+00 1.919768899679183960e-01 3.333653926849365234e+00 1.057689189910888672e+00 2.647802829742431641e+00
3.157000000000000000e+03 5.107206344604492188e+00 -7.913549423217773438e+00 -5.786681920289993286e-02 3.235315322875976562e+00 9.532345533370971680e-01 2.276954174041748047e+00
3.158000000000000000e+03 1.109890270233154297e+01 8.625794410705566406e+00 -7.911002635955810547e-01 6.647642612457275391e+00 1.756962656974792480e+00 -5.970392823219299316e-01
3.159000000000000000e+03 9.593315124511718750e+00 -1.054006290435791016e+01 -9.668108224868774414e-01 3.938961744308471680e+00 8.916453123092651367e-01 2.856259107589721680e+00
3.160000000000000000e+03 5.610220432281494141e+00 -7.501477241516113281e+00 4.770926386117935181e-02 3.276796102523803711e+00 9.973516464233398438e-01 2.498832225799560547e+00
3.161000000000000000e+03 6.812818527221679688e+00 9.378087997436523438e+00 -1.797360926866531372e-01 3.734334468841552734e+00 1.066379547119140625e+00 -7.307141423225402832e-01
3.162000000000000000e+03 7.307390213012695312e+00 8.905220985412597656e+00 -2.459979653358459473e-01 4.103006362915039062e+00 1.157102465629577637e+00 -8.347046375274658203e-01
3.163000000000000000e+03 2.174440574645996094e+01 -9.271985054016113281e+00 1.195564031600952148e+00 8.031371831893920898e-01 5.996103286743164062e-01 -1.243905186653137207e+00
3.164000000000000000e+03 6.855143070220947266e+00 8.010975837707519531e+00 -9.634451568126678467e-02 3.674722909927368164e+00 1.073513507843017578e+00 -9.345375299453735352e-01
3.165000000000000000e+03 1.292667770385742188e+01 6.422862052917480469e+00 -7.464849948883056641e-01 7.475137710571289062e+00 2.018595933914184570e+00 -1.793308258056640625e-01
3.166000000000000000e+03 1.286069107055664062e+01 -1.012966537475585938e+01 -3.435004055500030518e-01 2.661725997924804688e+00 6.954677104949951172e-01 1.469271659851074219e+00
3.167000000000000000e+03 1.190610980987548828e+01 -9.616015434265136719e+00 -3.808093667030334473e-01 3.338814496994018555e+00 8.874015212059020996e-01 1.904751062393188477e+00
3.168000000000000000e+03 1.820240592956542969e+01 -4.398274898529052734e+00 3.046591997146606445e+00 2.023787975311279297e+00 1.521113991737365723e+00 -1.533303499221801758e+00
3.169000000000000000e+03 1.724006652832031250e+01 -2.469162464141845703e+00 3.696783065795898438e+00 2.648068904876708984e+00 1.903455615043640137e+00 -1.578866362571716309e+00
3.170000000000000000e+03 1.323225784301757812e+01 5.920963764190673828e+00 -5.756839513778686523e-01 7.516281604766845703e+00 2.082179307937622070e+00 -4.507379606366157532e-02
3.171000000000000000e+03 9.481933593750000000e+00 3.962352752685546875e+00 1.015508770942687988e-01 6.816097736358642578e+00 2.075294494628906250e+00 -2.183197498321533203e+00
3.172000000000000000e+03 2.317110443115234375e+01 -1.019013595581054688e+01 9.991743564605712891e-01 6.518087983131408691e-01 4.952949583530426025e-01 -1.283610582351684570e+00
3.173000000000000000e+03 2.277042388916015625e+01 -9.197461128234863281e+00 1.429609894752502441e+00 7.376174926757812500e-01 6.501681804656982422e-01 -1.354766249656677246e+00
3.174000000000000000e+03 1.702469635009765625e+01 1.219693064689636230e+00 3.084278345108032227e+00 3.525480508804321289e+00 1.982927680015563965e+00 -7.091482281684875488e-01
3.175000000000000000e+03 1.639498329162597656e+01 7.981446981430053711e-01 3.580662488937377930e+00 3.845185995101928711e+00 2.227754592895507812e+00 -5.758667588233947754e-01
3.176000000000000000e+03 1.365751647949218750e+01 -9.860781669616699219e+00 -1.783892065286636353e-01 2.511871576309204102e+00 7.000446915626525879e-01 9.765098690986633301e-01
3.177000000000000000e+03 1.356241416931152344e+01 -1.419543385505676270e+00 5.034583568572998047e+00 6.178140640258789062e+00 3.363817214965820312e+00 -1.225830674171447754e+00
3.178000000000000000e+03 1.941592216491699219e+01 -9.990284919738769531e+00 5.996022224426269531e-01 1.087419748306274414e+00 5.061066150665283203e-01 -9.560543298721313477e-01
3.179000000000000000e+03 1.692765235900878906e+01 -9.601115226745605469e+00 4.661470055580139160e-01 1.606715559959411621e+00 6.218587756156921387e-01 -4.986126124858856201e-01
3.180000000000000000e+03 6.929376602172851562e+00 -8.309198379516601562e+00 -3.173622488975524902e-01 3.961705207824707031e+00 1.093302845954895020e+00 2.793779373168945312e+00
3.181000000000000000e+03 1.998096084594726562e+01 -8.887097358703613281e+00 1.161711573600769043e+00 1.089518308639526367e+00 6.753689646720886230e-01 -1.156774640083312988e+00
3.182000000000000000e+03 1.370234584808349609e+01 2.379164248704910278e-01 5.410782337188720703e+00 6.197450160980224609e+00 3.482469797134399414e+00 1.406140327453613281e-01
3.183000000000000000e+03 1.906522750854492188e+01 -9.362976074218750000e+00 8.499725461006164551e-01 1.197760939598083496e+00 6.143200397491455078e-01 -1.001996278762817383e+00
3.184000000000000000e+03 3.295527648925781250e+01 -1.012687873840332031e+01 2.295594453811645508e+00 2.923400640487670898e+00 1.565698504447937012e+00 -1.217574834823608398e+00
3.185000000000000000e+03 3.373385238647460938e+01 -8.581376075744628906e+00 2.706871271133422852e+00 3.186171531677246094e+00 1.767912864685058594e+00 -8.853695988655090332e-01
3.186000000000000000e+03 1.561971569061279297e+01 -9.606649398803710938e+00 2.826239764690399170e-01 1.908490538597106934e+00 6.573343873023986816e-01 -5.661259405314922333e-03
3.187000000000000000e+03 6.466143035888671875e+01 6.812107086181640625e+00 -2.218271344900131226e-01 3.796670198440551758e+00 1.072452902793884277e+00 -1.359375000000000000e+00
3.188000000000000000e+03 6.871175384521484375e+01 9.156385421752929688e+00 -5.671967193484306335e-02 5.303216934204101562e+00 1.573949217796325684e+00 -1.130817294120788574e+00
3.189000000000000000e+03 2.001241874694824219e+01 -6.289367675781250000e+00 2.483652353286743164e+00 1.284734725952148438e+00 1.130516171455383301e+00 -1.436293721199035645e+00
3.190000000000000000e+03 5.664394378662109375e+01 9.906135559082031250e+00 9.781107306480407715e-01 1.737985014915466309e+00 8.148287534713745117e-01 -2.646422684192657471e-01
3.191000000000000000e+03 5.755982589721679688e+01 9.644382476806640625e+00 8.751455545425415039e-01 1.810849428176879883e+00 8.057984709739685059e-01 -4.369087219238281250e-01
3.192000000000000000e+03 8.967883110046386719e+00 1.073708820343017578e+01 -4.028002321720123291e-01 5.235102653503417969e+00 1.449690699577331543e+00 -5.882674455642700195e-01
3.193000000000000000e+03 6.632292938232421875e+01 2.044746017456054688e+01 6.156656742095947266e-01 4.712447643280029297e+00 1.598434090614318848e+00 -3.514845371246337891e-01
3.194000000000000000e+03 6.702362823486328125e+01 1.733582115173339844e+01 5.748925805091857910e-01 4.746485710144042969e+00 1.596413493156433105e+00 -6.208463907241821289e-01
3.195000000000000000e+03 6.419422149658203125e+01 9.776535034179687500e+00 3.052811920642852783e-01 3.692118883132934570e+00 1.199220061302185059e+00 -1.142145872116088867e+00
3.196000000000000000e+03 2.457017135620117188e+01 -8.740509986877441406e+00 1.833821773529052734e+00 6.355034112930297852e-01 7.407975792884826660e-01 -1.580778360366821289e+00
3.197000000000000000e+03 2.547763442993164062e+01 -1.020385169982910156e+01 1.428524255752563477e+00 4.294309616088867188e-01 5.573865771293640137e-01 -1.408544659614562988e+00
3.198000000000000000e+03 8.302990913391113281e+00 1.242456054687500000e+01 -1.853243410587310791e-01 4.820103168487548828e+00 1.390433669090270996e+00 -4.961788654327392578e-01
3.199000000000000000e+03 7.987808704376220703e+00 1.055850601196289062e+01 -3.301509916782379150e-01 4.610321521759033203e+00 1.284051179885864258e+00 -6.232255101203918457e-01
3.200000000000000000e+03 1.776493072509765625e+01 -8.880415916442871094e+00 9.056472778320312500e-01 1.549530029296875000e+00 7.365531921386718750e-01 -8.527205586433410645e-01
3.201000000000000000e+03 6.770795440673828125e+01 4.504161357879638672e+00 -6.753801107406616211e-01 5.280162811279296875e+00 1.381434917449951172e+00 -1.235877633094787598e+00
3.202000000000000000e+03 6.681586456298828125e+01 3.772927761077880859e+00 -8.354845046997070312e-01 4.927989006042480469e+00 1.227751374244689941e+00 -1.309373021125793457e+00
3.203000000000000000e+03 1.747703933715820312e+01 -4.066614627838134766e+00 3.138821363449096680e+00 2.401285409927368164e+00 1.662032008171081543e+00 -1.549764275550842285e+00
3.204000000000000000e+03 2.356259727478027344e+01 -7.951717853546142578e+00 1.983233213424682617e+00 8.133821487426757812e-01 8.389846086502075195e-01 -1.568607568740844727e+00
3.205000000000000000e+03 6.866091156005859375e+01 1.312451362609863281e+01 2.960650622844696045e-01 5.140156745910644531e+00 1.630866527557373047e+00 -9.434592723846435547e-01
3.206000000000000000e+03 6.927855682373046875e+01 1.047750663757324219e+01 5.812912061810493469e-02 5.409469604492187500e+00 1.640279531478881836e+00 -1.060590386390686035e+00
3.207000000000000000e+03 6.768588256835937500e+01 2.073594665527343750e+01 5.136836171150207520e-01 4.980440139770507812e+00 1.648237109184265137e+00 -3.867648839950561523e-01
3.208000000000000000e+03 6.614669036865234375e+01 4.747303009033203125e+00 -6.488022804260253906e-01 4.566377162933349609e+00 1.175272464752197266e+00 -1.380544185638427734e+00
3.209000000000000000e+03 5.065373611450195312e+01 1.003754997253417969e+01 1.616468667984008789e+00 1.915822625160217285e+00 1.059687376022338867e+00 1.154880046844482422e+00
3.210000000000000000e+03 5.058297729492187500e+01 1.207466220855712891e+01 1.821138501167297363e+00 2.515532970428466797e+00 1.301001429557800293e+00 1.344531893730163574e+00
3.211000000000000000e+03 5.152262878417968750e+01 1.315317344665527344e+01 1.790975213050842285e+00 2.581611156463623047e+00 1.311775922775268555e+00 1.173021316528320312e+00
3.212000000000000000e+03 5.387236404418945312e+01 2.337621688842773438e+01 9.345099925994873047e-01 3.838005304336547852e+00 1.431754589080810547e+00 8.533874154090881348e-01
3.213000000000000000e+03 5.227928543090820312e+01 2.692671203613281250e+01 4.815182089805603027e-01 4.081988334655761719e+00 1.369052052497863770e+00 8.537198305130004883e-01
3.214000000000000000e+03 4.939563369750976562e+01 3.017656898498535156e+01 -4.909471608698368073e-03 4.041543483734130859e+00 1.210990190505981445e+00 7.806215286254882812e-01
3.215000000000000000e+03 6.876294708251953125e+01 6.927214145660400391e+00 -3.115883469581604004e-01 5.447130680084228516e+00 1.540662646293640137e+00 -1.154485583305358887e+00
3.216000000000000000e+03 6.940401458740234375e+01 5.942129135131835938e+00 -4.361086189746856689e-01 5.820370674133300781e+00 1.615278720855712891e+00 -1.085995674133300781e+00
3.217000000000000000e+03 6.673219299316406250e+01 8.806052207946777344e+00 -1.887034042738378048e-03 4.575017929077148438e+00 1.371939182281494141e+00 -1.231418609619140625e+00
3.218000000000000000e+03 6.247689819335937500e+01 2.326944160461425781e+01 7.449792027473449707e-01 4.290863037109375000e+00 1.510752677917480469e+00 5.967770516872406006e-02
3.219000000000000000e+03 6.787760925292968750e+01 6.173070430755615234e+00 -4.038119614124298096e-01 5.191111564636230469e+00 1.436189770698547363e+00 -1.222102165222167969e+00
3.220000000000000000e+03 6.806768798828125000e+01 1.449888896942138672e+01 4.175527989864349365e-01 4.932063579559326172e+00 1.604884862899780273e+00 -8.623239398002624512e-01
3.221000000000000000e+03 6.882849884033203125e+01 1.640008926391601562e+01 4.284132719039916992e-01 5.141837120056152344e+00 1.671075105667114258e+00 -7.212545275688171387e-01
3.222000000000000000e+03 6.794674682617187500e+01 7.986578464508056641e+00 -1.872965097427368164e-01 5.107697010040283203e+00 1.476120233535766602e+00 -1.211481213569641113e+00
3.223000000000000000e+03 1.035764217376708984e+01 -9.132239341735839844e+00 -5.458425283432006836e-01 4.076037883758544922e+00 1.059058547019958496e+00 2.510323047637939453e+00
3.224000000000000000e+03 8.302319526672363281e+00 -3.566670417785644531e+00 1.991690993309020996e+00 4.396179199218750000e+00 1.916361093521118164e+00 3.621828556060791016e+00
3.225000000000000000e+03 6.830300807952880859e+00 3.336117982864379883e+00 1.081280112266540527e+00 1.844131469726562500e+00 8.776234984397888184e-01 -1.339390158653259277e+00
3.226000000000000000e+03 9.407019615173339844e+00 -3.559204101562500000e+00 1.553569316864013672e+00 6.588885307312011719e+00 2.442736387252807617e+00 3.401578664779663086e+00
3.227000000000000000e+03 8.399173736572265625e+00 -3.239059686660766602e+00 2.335613965988159180e+00 4.436582565307617188e+00 2.031658887863159180e+00 3.762187719345092773e+00
3.228000000000000000e+03 9.101801872253417969e+00 -3.828871488571166992e+00 1.505457162857055664e+00 5.872234344482421875e+00 2.213307380676269531e+00 3.497250080108642578e+00
3.229000000000000000e+03 6.088432788848876953e+00 -3.811818599700927734e+00 1.641971707344055176e+00 1.880224108695983887e+00 1.056658744812011719e+00 2.369132041931152344e+00
3.230000000000000000e+03 5.489289283752441406e+00 5.387867450714111328e+00 5.249844193458557129e-01 1.790007591247558594e+00 6.944975852966308594e-01 -8.028867840766906738e-01
3.231000000000000000e+03 9.967756271362304688e+00 -3.502927303314208984e+00 1.367821335792541504e+00 7.614465236663818359e+00 2.694685935974121094e+00 2.867616653442382812e+00
3.232000000000000000e+03 8.681343078613281250e+00 3.686298847198486328e+00 6.662290692329406738e-01 5.177186489105224609e+00 1.753024697303771973e+00 -2.444874048233032227e+00
3.233000000000000000e+03 1.082680606842041016e+01 7.713834285736083984e+00 -7.998893857002258301e-01 6.696790695190429688e+00 1.769070386886596680e+00 -7.390019893646240234e-01
3.234000000000000000e+03 9.281141281127929688e+00 3.594723224639892578e+00 3.782113492488861084e-01 6.496477603912353516e+00 2.062406778335571289e+00 -2.487993717193603516e+00
3.235000000000000000e+03 9.856511116027832031e+00 -3.875344276428222656e+00 1.196791052818298340e+00 7.041018962860107422e+00 2.471343040466308594e+00 2.907598495483398438e+00
3.236000000000000000e+03 1.027244377136230469e+01 -3.658528327941894531e+00 1.215026021003723145e+00 7.812473297119140625e+00 2.708249807357788086e+00 2.411369562149047852e+00
3.237000000000000000e+03 1.105926227569580078e+01 -3.724448680877685547e+00 1.270454645156860352e+00 8.050724983215332031e+00 2.796353816986083984e+00 1.320728421211242676e+00
3.238000000000000000e+03 8.988233566284179688e+00 3.847968578338623047e+00 4.413870573043823242e-01 5.852355003356933594e+00 1.888122677803039551e+00 -2.408474922180175781e+00
3.239000000000000000e+03 6.698537826538085938e+00 3.575349807739257812e+00 1.018472552299499512e+00 1.890028595924377441e+00 8.725503683090209961e-01 -1.284267544746398926e+00
3.240000000000000000e+03 1.141544151306152344e+01 -3.202859878540039062e+00 1.800292372703552246e+00 8.648455619812011719e+00 3.134624481201171875e+00 5.331065654754638672e-01
3.241000000000000000e+03 1.192691040039062500e+01 -2.811106443405151367e+00 2.600695133209228516e+00 8.613318443298339844e+00 3.364203929901123047e+00 -4.039414823055267334e-01
3.242000000000000000e+03 1.316767311096191406e+01 1.016107439994812012e+00 4.938910961151123047e+00 7.378491401672363281e+00 3.695220708847045898e+00 1.055071830749511719e+00
3.243000000000000000e+03 1.528205490112304688e+01 -8.016228675842285156e-01 4.517594814300537109e+00 4.336445331573486328e+00 2.656212091445922852e+00 -9.811673164367675781e-01
3.244000000000000000e+03 1.131007385253906250e+01 3.587157487869262695e+00 -7.536519318819046021e-02 9.251413345336914062e+00 2.752814531326293945e+00 -5.426582694053649902e-01
3.245000000000000000e+03 1.105204963684082031e+01 4.301329612731933594e+00 -3.798282146453857422e-01 8.434858322143554688e+00 2.416509151458740234e+00 -8.842041492462158203e-01
3.246000000000000000e+03 1.169894218444824219e+01 3.615006446838378906e+00 6.824160367250442505e-02 9.221741676330566406e+00 2.786995172500610352e+00 -1.225685402750968933e-01
3.247000000000000000e+03 1.359505081176757812e+01 5.431913375854492188e+00 -2.974126040935516357e-01 7.445460319519042969e+00 2.144414424896240234e+00 1.320176273584365845e-01
3.248000000000000000e+03 1.657693099975585938e+01 -1.721263408660888672e+00 3.940806150436401367e+00 3.191146135330200195e+00 2.139585733413696289e+00 -1.426684737205505371e+00
3.249000000000000000e+03 1.437548637390136719e+01 2.131903886795043945e+00 2.909083366394042969e+00 6.298526287078857422e+00 2.762282848358154297e+00 6.738349199295043945e-01
3.250000000000000000e+03 1.287420749664306641e+01 1.719083428382873535e+00 3.550518274307250977e+00 8.370836257934570312e+00 3.576406240463256836e+00 1.382729053497314453e+00
3.251000000000000000e+03 6.142586708068847656e+00 7.008767127990722656e+00 1.522337049245834351e-01 2.799926996231079102e+00 8.856481909751892090e-01 -9.372324347496032715e-01
3.252000000000000000e+03 1.260716056823730469e+01 2.387168169021606445e+00 2.165946483612060547e+00 8.953096389770507812e+00 3.335712909698486328e+00 1.189021587371826172e+00
3.253000000000000000e+03 1.353724479675292969e+01 1.590467095375061035e+00 3.776803731918334961e+00 7.136501312255859375e+00 3.273991584777832031e+00 1.029747366905212402e+00
3.254000000000000000e+03 1.388016319274902344e+01 3.302101135253906250e+00 1.367443680763244629e+00 7.367939949035644531e+00 2.620615243911743164e+00 7.668707966804504395e-01
3.255000000000000000e+03 4.662133693695068359e+00 -4.218766689300537109e+00 1.054893970489501953e+00 1.421380996704101562e+00 7.428824901580810547e-01 1.685082435607910156e+00
3.256000000000000000e+03 5.127315998077392578e+00 5.015272617340087891e+00 5.633764266967773438e-01 1.395774364471435547e+00 5.877452492713928223e-01 -6.411747336387634277e-01
3.257000000000000000e+03 6.046779155731201172e+00 7.838908195495605469e+00 3.229172900319099426e-02 2.911948204040527344e+00 8.832719922065734863e-01 -8.252835273742675781e-01
3.258000000000000000e+03 4.769182682037353516e+00 4.648299217224121094e+00 5.631733536720275879e-01 1.067103266716003418e+00 4.890829622745513916e-01 -4.632843434810638428e-01
3.259000000000000000e+03 6.421326160430908203e+00 7.258051395416259766e+00 5.912870913743972778e-02 3.139796733856201172e+00 9.596776366233825684e-01 -9.539937376976013184e-01
3.260000000000000000e+03 5.567493915557861328e+00 -6.137604236602783203e+00 5.892733931541442871e-01 2.733927488327026367e+00 9.969602823257446289e-01 2.466959476470947266e+00
3.261000000000000000e+03 4.349537849426269531e+00 -4.661848068237304688e+00 8.983826637268066406e-01 1.523217082023620605e+00 7.264799475669860840e-01 1.674978494644165039e+00
3.262000000000000000e+03 1.208512496948242188e+01 6.725473880767822266e+00 -8.428679704666137695e-01 7.398272514343261719e+00 1.966621398925781250e+00 -4.309664368629455566e-01
3.263000000000000000e+03 1.205591773986816406e+01 4.213212013244628906e+00 -1.595868021249771118e-01 8.578977584838867188e+00 2.525817155838012695e+00 -9.871967881917953491e-02
3.264000000000000000e+03 1.338088703155517578e+01 3.379927635192871094e+00 1.137750267982482910e+00 7.887145042419433594e+00 2.707468509674072266e+00 7.791938185691833496e-01
3.265000000000000000e+03 1.452510070800781250e+01 3.700048208236694336e+00 1.120674252510070801e+00 6.717617988586425781e+00 2.351487636566162109e+00 5.646783709526062012e-01
3.266000000000000000e+03 1.114527702331542969e+01 -9.730647087097167969e+00 -5.855914354324340820e-01 3.582734823226928711e+00 8.991430401802062988e-01 2.281596422195434570e+00
3.267000000000000000e+03 1.037947845458984375e+01 -9.800066947937011719e+00 -6.732525229454040527e-01 3.831777811050415039e+00 9.475576281547546387e-01 2.589354276657104492e+00
3.268000000000000000e+03 9.610960960388183594e+00 -9.809687614440917969e+00 -7.987664341926574707e-01 4.054571151733398438e+00 9.767414331436157227e-01 2.795516729354858398e+00
3.269000000000000000e+03 6.645218372344970703e+00 -6.225702762603759766e+00 5.447304248809814453e-01 3.350021362304687500e+00 1.168425559997558594e+00 2.860859870910644531e+00
3.270000000000000000e+03 1.028779602050781250e+01 1.019446849822998047e+01 -5.768947005271911621e-01 6.059622764587402344e+00 1.644818425178527832e+00 -5.528680682182312012e-01
3.271000000000000000e+03 7.586835384368896484e+00 8.473205566406250000e+00 -2.600936889648437500e-01 4.308808326721191406e+00 1.214614391326904297e+00 -9.171003699302673340e-01
3.272000000000000000e+03 1.024420928955078125e+01 7.489978790283203125e+00 -7.239446640014648438e-01 6.422233104705810547e+00 1.709486484527587891e+00 -8.843576312065124512e-01
3.273000000000000000e+03 2.153634834289550781e+01 -7.390475273132324219e+00 2.044513463973999023e+00 9.910834431648254395e-01 9.106791019439697266e-01 -1.437241792678833008e+00
3.274000000000000000e+03 8.647172927856445312e+00 -4.169391632080078125e+00 1.409956693649291992e+00 5.028117656707763672e+00 1.931422352790832520e+00 3.404774427413940430e+00
3.275000000000000000e+03 7.785421371459960938e+00 9.258520126342773438e+00 -3.140201568603515625e-01 4.461080551147460938e+00 1.244118094444274902e+00 -8.100750446319580078e-01
3.276000000000000000e+03 1.116482734680175781e+01 7.062747478485107422e+00 -8.360260725021362305e-01 7.049142837524414062e+00 1.863934993743896484e+00 -7.129132747650146484e-01
3.277000000000000000e+03 1.265740394592285156e+01 -9.447161674499511719e+00 -2.392452061176300049e-01 3.134475231170654297e+00 8.685690164566040039e-01 1.454838395118713379e+00
3.278000000000000000e+03 1.044605064392089844e+01 8.380067825317382812e+00 -7.399467229843139648e-01 6.366131782531738281e+00 1.687855482101440430e+00 -7.240371108055114746e-01
3.279000000000000000e+03 9.473240852355957031e+00 1.194594192504882812e+01 -2.866906225681304932e-01 5.512540340423583984e+00 1.567754864692687988e+00 -4.970452487468719482e-01
3.280000000000000000e+03 7.519926071166992188e+00 -1.001392173767089844e+01 -8.975175023078918457e-01 4.359915733337402344e+00 1.038719534873962402e+00 2.833618164062500000e+00
3.281000000000000000e+03 8.841328620910644531e+00 -9.750461578369140625e+00 -7.861411571502685547e-01 4.205157756805419922e+00 1.025704860687255859e+00 2.878776311874389648e+00
3.282000000000000000e+03 1.553276920318603516e+01 1.845210671424865723e+00 2.981171369552612305e+00 4.994543552398681641e+00 2.392714500427246094e+00 9.410835802555084229e-02
3.283000000000000000e+03 1.463522624969482422e+01 2.488182783126831055e+00 2.409667015075683594e+00 6.216227054595947266e+00 2.587768316268920898e+00 6.005443930625915527e-01
3.284000000000000000e+03 1.671748161315917969e+01 9.545459598302841187e-02 3.744873523712158203e+00 3.385768175125122070e+00 2.139192581176757812e+00 -9.643023014068603516e-01
3.285000000000000000e+03 8.841698646545410156e+00 4.146636486053466797e+00 3.678578436374664307e-01 5.439322471618652344e+00 1.742154121398925781e+00 -2.223824501037597656e+00
3.286000000000000000e+03 1.684375572204589844e+01 -3.687019109725952148e+00 3.233683347702026367e+00 2.860768556594848633e+00 1.828335523605346680e+00 -1.532276272773742676e+00
3.287000000000000000e+03 1.658962440490722656e+01 -2.356485128402709961e+00 3.789693593978881836e+00 3.128462553024291992e+00 2.075446844100952148e+00 -1.513108730316162109e+00
3.288000000000000000e+03 1.507141971588134766e+01 1.383998870849609375e+00 3.575464248657226562e+00 5.195282459259033203e+00 2.631224155426025391e+00 1.499158889055252075e-01
3.289000000000000000e+03 8.790697097778320312e+00 -1.050695228576660156e+01 -1.063411951065063477e+00 4.189235687255859375e+00 9.377471804618835449e-01 2.929450988769531250e+00
3.290000000000000000e+03 1.443200683593750000e+01 -9.479721069335937500e+00 1.224155649542808533e-01 2.408416748046875000e+00 7.592496871948242188e-01 5.250090956687927246e-01
3.291000000000000000e+03 1.978566741943359375e+01 -9.496513366699218750e+00 9.113922715187072754e-01 1.082845330238342285e+00 5.982713103294372559e-01 -1.072527527809143066e+00
3.292000000000000000e+03 1.936867332458496094e+01 -6.961977958679199219e+00 2.060984849929809570e+00 1.412862062454223633e+00 1.042154073715209961e+00 -1.340327382087707520e+00
3.293000000000000000e+03 1.715822601318359375e+01 -8.157413482666015625e+00 1.181719183921813965e+00 1.934145569801330566e+00 9.347594380378723145e-01 -7.903649210929870605e-01
3.294000000000000000e+03 1.777625846862792969e+01 -3.346731901168823242e+00 3.419881343841552734e+00 2.266572237014770508e+00 1.705936074256896973e+00 -1.608460545539855957e+00
3.295000000000000000e+03 1.652318763732910156e+01 -2.880447149276733398e+00 3.553385734558105469e+00 3.132099628448486328e+00 2.005645513534545898e+00 -1.547512173652648926e+00
3.296000000000000000e+03 7.284877300262451172e+00 -9.392245292663574219e+00 -7.231281995773315430e-01 4.224130153656005859e+00 1.050300478935241699e+00 2.805626630783081055e+00
3.297000000000000000e+03 1.937930870056152344e+01 -5.805300235748291016e+00 2.599293231964111328e+00 1.463653802871704102e+00 1.218884110450744629e+00 -1.483786106109619141e+00
3.298000000000000000e+03 1.863970565795898438e+01 -5.469457626342773438e+00 2.659930944442749023e+00 1.739540100097656250e+00 1.319841384887695312e+00 -1.447415709495544434e+00
3.299000000000000000e+03 2.408130264282226562e+01 -9.838556289672851562e+00 1.366961598396301270e+00 5.593142509460449219e-01 5.778827667236328125e-01 -1.363861918449401855e+00
3.300000000000000000e+03 2.086005592346191406e+01 -8.321856498718261719e+00 1.551387906074523926e+00 9.825726747512817383e-01 7.601881623268127441e-01 -1.291614174842834473e+00
3.301000000000000000e+03 5.833702850341796875e+01 1.578315258026123047e+01 1.312629818916320801e+00 2.954527378082275391e+00 1.280147194862365723e+00 2.027952484786510468e-02
3.302000000000000000e+03 5.356834411621093750e+01 1.741879653930664062e+01 1.519931793212890625e+00 3.141585111618041992e+00 1.398455142974853516e+00 8.957962393760681152e-01
3.303000000000000000e+03 9.876666069030761719e+00 1.105635166168212891e+01 -4.442079365253448486e-01 5.799529552459716797e+00 1.606596469879150391e+00 -5.164514780044555664e-01
3.304000000000000000e+03 6.854627990722656250e+01 5.234598159790039062e+00 -5.589593052864074707e-01 5.550861835479736328e+00 1.497570753097534180e+00 -1.147590041160583496e+00
3.305000000000000000e+03 6.567773437500000000e+01 5.705835342407226562e+00 -4.791895449161529541e-01 4.284078598022460938e+00 1.141466617584228516e+00 -1.400270581245422363e+00
3.306000000000000000e+03 6.644632720947265625e+01 6.214430332183837891e+00 -4.062634706497192383e-01 4.632564544677734375e+00 1.267890334129333496e+00 -1.337882757186889648e+00
3.307000000000000000e+03 6.921766662597656250e+01 7.556290030479431152e-01 -1.023531556129455566e+00 6.447239875793457031e+00 1.627112507820129395e+00 -7.847085595130920410e-01
3.308000000000000000e+03 8.628004074096679688e+00 1.162457370758056641e+01 -2.898512482643127441e-01 5.004519462585449219e+00 1.414400458335876465e+00 -5.207832455635070801e-01
3.309000000000000000e+03 8.073365211486816406e+00 9.792943000793457031e+00 -3.687728345394134521e-01 4.655268669128417969e+00 1.285948753356933594e+00 -7.101554274559020996e-01
3.310000000000000000e+03 5.999559020996093750e+01 9.217159271240234375e+00 5.719569921493530273e-01 2.317641496658325195e+00 8.668795228004455566e-01 -8.500586152076721191e-01
3.311000000000000000e+03 5.871920013427734375e+01 9.518759727478027344e+00 7.641499042510986328e-01 2.031932115554809570e+00 8.388246297836303711e-01 -6.377400755882263184e-01
3.312000000000000000e+03 6.744522857666015625e+01 1.248911666870117188e+01 3.292024433612823486e-01 4.761960506439208984e+00 1.527348875999450684e+00 -1.013770222663879395e+00
3.313000000000000000e+03 6.817333221435546875e+01 1.120448017120361328e+01 1.796281188726425171e-01 4.978631019592285156e+00 1.547477841377258301e+00 -1.079112887382507324e+00
3.314000000000000000e+03 6.988919067382812500e+01 1.368408679962158203e+01 2.618705034255981445e-01 5.449863433837890625e+00 1.713520169258117676e+00 -8.800343275070190430e-01
3.315000000000000000e+03 5.448732376098632812e+01 1.627041816711425781e+01 1.572858333587646484e+00 2.861330986022949219e+00 1.330256819725036621e+00 6.993149518966674805e-01
3.316000000000000000e+03 5.159610366821289062e+01 1.519815158843994141e+01 1.713552355766296387e+00 3.010309934616088867e+00 1.417158603668212891e+00 1.222660541534423828e+00
3.317000000000000000e+03 6.380159378051757812e+01 8.390594482421875000e+00 1.138937324285507202e-01 3.507407188415527344e+00 1.086390256881713867e+00 -1.242805600166320801e+00
3.318000000000000000e+03 6.922422027587890625e+01 4.280745029449462891e+00 -6.605083346366882324e-01 5.887315750122070312e+00 1.568042278289794922e+00 -1.067879676818847656e+00
3.319000000000000000e+03 5.908594894409179688e+01 2.881915664672851562e+01 4.049688875675201416e-01 4.378058910369873047e+00 1.434908270835876465e+00 4.389812350273132324e-01
3.320000000000000000e+03 5.244359970092773438e+01 1.220793056488037109e+01 1.703735232353210449e+00 2.189774036407470703e+00 1.168052792549133301e+00 8.850811719894409180e-01
3.321000000000000000e+03 5.410257339477539062e+01 1.943265342712402344e+01 1.332764863967895508e+00 3.400548219680786133e+00 1.419993877410888672e+00 8.350972533226013184e-01
3.322000000000000000e+03 5.287539672851562500e+01 1.879610824584960938e+01 1.393270373344421387e+00 3.419772148132324219e+00 1.443912744522094727e+00 1.009128570556640625e+00
3.323000000000000000e+03 6.255439376831054688e+01 8.657803535461425781e+00 2.524901032447814941e-01 3.083521842956542969e+00 1.000803589820861816e+00 -1.158873438835144043e+00
3.324000000000000000e+03 6.597525787353515625e+01 2.209010314941406250e+01 5.932751893997192383e-01 4.727591991424560547e+00 1.596260190010070801e+00 -2.135225981473922729e-01
3.325000000000000000e+03 6.684862518310546875e+01 1.392304229736328125e+01 4.865401983261108398e-01 4.577232837677001953e+00 1.519131898880004883e+00 -8.882048130035400391e-01
3.326000000000000000e+03 6.610730743408203125e+01 1.533397674560546875e+01 6.145620346069335938e-01 4.447217941284179688e+00 1.518534064292907715e+00 -7.363587617874145508e-01
3.327000000000000000e+03 5.512771224975585938e+01 1.141215705871582031e+01 1.389927268028259277e+00 1.890386939048767090e+00 9.840942621231079102e-01 2.119939923286437988e-01
3.328000000000000000e+03 5.734180450439453125e+01 1.054440212249755859e+01 1.046143293380737305e+00 1.940276026725769043e+00 8.959257602691650391e-01 -3.394832909107208252e-01
3.329000000000000000e+03 5.589204025268554688e+01 1.058195400238037109e+01 1.204904913902282715e+00 1.777002215385437012e+00 8.945721387863159180e-01 -2.357925660908222198e-02
3.330000000000000000e+03 4.384801864624023438e+01 -3.496652603149414062e+01 -8.853110671043395996e-01 4.019230842590332031e+00 9.401759505271911621e-01 -1.033826589584350586e+00
3.331000000000000000e+03 9.652981758117675781e+00 -9.136321067810058594e+00 -5.755431056022644043e-01 4.184638023376464844e+00 1.082728505134582520e+00 2.725943565368652344e+00
3.332000000000000000e+03 7.381565570831298828e+00 -3.515147686004638672e+00 2.087925434112548828e+00 2.830075502395629883e+00 1.475400328636169434e+00 3.112237215042114258e+00
3.333000000000000000e+03 8.625768661499023438e+00 -3.641516447067260742e+00 1.828572511672973633e+00 5.006061077117919922e+00 2.050390005111694336e+00 3.655862569808959961e+00
3.334000000000000000e+03 7.869326591491699219e+00 -3.804248332977294922e+00 1.892447590827941895e+00 3.727658271789550781e+00 1.686031699180603027e+00 3.427865982055664062e+00
3.335000000000000000e+03 9.045122146606445312e+00 -4.403048992156982422e+00 1.170722126960754395e+00 5.566854000091552734e+00 2.021272897720336914e+00 3.318962574005126953e+00
3.336000000000000000e+03 8.523022651672363281e+00 -4.881279468536376953e+00 1.040459871292114258e+00 4.774299621582031250e+00 1.744427800178527832e+00 3.286474943161010742e+00
3.337000000000000000e+03 1.219504737854003906e+01 -2.676406383514404297e+00 2.936891794204711914e+00 8.337521553039550781e+00 3.382323980331420898e+00 -7.391782999038696289e-01
3.338000000000000000e+03 9.568471908569335938e+00 -3.910453319549560547e+00 1.282506942749023438e+00 6.638855934143066406e+00 2.376408815383911133e+00 3.173344612121582031e+00
3.339000000000000000e+03 7.966352462768554688e+00 3.588056087493896484e+00 9.972944855690002441e-01 3.599247217178344727e+00 1.378962516784667969e+00 -2.163863420486450195e+00
3.340000000000000000e+03 6.720405101776123047e+00 6.197789192199707031e+00 2.357505857944488525e-01 3.138828277587890625e+00 1.012373685836791992e+00 -1.154874324798583984e+00
3.341000000000000000e+03 1.016161346435546875e+01 3.358765363693237305e+00 -9.428587742149829865e-03 8.555504798889160156e+00 2.563822984695434570e+00 -1.928628921508789062e+00
3.342000000000000000e+03 4.823893547058105469e+00 3.845820188522338867e+00 6.135631203651428223e-01 7.888432145118713379e-01 4.207218885421752930e-01 -3.438720107078552246e-01
3.343000000000000000e+03 1.015407848358154297e+01 -4.033909320831298828e+00 1.052334427833557129e+00 7.240957260131835938e+00 2.487987518310546875e+00 2.506971359252929688e+00
3.344000000000000000e+03 6.461603164672851562e+00 3.846837759017944336e+00 9.117802977561950684e-01 1.832840204238891602e+00 8.233861327171325684e-01 -1.173301339149475098e+00
3.345000000000000000e+03 1.327701759338378906e+01 7.388701438903808594e-01 5.400908470153808594e+00 7.026596546173095703e+00 3.728251457214355469e+00 8.312288522720336914e-01
3.346000000000000000e+03 7.184226036071777344e+00 -3.648083448410034180e+00 1.998186230659484863e+00 2.667912721633911133e+00 1.399829745292663574e+00 3.004264831542968750e+00
3.347000000000000000e+03 7.441737651824951172e+00 3.640537023544311523e+00 1.040744423866271973e+00 2.835925817489624023e+00 1.163001060485839844e+00 -1.825156927108764648e+00
3.348000000000000000e+03 7.671336174011230469e+00 3.399052858352661133e+00 1.115422129631042480e+00 3.031203508377075195e+00 1.243987679481506348e+00 -2.009515523910522461e+00
3.349000000000000000e+03 1.598663234710693359e+01 1.379942297935485840e+00 3.278782129287719727e+00 4.414809703826904297e+00 2.308077573776245117e+00 -2.294313609600067139e-01
3.350000000000000000e+03 1.045358276367187500e+01 -4.190278530120849609e+00 9.676728248596191406e-01 7.281744003295898438e+00 2.474824905395507812e+00 2.168885707855224609e+00
3.351000000000000000e+03 1.174475955963134766e+01 -3.322859048843383789e+00 1.880426287651062012e+00 8.334914207458496094e+00 3.064602375030517578e+00 1.983039528131484985e-01
3.352000000000000000e+03 1.039235973358154297e+01 4.463079452514648438e+00 -3.725203573703765869e-01 7.815623760223388672e+00 2.232931137084960938e+00 -1.451309084892272949e+00
3.353000000000000000e+03 5.292132854461669922e+00 -3.715938568115234375e+00 1.400655388832092285e+00 1.340695619583129883e+00 8.224052786827087402e-01 1.820419073104858398e+00
3.354000000000000000e+03 5.692059993743896484e+00 -4.783035755157470703e+00 1.152369260787963867e+00 2.156317949295043945e+00 9.926061630249023438e-01 2.368621349334716797e+00
3.355000000000000000e+03 1.576171588897705078e+01 -2.968508720397949219e+00 3.537182807922363281e+00 3.761716127395629883e+00 2.189669609069824219e+00 -1.480364203453063965e+00
3.356000000000000000e+03 5.879936695098876953e+00 5.731193542480468750e+00 4.437413215637207031e-01 2.221386194229125977e+00 7.995382547378540039e-01 -9.374760985374450684e-01
3.357000000000000000e+03 1.145354080200195312e+01 4.512121677398681641e+00 -4.140987992286682129e-01 8.381117820739746094e+00 2.390105724334716797e+00 -5.830222964286804199e-01
3.358000000000000000e+03 1.190210628509521484e+01 4.702150821685791016e+00 -3.970424830913543701e-01 8.279312133789062500e+00 2.364681005477905273e+00 -3.242115378379821777e-01
3.359000000000000000e+03 1.351450157165527344e+01 9.676731824874877930e-01 4.845709800720214844e+00 6.811855316162109375e+00 3.497269630432128906e+00 8.241659402847290039e-01
3.360000000000000000e+03 1.307501888275146484e+01 -1.815057635307312012e+00 4.652722835540771484e+00 7.013903617858886719e+00 3.499987840652465820e+00 -1.358543157577514648e+00
3.361000000000000000e+03 1.321646213531494141e+01 -2.464056253433227539e+00 3.746844053268432617e+00 6.719400882720947266e+00 3.139873504638671875e+00 -1.265160202980041504e+00
3.362000000000000000e+03 1.288611316680908203e+01 2.577671289443969727e+00 1.977229714393615723e+00 8.479776382446289062e+00 3.137101888656616211e+00 1.101020932197570801e+00
3.363000000000000000e+03 1.254210758209228516e+01 4.381585121154785156e+00 -8.759607374668121338e-02 8.326272964477539062e+00 2.471603155136108398e+00 1.163104102015495300e-01
3.364000000000000000e+03 6.766910076141357422e+00 6.509060859680175781e+00 1.759085953235626221e-01 3.218364000320434570e+00 1.018281817436218262e+00 -1.125845193862915039e+00
3.365000000000000000e+03 1.374488925933837891e+01 2.227474927902221680e+00 2.735967874526977539e+00 7.157435417175292969e+00 2.968020915985107422e+00 9.524714946746826172e-01
3.366000000000000000e+03 1.332451534271240234e+01 1.955552935600280762e+00 3.147088766098022461e+00 7.662080287933349609e+00 3.242750644683837891e+00 1.178212881088256836e+00
3.367000000000000000e+03 1.314903259277343750e+01 2.921556234359741211e+00 1.610051393508911133e+00 8.118398666381835938e+00 2.918534994125366211e+00 9.411510229110717773e-01
3.368000000000000000e+03 1.353127479553222656e+01 3.902762413024902344e+00 6.498122215270996094e-01 7.726093292236328125e+00 2.512771606445312500e+00 5.831453800201416016e-01
3.369000000000000000e+03 7.376520633697509766e+00 -8.156256675720214844e+00 -2.636461555957794189e-01 4.072504520416259766e+00 1.142657518386840820e+00 2.888646125793457031e+00
3.370000000000000000e+03 1.470240306854248047e+01 1.806219935417175293e+00 3.244227647781372070e+00 5.829567432403564453e+00 2.722138643264770508e+00 5.015798211097717285e-01
3.371000000000000000e+03 1.419552516937255859e+01 -4.736780226230621338e-01 5.246325016021728516e+00 5.433054447174072266e+00 3.203813791275024414e+00 -6.101354360580444336e-01
3.372000000000000000e+03 5.131856918334960938e+00 4.239513397216796875e+00 6.632229089736938477e-01 1.102799773216247559e+00 5.298067927360534668e-01 -5.494183301925659180e-01
3.373000000000000000e+03 5.364936828613281250e+00 -5.565225124359130859e+00 7.702497243881225586e-01 2.361751079559326172e+00 9.396002292633056641e-01 2.308471441268920898e+00
3.374000000000000000e+03 6.435092926025390625e+00 -6.824528217315673828e+00 2.883555293083190918e-01 3.416835308074951172e+00 1.111557245254516602e+00 2.781982421875000000e+00
3.375000000000000000e+03 1.414907836914062500e+01 4.271092891693115234e+00 5.500394701957702637e-01 7.163164615631103516e+00 2.313961267471313477e+00 4.875327646732330322e-01
3.376000000000000000e+03 7.228781223297119141e+00 -7.729201316833496094e+00 -1.283309757709503174e-01 3.958520412445068359e+00 1.149056792259216309e+00 2.876446008682250977e+00
3.377000000000000000e+03 6.818404197692871094e+00 -7.844808101654052734e+00 -1.107372790575027466e-01 3.839003086090087891e+00 1.118479728698730469e+00 2.812642812728881836e+00
3.378000000000000000e+03 1.598795890808105469e+01 -1.404383331537246704e-01 4.115752220153808594e+00 3.836744546890258789e+00 2.385749101638793945e+00 -8.193665146827697754e-01
3.379000000000000000e+03 6.706346035003662109e+00 7.517708301544189453e+00 -1.550296228379011154e-02 3.421480655670166016e+00 1.021793365478515625e+00 -9.633171558380126953e-01
3.380000000000000000e+03 1.288483715057373047e+01 -2.543581962585449219e+00 3.523772478103637695e+00 7.245684146881103516e+00 3.230837106704711914e+00 -1.180771112442016602e+00
3.381000000000000000e+03 1.626460647583007812e+01 -3.346650362014770508e+00 3.379829168319702148e+00 3.258608102798461914e+00 1.991531133651733398e+00 -1.529788732528686523e+00
3.382000000000000000e+03 1.401035690307617188e+01 3.794555187225341797e+00 8.841018676757812500e-01 7.292875289916992188e+00 2.453093290328979492e+00 6.174796223640441895e-01
3.383000000000000000e+03 1.799651908874511719e+01 -7.395518779754638672e+00 1.635833382606506348e+00 1.795593738555908203e+00 1.029428124427795410e+00 -1.119504928588867188e+00
3.384000000000000000e+03 1.177531623840332031e+01 -8.953067779541015625e+00 -2.907148003578186035e-01 3.745960712432861328e+00 1.036573767662048340e+00 1.846781849861145020e+00
3.385000000000000000e+03 9.452105522155761719e+00 9.870415687561035156e+00 -5.275337100028991699e-01 5.572293758392333984e+00 1.513428092002868652e+00 -6.491639018058776855e-01
3.386000000000000000e+03 1.270683574676513672e+01 5.639381885528564453e+00 -5.817307829856872559e-01 7.728844642639160156e+00 2.144134283065795898e+00 -1.348851472139358521e-01
3.387000000000000000e+03 1.153419399261474609e+01 6.460341930389404297e+00 -8.119950890541076660e-01 7.378515243530273438e+00 1.969956040382385254e+00 -6.235756278038024902e-01
3.388000000000000000e+03 7.760949611663818359e+00 8.102952957153320312e+00 -2.601834535598754883e-01 4.419885158538818359e+00 1.247910499572753906e+00 -1.011141061782836914e+00
3.389000000000000000e+03 1.368295955657958984e+01 4.468173980712890625e+00 2.657205462455749512e-01 7.513095378875732422e+00 2.333644628524780273e+00 3.948168456554412842e-01
3.390000000000000000e+03 8.372235298156738281e+00 8.840077400207519531e+00 -3.947076499462127686e-01 4.824100494384765625e+00 1.328817844390869141e+00 -8.728014826774597168e-01
3.391000000000000000e+03 1.706455802917480469e+01 -5.566705465316772461e-01 3.853183507919311523e+00 2.995591878890991211e+00 2.054632663726806641e+00 -1.194866180419921875e+00
3.392000000000000000e+03 1.600236320495605469e+01 -8.654802441596984863e-01 4.184652805328369141e+00 3.679793357849121094e+00 2.359333753585815430e+00 -1.118120551109313965e+00
3.393000000000000000e+03 7.592728614807128906e+00 -8.626564025878906250e+00 -4.620447456836700439e-01 4.167509078979492188e+00 1.111639380455017090e+00 2.874841928482055664e+00
3.394000000000000000e+03 8.959000587463378906e+00 -9.044092178344726562e+00 -6.069877743721008301e-01 4.258866786956787109e+00 1.095563769340515137e+00 2.866236686706542969e+00
3.395000000000000000e+03 1.338739395141601562e+01 -9.201379776000976562e+00 1.644153147935867310e-02 2.973498582839965820e+00 8.969820141792297363e-01 1.016527533531188965e+00
3.396000000000000000e+03 1.680860519409179688e+01 -6.712093830108642578e+00 1.750872731208801270e+00 2.402359247207641602e+00 1.245969533920288086e+00 -9.922931790351867676e-01
3.397000000000000000e+03 9.708024024963378906e+00 -8.526065826416015625e+00 -4.335030615329742432e-01 4.349004268646240234e+00 1.174650430679321289e+00 2.673856973648071289e+00
3.398000000000000000e+03 7.087585449218750000e+00 -8.827093124389648438e+00 -4.827461540699005127e-01 4.102343082427978516e+00 1.085879087448120117e+00 2.807451248168945312e+00
3.399000000000000000e+03 7.898184299468994141e+00 -9.149813652038574219e+00 -6.266390085220336914e-01 4.246847629547119141e+00 1.086062550544738770e+00 2.897253274917602539e+00
3.400000000000000000e+03 1.639835166931152344e+01 -8.936760902404785156e+00 6.492285728454589844e-01 1.932012796401977539e+00 7.743723988533020020e-01 -4.565815627574920654e-01
3.401000000000000000e+03 1.516921710968017578e+01 -8.977960586547851562e+00 4.085422754287719727e-01 2.361911296844482422e+00 8.311360478401184082e-01 4.982276633381843567e-02
3.402000000000000000e+03 1.960932350158691406e+01 -8.086120605468750000e+00 1.562289953231811523e+00 1.294896483421325684e+00 8.571559190750122070e-01 -1.242191672325134277e+00
3.403000000000000000e+03 1.924835205078125000e+01 -7.606054306030273438e+00 1.719509959220886230e+00 1.417144298553466797e+00 9.409962892532348633e-01 -1.246144652366638184e+00
3.404000000000000000e+03 2.170114326477050781e+01 -8.277168273925781250e+00 1.757532596588134766e+00 9.026483893394470215e-01 7.980542778968811035e-01 -1.378780245780944824e+00
3.405000000000000000e+03 6.484043121337890625e+01 1.442903423309326172e+01 6.860066056251525879e-01 4.082635402679443359e+00 1.430592656135559082e+00 -7.685093879699707031e-01
3.406000000000000000e+03 1.706501579284667969e+01 -4.580977916717529297e+00 2.851799249649047852e+00 2.602895021438598633e+00 1.636408329010009766e+00 -1.421434044837951660e+00
3.407000000000000000e+03 5.679774093627929688e+01 1.132696914672851562e+01 1.213708996772766113e+00 2.073967933654785156e+00 9.863030910491943359e-01 -1.204028576612472534e-01
3.408000000000000000e+03 5.429105377197265625e+01 1.231110668182373047e+01 1.562260150909423828e+00 2.077596426010131836e+00 1.091956973075866699e+00 4.677208662033081055e-01
3.409000000000000000e+03 1.921081161499023438e+01 -8.642600059509277344e+00 1.204450011253356934e+00 1.262693524360656738e+00 7.401430606842041016e-01 -1.086733460426330566e+00
3.410000000000000000e+03 5.340625381469726562e+01 1.325474643707275391e+01 1.674116015434265137e+00 2.343916416168212891e+00 1.205409765243530273e+00 7.431626319885253906e-01
3.411000000000000000e+03 5.334289932250976562e+01 1.130119419097900391e+01 1.538824200630187988e+00 1.896648049354553223e+00 1.030641674995422363e+00 5.998994112014770508e-01
3.412000000000000000e+03 6.737840270996093750e+01 1.007100772857666016e+01 1.155265495181083679e-01 4.769119739532470703e+00 1.465393781661987305e+00 -1.158450841903686523e+00
3.413000000000000000e+03 6.705622100830078125e+01 5.416027069091796875e+00 -5.304268002510070801e-01 4.900230884552001953e+00 1.310941219329833984e+00 -1.296731233596801758e+00
3.414000000000000000e+03 5.548825454711914062e+01 1.719355201721191406e+01 1.468337774276733398e+00 3.029302358627319336e+00 1.349292039871215820e+00 5.835635066032409668e-01
3.415000000000000000e+03 5.644174957275390625e+01 1.818569374084472656e+01 1.355256557464599609e+00 3.196567058563232422e+00 1.365547060966491699e+00 4.683848917484283447e-01
3.416000000000000000e+03 5.250193786621093750e+01 1.423215770721435547e+01 1.734829664230346680e+00 2.652042388916015625e+00 1.316061615943908691e+00 9.986931681632995605e-01
3.417000000000000000e+03 6.532180786132812500e+01 1.856743621826171875e+01 7.149812579154968262e-01 4.421788215637207031e+00 1.541030764579772949e+00 -4.490775167942047119e-01
3.418000000000000000e+03 6.128248596191406250e+01 8.926405906677246094e+00 4.128211140632629395e-01 2.676463603973388672e+00 9.267854094505310059e-01 -1.036369442939758301e+00
3.419000000000000000e+03 6.570458221435546875e+01 2.375821876525878906e+01 5.423398017883300781e-01 4.756294250488281250e+00 1.589590191841125488e+00 -1.093278303742408752e-01
3.420000000000000000e+03 6.711425781250000000e+01 7.040590286254882812e+00 -3.055322170257568359e-01 4.815032958984375000e+00 1.352850198745727539e+00 -1.295880436897277832e+00
3.421000000000000000e+03 6.547847747802734375e+01 9.372057914733886719e+00 1.411189585924148560e-01 4.140590667724609375e+00 1.284512877464294434e+00 -1.218211770057678223e+00
3.422000000000000000e+03 6.503749084472656250e+01 1.240824508666992188e+01 5.074061155319213867e-01 4.041080474853515625e+00 1.364545941352844238e+00 -9.687997698783874512e-01
3.423000000000000000e+03 4.892161560058593750e+01 3.352305984497070312e+01 -4.828872978687286377e-01 3.941914558410644531e+00 1.037708163261413574e+00 6.200250387191772461e-01
3.424000000000000000e+03 5.977980422973632812e+01 3.182830429077148438e+01 1.271056979894638062e-01 4.600075721740722656e+00 1.418154478073120117e+00 3.865696787834167480e-01
3.425000000000000000e+03 5.704719924926757812e+01 3.282166671752929688e+01 3.030012594535946846e-03 4.468000888824462891e+00 1.341309309005737305e+00 4.904787838459014893e-01
3.426000000000000000e+03 6.037223815917968750e+01 1.061956214904785156e+01 7.808872461318969727e-01 2.599863052368164062e+00 1.014225125312805176e+00 -7.640772461891174316e-01
3.427000000000000000e+03 9.302693367004394531e+00 -4.149423599243164062e+00 1.219987988471984863e+00 6.053314208984375000e+00 2.181990623474121094e+00 3.265182733535766602e+00
3.428000000000000000e+03 1.106599235534667969e+01 -9.056487083435058594e+00 -3.860389888286590576e-01 3.905940532684326172e+00 1.055970430374145508e+00 2.212672233581542969e+00
3.429000000000000000e+03 6.789545536041259766e+00 4.035959243774414062e+00 8.886337876319885254e-01 2.262177944183349609e+00 9.452435374259948730e-01 -1.378545165061950684e+00
3.430000000000000000e+03 6.341313838958740234e+00 -3.569849729537963867e+00 1.829451680183410645e+00 1.851299881935119629e+00 1.104225516319274902e+00 2.442023515701293945e+00
3.431000000000000000e+03 7.396058559417724609e+00 7.927497386932373047e+00 -1.781522333621978760e-01 4.141376018524169922e+00 1.188967227935791016e+00 -1.014893889427185059e+00
3.432000000000000000e+03 6.717302322387695312e+00 6.991407394409179688e+00 6.936484575271606445e-02 3.382850408554077148e+00 1.035664558410644531e+00 -1.055466771125793457e+00
3.433000000000000000e+03 6.809629440307617188e+00 -6.624664783477783203e+00 3.838497996330261230e-01 3.545817136764526367e+00 1.178900122642517090e+00 2.878568410873413086e+00
3.434000000000000000e+03 1.007144355773925781e+01 4.101407051086425781e+00 -1.991796195507049561e-01 7.663150310516357422e+00 2.239191293716430664e+00 -1.788997650146484375e+00
3.435000000000000000e+03 6.327706336975097656e+00 -4.137519836425781250e+00 1.594508886337280273e+00 2.238762855529785156e+00 1.149981498718261719e+00 2.635205507278442383e+00
3.436000000000000000e+03 1.204866981506347656e+01 -3.407199382781982422e+00 2.020221948623657227e+00 7.823395252227783203e+00 2.953085184097290039e+00 -1.409690529108047485e-01
3.437000000000000000e+03 1.088654136657714844e+01 -4.040017604827880859e+00 1.056464552879333496e+00 7.623857975006103516e+00 2.604096889495849609e+00 1.669145941734313965e+00
3.438000000000000000e+03 6.784216403961181641e+00 -4.105432033538818359e+00 1.647432684898376465e+00 2.567314624786376953e+00 1.264424204826354980e+00 2.839998245239257812e+00
3.439000000000000000e+03 7.902258396148681641e+00 3.962053060531616211e+00 8.275805115699768066e-01 3.722238302230834961e+00 1.364945650100708008e+00 -2.046703100204467773e+00
3.440000000000000000e+03 1.378868007659912109e+01 -2.608019113540649414e-01 5.545608520507812500e+00 5.906510829925537109e+00 3.435635805130004883e+00 -3.879932165145874023e-01
3.441000000000000000e+03 9.647946357727050781e+00 4.388854980468750000e+00 -1.168098598718643188e-01 6.918862819671630859e+00 2.040615797042846680e+00 -1.913282990455627441e+00
3.442000000000000000e+03 1.012046432495117188e+01 4.999507427215576172e+00 -4.247992336750030518e-01 7.202376365661621094e+00 2.033273220062255859e+00 -1.486789345741271973e+00
3.443000000000000000e+03 5.118098258972167969e+00 -4.298467159271240234e+00 1.180655241012573242e+00 1.616241693496704102e+00 8.390690684318542480e-01 1.939082622528076172e+00
3.444000000000000000e+03 6.173224925994873047e+00 3.878400802612304688e+00 8.649629354476928711e-01 1.624598383903503418e+00 7.468683719635009766e-01 -1.006461381912231445e+00
3.445000000000000000e+03 1.434685516357421875e+01 -1.498679220676422119e-01 5.110316753387451172e+00 5.319166660308837891e+00 3.128844976425170898e+00 -4.229584038257598877e-01
3.446000000000000000e+03 7.111784458160400391e+00 -7.342684268951416016e+00 4.821300134062767029e-02 3.851679801940917969e+00 1.169967889785766602e+00 2.888064622879028320e+00
3.447000000000000000e+03 1.276599979400634766e+01 -2.168773174285888672e+00 4.076317310333251953e+00 7.557631492614746094e+00 3.490184545516967773e+00 -1.283966898918151855e+00
3.448000000000000000e+03 8.556973457336425781e+00 4.037353038787841797e+00 5.375524163246154785e-01 4.929986953735351562e+00 1.640261888504028320e+00 -2.228914976119995117e+00
3.449000000000000000e+03 7.569674491882324219e+00 4.004432678222656250e+00 8.792957663536071777e-01 3.245360612869262695e+00 1.237396836280822754e+00 -1.882592916488647461e+00
3.450000000000000000e+03 7.581011295318603516e+00 -3.685332775115966797e+00 2.008055925369262695e+00 3.235109806060791016e+00 1.572949767112731934e+00 3.283662080764770508e+00
3.451000000000000000e+03 1.611009216308593750e+01 -2.532883405685424805e+00 3.755104303359985352e+00 3.475821256637573242e+00 2.169277667999267578e+00 -1.513141512870788574e+00
3.452000000000000000e+03 1.055192470550537109e+01 6.874437808990478516e+00 -7.525772452354431152e-01 6.780025959014892578e+00 1.808234691619873047e+00 -9.166982769966125488e-01
3.453000000000000000e+03 5.118212223052978516e+00 3.579457283020019531e+00 6.543710231781005859e-01 8.354757428169250488e-01 4.469540417194366455e-01 -3.988550901412963867e-01
3.454000000000000000e+03 1.158864784240722656e+01 -3.800299644470214844e+00 1.430635571479797363e+00 7.734858989715576172e+00 2.749648332595825195e+00 6.378978490829467773e-01
3.455000000000000000e+03 1.457402229309082031e+01 1.083611845970153809e+00 4.075426101684570312e+00 5.540652275085449219e+00 2.884823560714721680e+00 2.906183004379272461e-01
3.456000000000000000e+03 1.382528781890869141e+01 1.245010972023010254e+00 4.226417541503906250e+00 6.544784545898437500e+00 3.231360673904418945e+00 7.695934176445007324e-01
3.457000000000000000e+03 1.216914939880371094e+01 3.695383548736572266e+00 2.416500449180603027e-01 8.876643180847167969e+00 2.735487937927246094e+00 2.067527025938034058e-01
3.458000000000000000e+03 1.581920051574707031e+01 5.020251870155334473e-01 3.902704477310180664e+00 4.165944576263427734e+00 2.420594692230224609e+00 -5.314056873321533203e-01
3.459000000000000000e+03 1.549486923217773438e+01 9.651699066162109375e-01 3.811623811721801758e+00 4.662451744079589844e+00 2.542222738265991211e+00 -1.332338154315948486e-01
3.460000000000000000e+03 6.297468185424804688e+00 6.032988548278808594e+00 3.455807864665985107e-01 2.676604032516479492e+00 9.066554903984069824e-01 -1.056178450584411621e+00
3.461000000000000000e+03 6.169519424438476562e+00 5.404455661773681641e+00 5.062109231948852539e-01 2.355237960815429688e+00 8.584346175193786621e-01 -1.054333448410034180e+00
3.462000000000000000e+03 1.279609298706054688e+01 -3.462399244308471680e+00 2.408566713333129883e+00 6.871444702148437500e+00 2.784003496170043945e+00 -6.575329899787902832e-01
3.463000000000000000e+03 6.415063381195068359e+00 6.703293323516845703e+00 1.737098693847656250e-01 2.975269556045532227e+00 9.446938633918762207e-01 -1.013583183288574219e+00
3.464000000000000000e+03 1.056190586090087891e+01 5.203078269958496094e+00 -5.682965517044067383e-01 7.524330615997314453e+00 2.086810111999511719e+00 -1.189658284187316895e+00
3.465000000000000000e+03 1.307358932495117188e+01 3.979943275451660156e+00 4.511898458003997803e-01 8.040266990661621094e+00 2.547436952590942383e+00 4.936915636062622070e-01
3.466000000000000000e+03 6.048480033874511719e+00 -5.914434909820556641e+00 6.803354620933532715e-01 2.900818824768066406e+00 1.074346303939819336e+00 2.653433561325073242e+00
3.467000000000000000e+03 1.263623714447021484e+01 3.874283552169799805e+00 3.338978886604309082e-01 8.502689361572265625e+00 2.650976181030273438e+00 3.928147554397583008e-01
3.468000000000000000e+03 1.336660194396972656e+01 -1.697675228118896484e+00 4.810434818267822266e+00 6.532703876495361328e+00 3.402941465377807617e+00 -1.323964834213256836e+00
3.469000000000000000e+03 1.411112499237060547e+01 9.121845364570617676e-01 4.553261280059814453e+00 5.970730781555175781e+00 3.157197475433349609e+00 4.233210980892181396e-01
3.470000000000000000e+03 1.189894676208496094e+01 5.921563625335693359e+00 -7.420377731323242188e-01 7.681897640228271484e+00 2.081958055496215820e+00 -4.633761644363403320e-01
3.471000000000000000e+03 5.170097351074218750e+00 -4.954303741455078125e+00 9.714022278785705566e-01 1.983337044715881348e+00 8.864217996597290039e-01 2.118143796920776367e+00
3.472000000000000000e+03 1.290996456146240234e+01 3.547837257385253906e+00 7.684292197227478027e-01 8.399291992187500000e+00 2.750316381454467773e+00 6.625086665153503418e-01
3.473000000000000000e+03 7.009548664093017578e+00 7.237644672393798828e+00 -3.185178712010383606e-02 3.652522087097167969e+00 1.086201071739196777e+00 -1.054446816444396973e+00
3.474000000000000000e+03 1.397409725189208984e+01 2.871500253677368164e+00 1.899582028388977051e+00 7.101146697998046875e+00 2.700218677520751953e+00 7.844005227088928223e-01
3.475000000000000000e+03 1.350485992431640625e+01 2.608576774597167969e+00 2.138747930526733398e+00 7.631955146789550781e+00 2.931210994720458984e+00 1.009415745735168457e+00
3.476000000000000000e+03 1.205253410339355469e+01 -3.088924646377563477e+00 2.339371442794799805e+00 8.099968910217285156e+00 3.131802082061767578e+00 -3.521609604358673096e-01
3.477000000000000000e+03 9.525088310241699219e+00 -4.472230911254882812e+00 9.767445325851440430e-01 6.169794559478759766e+00 2.143961668014526367e+00 3.014518499374389648e+00
3.478000000000000000e+03 9.866871833801269531e+00 8.106121063232421875e+00 -6.612068414688110352e-01 6.056700229644775391e+00 1.618647933006286621e+00 -8.604062199592590332e-01
3.479000000000000000e+03 9.698554039001464844e+00 7.263392448425292969e+00 -6.067139506340026855e-01 6.071613788604736328e+00 1.639469981193542480e+00 -1.048354268074035645e+00
3.480000000000000000e+03 1.247422695159912109e+01 -8.813803672790527344e+00 -6.707871705293655396e-02 3.568582534790039062e+00 1.050451159477233887e+00 1.434525728225708008e+00
3.481000000000000000e+03 1.232597541809082031e+01 -8.225975036621093750e+00 2.168611437082290649e-02 3.953990697860717773e+00 1.192703008651733398e+00 1.364948391914367676e+00
3.482000000000000000e+03 1.526109027862548828e+01 4.629761576652526855e-01 4.222503185272216797e+00 4.656620502471923828e+00 2.663737058639526367e+00 -3.035118281841278076e-01
3.483000000000000000e+03 1.313952445983886719e+01 -8.600585937500000000e+00 1.056524664163589478e-01 3.401440143585205078e+00 1.052127718925476074e+00 1.002685427665710449e+00
3.484000000000000000e+03 1.430916976928710938e+01 -2.020636558532714844e+00 4.254441261291503906e+00 5.238624095916748047e+00 2.847919464111328125e+00 -1.369567155838012695e+00
3.485000000000000000e+03 1.408405971527099609e+01 -8.859900474548339844e+00 2.313144654035568237e-01 2.867626667022705078e+00 9.296823143959045410e-01 5.554053783416748047e-01
3.486000000000000000e+03 1.396685218811035156e+01 -1.703677773475646973e+00 4.659710884094238281e+00 5.628527641296386719e+00 3.086471557617187500e+00 -1.285655260086059570e+00
3.487000000000000000e+03 1.589140510559082031e+01 -1.565185546875000000e+00 4.136970996856689453e+00 3.689423084259033203e+00 2.347918272018432617e+00 -1.325703859329223633e+00
3.488000000000000000e+03 7.994616985321044922e+00 7.718110084533691406e+00 -2.649523913860321045e-01 4.560610294342041016e+00 1.288697361946105957e+00 -1.084357261657714844e+00
3.489000000000000000e+03 1.098151874542236328e+01 -8.390105247497558594e+00 -2.741823196411132812e-01 4.258649826049804688e+00 1.195340275764465332e+00 2.142203330993652344e+00
3.490000000000000000e+03 8.816099166870117188e+00 9.385974884033203125e+00 -4.736928045749664307e-01 5.174027919769287109e+00 1.410100460052490234e+00 -7.391830682754516602e-01
3.491000000000000000e+03 9.407261848449707031e+00 8.740573883056640625e+00 -5.813832283020019531e-01 5.676918506622314453e+00 1.528660535812377930e+00 -7.973496913909912109e-01
3.492000000000000000e+03 1.647110939025878906e+01 -7.602967739105224609e+00 1.293673157691955566e+00 2.314072370529174805e+00 1.082323670387268066e+00 -7.485477328300476074e-01
3.493000000000000000e+03 1.790729141235351562e+01 -5.218563079833984375e+00 2.702442884445190430e+00 2.089605331420898438e+00 1.437614440917968750e+00 -1.418336510658264160e+00
3.494000000000000000e+03 1.652855682373046875e+01 -4.187506675720214844e+00 2.989268779754638672e+00 2.965557336807250977e+00 1.786447882652282715e+00 -1.459013462066650391e+00
3.495000000000000000e+03 1.024580764770507812e+01 -7.939663410186767578e+00 -2.441252022981643677e-01 4.524864673614501953e+00 1.284221887588500977e+00 2.436182498931884766e+00
3.496000000000000000e+03 1.856575965881347656e+01 -8.113910675048828125e+00 1.407967090606689453e+00 1.496995329856872559e+00 8.714886903762817383e-01 -1.078308224678039551e+00
3.497000000000000000e+03 2.014244079589843750e+01 -8.299128532409667969e+00 1.501289010047912598e+00 1.133911848068237305e+00 7.905603051185607910e-01 -1.260589838027954102e+00
3.498000000000000000e+03 1.876339340209960938e+01 -6.634240150451660156e+00 2.145355224609375000e+00 1.595520496368408203e+00 1.122262716293334961e+00 -1.303174495697021484e+00
3.499000000000000000e+03 1.672172927856445312e+01 -5.004530906677246094e+00 2.604647636413574219e+00 2.774980783462524414e+00 1.613888502120971680e+00 -1.349142313003540039e+00
3.500000000000000000e+03 6.383817291259765625e+01 1.314897060394287109e+01 6.946709156036376953e-01 3.717801332473754883e+00 1.323741674423217773e+00 -8.505472540855407715e-01
3.501000000000000000e+03 6.575978088378906250e+01 1.330603027343750000e+01 5.288809537887573242e-01 4.314915180206298828e+00 1.453138947486877441e+00 -9.147795438766479492e-01
3.502000000000000000e+03 5.612613677978515625e+01 2.048842430114746094e+01 1.208281159400939941e+00 3.491449832916259766e+00 1.409919261932373047e+00 6.036400198936462402e-01
3.503000000000000000e+03 5.358080673217773438e+01 2.096715164184570312e+01 1.192406415939331055e+00 3.610653638839721680e+00 1.440918087959289551e+00 9.060584306716918945e-01
3.504000000000000000e+03 5.539301681518554688e+01 1.520030021667480469e+01 1.541305541992187500e+00 2.674920320510864258e+00 1.264867782592773438e+00 4.791594743728637695e-01
3.505000000000000000e+03 6.291515350341796875e+01 1.010507011413574219e+01 4.542345404624938965e-01 3.278111696243286133e+00 1.119703888893127441e+00 -1.067956566810607910e+00
3.506000000000000000e+03 6.164733123779296875e+01 1.035045242309570312e+01 5.902216434478759766e-01 2.944356203079223633e+00 1.060373425483703613e+00 -9.376550912857055664e-01
3.507000000000000000e+03 6.404347991943359375e+01 1.688756752014160156e+01 8.115139007568359375e-01 4.073301792144775391e+00 1.465444684028625488e+00 -5.109845399856567383e-01
3.508000000000000000e+03 6.397396469116210938e+01 1.845171546936035156e+01 8.213770985603332520e-01 4.160700321197509766e+00 1.494623303413391113e+00 -3.773120939731597900e-01
3.509000000000000000e+03 5.819910049438476562e+01 1.265776920318603516e+01 1.205428361892700195e+00 2.467245101928710938e+00 1.101801991462707520e+00 -2.385643273591995239e-01
3.510000000000000000e+03 5.909159851074218750e+01 1.095920085906982422e+01 9.427004456520080566e-01 2.326265811920166016e+00 9.806899428367614746e-01 -5.574751496315002441e-01
3.511000000000000000e+03 6.500489044189453125e+01 8.094287872314453125e+00 -9.320820681750774384e-03 3.939637660980224609e+00 1.179095029830932617e+00 -1.287742018699645996e+00
3.512000000000000000e+03 6.613337707519531250e+01 7.683745861053466797e+00 -1.562065631151199341e-01 4.405346393585205078e+00 1.274741888046264648e+00 -1.313006639480590820e+00
3.513000000000000000e+03 1.032624149322509766e+01 -8.508385658264160156e+00 -3.466092348098754883e-01 4.303138256072998047e+00 1.186958670616149902e+00 2.461531639099121094e+00
3.514000000000000000e+03 5.845874309539794922e+00 -4.115596294403076172e+00 1.457917094230651855e+00 1.870815277099609375e+00 9.986197352409362793e-01 2.295890092849731445e+00
3.515000000000000000e+03 8.186284065246582031e+00 -3.917684316635131836e+00 1.768579483032226562e+00 4.257276058197021484e+00 1.807756781578063965e+00 3.509279966354370117e+00
3.516000000000000000e+03 6.950619220733642578e+00 -5.686414718627929688e+00 7.886137366294860840e-01 3.381371736526489258e+00 1.250995635986328125e+00 2.958388090133666992e+00
3.517000000000000000e+03 7.163885593414306641e+00 -4.049376010894775391e+00 1.722569108009338379e+00 2.919688463211059570e+00 1.392677307128906250e+00 3.045014381408691406e+00
3.518000000000000000e+03 8.229893684387207031e+00 4.619051933288574219e+00 4.148975014686584473e-01 4.470833778381347656e+00 1.465719342231750488e+00 -1.944452166557312012e+00
3.519000000000000000e+03 8.243352890014648438e+00 3.987577915191650391e+00 6.983989477157592773e-01 4.401061058044433594e+00 1.529837965965270996e+00 -2.222481250762939453e+00
3.520000000000000000e+03 6.566526889801025391e+00 4.173727035522460938e+00 8.376022577285766602e-01 2.121341943740844727e+00 8.876832723617553711e-01 -1.258898735046386719e+00
3.521000000000000000e+03 5.881803989410400391e+00 4.398499011993408203e+00 7.386105060577392578e-01 1.642082691192626953e+00 7.142079472541809082e-01 -8.988695740699768066e-01
3.522000000000000000e+03 1.002311992645263672e+01 -4.428691387176513672e+00 8.934870362281799316e-01 6.631674766540527344e+00 2.257548570632934570e+00 2.627776861190795898e+00
3.523000000000000000e+03 8.460018157958984375e+00 7.967773914337158203e+00 -3.753857612609863281e-01 4.940589904785156250e+00 1.369561314582824707e+00 -1.023513078689575195e+00
3.524000000000000000e+03 1.253542995452880859e+01 -2.606555938720703125e+00 3.278965234756469727e+00 7.816096305847167969e+00 3.328518390655517578e+00 -1.019341945648193359e+00
3.525000000000000000e+03 1.425413608551025391e+01 5.798437595367431641e-01 4.748182296752929688e+00 5.694957256317138672e+00 3.132941722869873047e+00 2.098300904035568237e-01
3.526000000000000000e+03 7.054959297180175781e+00 7.730960845947265625e+00 -9.546847641468048096e-02 3.768963813781738281e+00 1.102048635482788086e+00 -9.793630838394165039e-01
3.527000000000000000e+03 6.644604206085205078e+00 -7.146347522735595703e+00 1.787556558847427368e-01 3.575319766998291016e+00 1.126222610473632812e+00 2.800845146179199219e+00
3.528000000000000000e+03 8.346878051757812500e+00 -4.322733879089355469e+00 1.428815364837646484e+00 4.542705059051513672e+00 1.791456222534179688e+00 3.430892229080200195e+00
3.529000000000000000e+03 6.395110607147216797e+00 -7.428992271423339844e+00 5.330602452158927917e-02 3.554642915725708008e+00 1.082384705543518066e+00 2.710574150085449219e+00
3.530000000000000000e+03 5.888018608093261719e+00 -5.347884654998779297e+00 9.433393478393554688e-01 2.549959421157836914e+00 1.047989606857299805e+00 2.539648294448852539e+00
3.531000000000000000e+03 1.346442031860351562e+01 -2.287923336029052734e+00 4.096353530883789062e+00 6.392968177795410156e+00 3.146796703338623047e+00 -1.376291632652282715e+00
3.532000000000000000e+03 1.036427021026611328e+01 -4.591724395751953125e+00 8.113358616828918457e-01 6.707324981689453125e+00 2.255598306655883789e+00 2.259272098541259766e+00
3.533000000000000000e+03 1.467564773559570312e+01 -6.717316508293151855e-01 4.836437702178955078e+00 4.897452831268310547e+00 2.920167207717895508e+00 -8.365295529365539551e-01
3.534000000000000000e+03 1.442206192016601562e+01 -1.043389201164245605e+00 4.861860275268554688e+00 5.087647438049316406e+00 2.984852313995361328e+00 -1.032896399497985840e+00
3.535000000000000000e+03 6.537961006164550781e+00 5.705783367156982422e+00 4.185274243354797363e-01 2.798466444015502930e+00 9.650981426239013672e-01 -1.186250686645507812e+00
3.536000000000000000e+03 5.808630466461181641e+00 5.059712409973144531e+00 6.041503548622131348e-01 1.903973102569580078e+00 7.524370551109313965e-01 -9.189657568931579590e-01
3.537000000000000000e+03 6.414529800415039062e+00 -4.739851951599121094e+00 1.287384748458862305e+00 2.608249425888061523e+00 1.168690204620361328e+00 2.729691028594970703e+00
3.538000000000000000e+03 8.672591209411621094e+00 -8.249427795410156250e+00 -3.541038334369659424e-01 4.322725296020507812e+00 1.190586328506469727e+00 2.893697500228881836e+00
3.539000000000000000e+03 1.181337833404541016e+01 -4.114901065826416016e+00 1.362876176834106445e+00 7.325335502624511719e+00 2.606463432312011719e+00 5.142663717269897461e-01
3.540000000000000000e+03 7.599596977233886719e+00 4.404397487640380859e+00 6.778175234794616699e-01 3.502681493759155273e+00 1.254149675369262695e+00 -1.792489290237426758e+00
3.541000000000000000e+03 1.268126678466796875e+01 -3.017092943191528320e+00 2.792286634445190430e+00 7.355438232421875000e+00 3.044317483901977539e+00 -8.468893170356750488e-01
3.542000000000000000e+03 1.569109535217285156e+01 -2.146380424499511719e+00 3.967711687088012695e+00 3.817058563232421875e+00 2.335431098937988281e+00 -1.424211025238037109e+00
3.543000000000000000e+03 1.427015590667724609e+01 1.503697991371154785e+00 3.679819107055664062e+00 6.114669322967529297e+00 2.938346624374389648e+00 6.225044131278991699e-01
3.544000000000000000e+03 5.608024597167968750e+00 -3.872202873229980469e+00 1.427365422248840332e+00 1.617391824722290039e+00 9.134271740913391113e-01 2.066019296646118164e+00
3.545000000000000000e+03 1.077650737762451172e+01 5.865932464599609375e+00 -7.017251253128051758e-01 7.321909427642822266e+00 1.986055254936218262e+00 -9.953767657279968262e-01
3.546000000000000000e+03 1.474930095672607422e+01 -1.918074041604995728e-01 4.796929359436035156e+00 4.884075164794921875e+00 2.904301404953002930e+00 -5.320248007774353027e-01
3.547000000000000000e+03 1.419255161285400391e+01 2.917290627956390381e-01 4.891921520233154297e+00 5.645491600036621094e+00 3.161223888397216797e+00 -1.327407825738191605e-02
3.548000000000000000e+03 1.169679164886474609e+01 5.180322647094726562e+00 -5.793766975402832031e-01 7.997940540313720703e+00 2.225569248199462891e+00 -5.016088485717773438e-01
3.549000000000000000e+03 9.340202331542968750e+00 7.808032512664794922e+00 -5.651333332061767578e-01 5.717232704162597656e+00 1.545629739761352539e+00 -9.726279973983764648e-01
3.550000000000000000e+03 1.218298435211181641e+01 5.402320384979248047e+00 -5.760431289672851562e-01 7.903266429901123047e+00 2.198167085647583008e+00 -2.949642241001129150e-01
3.551000000000000000e+03 1.112604427337646484e+01 6.131230831146240234e+00 -7.708975672721862793e-01 7.353707790374755859e+00 1.974843025207519531e+00 -7.879152894020080566e-01
3.552000000000000000e+03 1.166812515258789062e+01 -8.303464889526367188e+00 -1.026927977800369263e-01 4.145311832427978516e+00 1.212785720825195312e+00 1.789384007453918457e+00
3.553000000000000000e+03 9.976673126220703125e+00 6.728147029876708984e+00 -6.359983086585998535e-01 6.399472713470458984e+00 1.729042291641235352e+00 -1.104623913764953613e+00
3.554000000000000000e+03 1.529379844665527344e+01 -1.692780405282974243e-01 4.491989612579345703e+00 4.459539413452148438e+00 2.685458660125732422e+00 -6.426057815551757812e-01
3.555000000000000000e+03 1.243669986724853516e+01 -3.909255027770996094e+00 1.842022538185119629e+00 7.022091865539550781e+00 2.659234285354614258e+00 -1.647820770740509033e-01
3.556000000000000000e+03 1.147631263732910156e+01 -4.650734901428222656e+00 9.430927038192749023e-01 6.839487075805664062e+00 2.334774017333984375e+00 1.099261283874511719e+00
3.557000000000000000e+03 8.389806747436523438e+00 -8.761945724487304688e+00 -5.361176133155822754e-01 4.263636589050292969e+00 1.118255734443664551e+00 2.900542497634887695e+00
3.558000000000000000e+03 8.911428451538085938e+00 8.349441528320312500e+00 -4.861419200897216797e-01 5.324450969696044922e+00 1.451492667198181152e+00 -9.100489020347595215e-01
3.559000000000000000e+03 8.077042579650878906e+00 6.860586643218994141e+00 -1.675184965133666992e-01 4.600255966186523438e+00 1.329821228981018066e+00 -1.284245967864990234e+00
3.560000000000000000e+03 1.375771427154541016e+01 -8.300842285156250000e+00 3.675697445869445801e-01 3.306794404983520508e+00 1.102309226989746094e+00 6.283031702041625977e-01
3.561000000000000000e+03 1.585361194610595703e+01 -8.357504844665527344e+00 8.277529478073120117e-01 2.328009366989135742e+00 9.467287063598632812e-01 -3.241634070873260498e-01
3.562000000000000000e+03 1.473194599151611328e+01 -8.411373138427734375e+00 5.565025210380554199e-01 2.813187122344970703e+00 1.010906815528869629e+00 1.650526970624923706e-01
3.563000000000000000e+03 1.516532325744628906e+01 -1.930776238441467285e+00 4.189492702484130859e+00 4.343444347381591797e+00 2.559881210327148438e+00 -1.372919797897338867e+00
3.564000000000000000e+03 1.310985660552978516e+01 4.522453308105468750e+00 6.570965796709060669e-02 7.905540943145751953e+00 2.391375064849853516e+00 3.143742084503173828e-01
3.565000000000000000e+03 1.240305328369140625e+01 4.894863605499267578e+00 -3.585817813873291016e-01 8.126288414001464844e+00 2.330311775207519531e+00 -8.689410984516143799e-02
3.566000000000000000e+03 1.595329856872558594e+01 -3.822438955307006836e+00 3.079925298690795898e+00 3.499644994735717773e+00 1.973871111869812012e+00 -1.437049150466918945e+00
3.567000000000000000e+03 1.484247589111328125e+01 -5.998363494873046875e+00 1.569532632827758789e+00 3.797249555587768555e+00 1.610034584999084473e+00 -5.836111307144165039e-01
3.568000000000000000e+03 1.506633663177490234e+01 -3.637243032455444336e+00 3.064748048782348633e+00 4.265841484069824219e+00 2.199176788330078125e+00 -1.353487968444824219e+00
3.569000000000000000e+03 1.765970420837402344e+01 -5.976063251495361328e+00 2.252859592437744141e+00 2.176621675491333008e+00 1.328844308853149414e+00 -1.273089408874511719e+00
3.570000000000000000e+03 1.599168968200683594e+01 -5.144235134124755859e+00 2.372458457946777344e+00 3.300650835037231445e+00 1.701932787895202637e+00 -1.208620071411132812e+00
3.571000000000000000e+03 6.367239761352539062e+01 1.543716526031494141e+01 8.162513375282287598e-01 3.908727407455444336e+00 1.417493581771850586e+00 -6.152739524841308594e-01
3.572000000000000000e+03 6.149203491210937500e+01 1.573049545288085938e+01 1.034454584121704102e+00 3.438145399093627930e+00 1.341779947280883789e+00 -3.706638216972351074e-01
3.573000000000000000e+03 1.822122192382812500e+01 -6.207312107086181641e+00 2.240592002868652344e+00 1.808836460113525391e+00 1.214828610420227051e+00 -1.312883138656616211e+00
3.574000000000000000e+03 5.439586639404296875e+01 1.425778770446777344e+01 1.627116799354553223e+00 2.485135078430175781e+00 1.233675599098205566e+00 6.018762588500976562e-01
3.575000000000000000e+03 5.616850280761718750e+01 1.228712749481201172e+01 1.389436721801757812e+00 2.139652490615844727e+00 1.058726787567138672e+00 7.227212190628051758e-02
3.576000000000000000e+03 6.269704818725585938e+01 1.661985969543457031e+01 9.290383458137512207e-01 3.757099628448486328e+00 1.405841350555419922e+00 -4.301939904689788818e-01
3.577000000000000000e+03 6.499348449707031250e+01 2.015102386474609375e+01 7.199652791023254395e-01 4.448520660400390625e+00 1.550545811653137207e+00 -2.971863150596618652e-01
3.578000000000000000e+03 5.952537155151367188e+01 1.240009307861328125e+01 1.049250960350036621e+00 2.648995399475097656e+00 1.109473943710327148e+00 -4.961538314819335938e-01
3.579000000000000000e+03 6.143037414550781250e+01 1.309707736968994141e+01 9.192039370536804199e-01 3.153876543045043945e+00 1.221924185752868652e+00 -6.530033946037292480e-01
3.580000000000000000e+03 5.640866851806640625e+01 1.610422134399414062e+01 1.459795117378234863e+00 2.848919630050659180e+00 1.292614340782165527e+00 3.536934256553649902e-01
3.581000000000000000e+03 5.349034118652343750e+01 1.529186153411865234e+01 1.646281123161315918e+00 2.762631177902221680e+00 1.322673678398132324e+00 8.400837182998657227e-01
3.582000000000000000e+03 5.740394210815429688e+01 1.925086402893066406e+01 1.247225522994995117e+00 3.382730960845947266e+00 1.388986945152282715e+00 3.822104036808013916e-01
3.583000000000000000e+03 5.532641983032226562e+01 1.923051643371582031e+01 1.326268553733825684e+00 3.342379093170166016e+00 1.400594353675842285e+00 6.718490719795227051e-01
3.584000000000000000e+03 6.254153060913085938e+01 1.422717857360839844e+01 8.748370409011840820e-01 3.509443759918212891e+00 1.315284252166748047e+00 -6.346544623374938965e-01
3.585000000000000000e+03 6.281161117553710938e+01 1.915825271606445312e+01 8.989031910896301270e-01 4.001409053802490234e+00 1.470093607902526855e+00 -2.491612732410430908e-01
3.586000000000000000e+03 6.600083923339843750e+01 1.072360897064208984e+01 2.714247107505798340e-01 4.331143379211425781e+00 1.380770325660705566e+00 -1.117691636085510254e+00
3.587000000000000000e+03 6.620925140380859375e+01 1.210744762420654297e+01 3.814056813716888428e-01 4.408516407012939453e+00 1.436976552009582520e+00 -1.032326698303222656e+00
3.588000000000000000e+03 5.626383972167968750e+01 1.416397285461425781e+01 1.482416629791259766e+00 2.483347654342651367e+00 1.189729332923889160e+00 2.318493127822875977e-01
3.589000000000000000e+03 5.787333679199218750e+01 1.138242340087890625e+01 1.111980915069580078e+00 2.196172237396240234e+00 9.924459457397460938e-01 -3.341796100139617920e-01
3.590000000000000000e+03 1.278140735626220703e+01 4.098872756958007812e+01 -1.160343289375305176e+00 3.706405878067016602e+00 7.638187408447265625e-01 -8.460224419832229614e-02
3.591000000000000000e+03 1.050986385345458984e+01 -7.259102821350097656e+00 -4.213557392358779907e-02 4.879956245422363281e+00 1.451346158981323242e+00 2.250560998916625977e+00
3.592000000000000000e+03 9.803891181945800781e+00 -4.785926818847656250e+00 7.672057747840881348e-01 6.152007102966308594e+00 2.075763940811157227e+00 2.712787628173828125e+00
3.593000000000000000e+03 6.504353523254394531e+00 -5.769784927368164062e+00 7.632080316543579102e-01 3.115232229232788086e+00 1.163532137870788574e+00 2.812301635742187500e+00
3.594000000000000000e+03 7.426926136016845703e+00 -6.035348892211914062e+00 6.005390882492065430e-01 3.807233810424804688e+00 1.322331905364990234e+00 3.045559883117675781e+00
3.595000000000000000e+03 8.479752540588378906e+00 4.326256275177001953e+00 4.507943093776702881e-01 4.840856075286865234e+00 1.587495088577270508e+00 -2.118744611740112305e+00
3.596000000000000000e+03 8.209423065185546875e+00 4.318874835968017578e+00 5.533303022384643555e-01 4.393060684204101562e+00 1.483917355537414551e+00 -2.067896127700805664e+00
3.597000000000000000e+03 7.251482009887695312e+00 -4.268029689788818359e+00 1.591786742210388184e+00 3.156930685043334961e+00 1.424615144729614258e+00 3.132885456085205078e+00
3.598000000000000000e+03 7.946914196014404297e+00 -5.272969722747802734e+00 9.252228736877441406e-01 4.151959419250488281e+00 1.523154616355895996e+00 3.201067447662353516e+00
3.599000000000000000e+03 7.802506446838378906e+00 -4.223728179931640625e+00 1.612899422645568848e+00 3.790129423141479492e+00 1.620908737182617188e+00 3.340782880783081055e+00
3.600000000000000000e+03 6.418841361999511719e+00 4.634799957275390625e+00 7.087603807449340820e-01 2.226997613906860352e+00 8.807274103164672852e-01 -1.188614845275878906e+00
3.601000000000000000e+03 1.074125003814697266e+01 -4.334212779998779297e+00 9.187328219413757324e-01 7.198122024536132812e+00 2.435056447982788086e+00 1.852302193641662598e+00
3.602000000000000000e+03 7.302316665649414062e+00 4.413544654846191406e+00 7.416886091232299805e-01 3.101892709732055664e+00 1.153074383735656738e+00 -1.678795576095581055e+00
3.603000000000000000e+03 1.395045471191406250e+01 4.619004130363464355e-01 5.058123111724853516e+00 5.985793590545654297e+00 3.313174962997436523e+00 2.408636212348937988e-01
3.604000000000000000e+03 7.697150230407714844e+00 4.772799968719482422e+00 5.012200474739074707e-01 3.799839019775390625e+00 1.290317773818969727e+00 -1.746529817581176758e+00
3.605000000000000000e+03 1.417417240142822266e+01 -1.359128713607788086e+00 4.808098793029785156e+00 5.393389701843261719e+00 3.060446500778198242e+00 -1.174421906471252441e+00
3.606000000000000000e+03 9.670476913452148438e+00 4.911361694335937500e+00 -2.680070400238037109e-01 6.711106777191162109e+00 1.932929992675781250e+00 -1.714051604270935059e+00
3.607000000000000000e+03 8.844590187072753906e+00 7.486176013946533203e+00 -4.245763123035430908e-01 5.317008972167968750e+00 1.467729687690734863e+00 -1.104019641876220703e+00
3.608000000000000000e+03 6.113854885101318359e+00 4.809709548950195312e+00 6.509078741073608398e-01 2.052319765090942383e+00 8.109682798385620117e-01 -1.027389049530029297e+00
3.609000000000000000e+03 7.117764949798583984e+00 6.169928073883056641e+00 1.701377034187316895e-01 3.577234029769897461e+00 1.124211549758911133e+00 -1.272439479827880859e+00
3.610000000000000000e+03 6.074411392211914062e+00 -4.488297939300537109e+00 1.355047225952148438e+00 2.267334938049316406e+00 1.086714744567871094e+00 2.530250787734985352e+00
3.611000000000000000e+03 1.124068069458007812e+01 -7.429598331451416016e+00 1.111246831715106964e-02 4.699112415313720703e+00 1.413067460060119629e+00 1.860804677009582520e+00
3.612000000000000000e+03 1.097111892700195312e+01 -4.572309494018554688e+00 8.555453419685363770e-01 7.066152095794677734e+00 2.376509189605712891e+00 1.651891708374023438e+00
3.613000000000000000e+03 1.454966259002685547e+01 1.447241008281707764e-01 4.765637397766113281e+00 5.145477294921875000e+00 2.973334550857543945e+00 -2.780331373214721680e-01
3.614000000000000000e+03 6.976729869842529297e+00 -6.983806133270263672e+00 1.781995147466659546e-01 3.717182159423828125e+00 1.168614506721496582e+00 2.881828308105468750e+00
3.615000000000000000e+03 1.369168567657470703e+01 -2.012640953063964844e+00 4.352750778198242188e+00 6.053965568542480469e+00 3.122014999389648438e+00 -1.354540586471557617e+00
3.616000000000000000e+03 1.341217613220214844e+01 -2.830069065093994141e+00 3.349291324615478516e+00 6.380890369415283203e+00 2.919054508209228516e+00 -1.229905128479003906e+00
3.617000000000000000e+03 1.377884769439697266e+01 -2.658930778503417969e+00 3.659633874893188477e+00 5.849764347076416016e+00 2.852819442749023438e+00 -1.347384929656982422e+00
3.618000000000000000e+03 8.829083442687988281e+00 -7.737578392028808594e+00 -1.940845549106597900e-01 4.444118976593017578e+00 1.275010347366333008e+00 2.876293420791625977e+00
3.619000000000000000e+03 1.100711727142333984e+01 5.418948173522949219e+00 -6.448215842247009277e-01 7.636345386505126953e+00 2.097457170486450195e+00 -9.015958309173583984e-01
3.620000000000000000e+03 1.123935508728027344e+01 4.958836555480957031e+00 -5.481815934181213379e-01 8.016943931579589844e+00 2.240628719329833984e+00 -7.649381756782531738e-01
3.621000000000000000e+03 1.499771499633789062e+01 -2.734416961669921875e+00 3.653288364410400391e+00 4.433545589447021484e+00 2.426050186157226562e+00 -1.423864960670471191e+00
3.622000000000000000e+03 1.078803920745849609e+01 -7.777157306671142578e+00 -1.125058904290199280e-01 4.574155807495117188e+00 1.338494896888732910e+00 2.169755458831787109e+00
3.623000000000000000e+03 7.765715599060058594e+00 -7.959748268127441406e+00 -2.404424399137496948e-01 4.154882431030273438e+00 1.174331903457641602e+00 2.919681310653686523e+00
3.624000000000000000e+03 9.144102096557617188e+00 -8.435136795043945312e+00 -4.021493494510650635e-01 4.366374492645263672e+00 1.189267516136169434e+00 2.808598279953002930e+00
3.625000000000000000e+03 1.117391204833984375e+01 -4.326454162597656250e+00 9.878586530685424805e-01 7.256459712982177734e+00 2.473295450210571289e+00 1.367585778236389160e+00
3.626000000000000000e+03 1.162699127197265625e+01 -4.314984321594238281e+00 1.171928524971008301e+00 7.170268058776855469e+00 2.502659082412719727e+00 8.013731241226196289e-01
3.627000000000000000e+03 9.719789505004882812e+00 6.063010215759277344e+00 -5.040360093116760254e-01 6.354943752288818359e+00 1.755272269248962402e+00 -1.322247862815856934e+00
3.628000000000000000e+03 8.868198394775390625e+00 4.650061130523681641e+00 1.369120329618453979e-01 5.558178901672363281e+00 1.708527326583862305e+00 -2.013943910598754883e+00
3.629000000000000000e+03 7.170942306518554688e+00 6.485016345977783203e+00 1.145082712173461914e-01 3.667934656143188477e+00 1.134732842445373535e+00 -1.250851869583129883e+00
3.630000000000000000e+03 1.470590305328369141e+01 5.639930963516235352e-01 4.460838794708251953e+00 5.182985782623291016e+00 2.893147468566894531e+00 -4.502544552087783813e-02
3.631000000000000000e+03 1.359642601013183594e+01 -3.262476682662963867e+00 2.980659961700439453e+00 6.006779193878173828e+00 2.696231842041015625e+00 -1.137413024902343750e+00
3.632000000000000000e+03 1.304285049438476562e+01 -2.943832159042358398e+00 3.087863922119140625e+00 6.856078147888183594e+00 2.983182668685913086e+00 -1.056611657142639160e+00
3.633000000000000000e+03 9.222919464111328125e+00 4.516127109527587891e+00 3.138579055666923523e-02 6.123929023742675781e+00 1.846594452857971191e+00 -2.027090549468994141e+00
3.634000000000000000e+03 1.463815593719482422e+01 -1.416951417922973633e+00 4.600069046020507812e+00 4.892659664154052734e+00 2.847818613052368164e+00 -1.203004598617553711e+00
3.635000000000000000e+03 1.414023303985595703e+01 -3.645075559616088867e+00 2.818015336990356445e+00 5.218266963958740234e+00 2.410884857177734375e+00 -1.152910828590393066e+00
3.636000000000000000e+03 7.571561813354492188e+00 7.613938331604003906e+00 -1.765234172344207764e-01 4.216094017028808594e+00 1.211871266365051270e+00 -1.097279191017150879e+00
3.637000000000000000e+03 9.207864761352539062e+00 7.014951229095458984e+00 -4.803543984889984131e-01 5.704879760742187500e+00 1.567357659339904785e+00 -1.177659749984741211e+00
3.638000000000000000e+03 1.292006301879882812e+01 -8.046857833862304688e+00 2.401954531669616699e-01 3.805552721023559570e+00 1.213724493980407715e+00 1.019933700561523438e+00
3.639000000000000000e+03 1.067584609985351562e+01 6.322292327880859375e+00 -7.361335754394531250e-01 7.046840667724609375e+00 1.893212080001831055e+00 -9.569154977798461914e-01
3.640000000000000000e+03 9.489479064941406250e+00 6.540974140167236328e+00 -5.025888681411743164e-01 6.020416736602783203e+00 1.655348420143127441e+00 -1.254769802093505859e+00
3.641000000000000000e+03 8.312518119812011719e+00 -8.030847549438476562e+00 -2.938076555728912354e-01 4.288994312286376953e+00 1.198555946350097656e+00 2.922148466110229492e+00
3.642000000000000000e+03 1.144542789459228516e+01 5.662091255187988281e+00 -6.966574192047119141e-01 7.692161083221435547e+00 2.098651170730590820e+00 -6.500735282897949219e-01
3.643000000000000000e+03 1.538775157928466797e+01 -2.581721067428588867e+00 3.756150722503662109e+00 4.072050571441650391e+00 2.348460435867309570e+00 -1.458019614219665527e+00
3.644000000000000000e+03 1.530454444885253906e+01 -7.860406398773193359e+00 9.123699069023132324e-01 2.776308298110961914e+00 1.106603384017944336e+00 -2.699353396892547607e-01
3.645000000000000000e+03 8.011364936828613281e+00 -8.354602813720703125e+00 -3.759865760803222656e-01 4.237742424011230469e+00 1.158526659011840820e+00 2.924003362655639648e+00
3.646000000000000000e+03 1.170326042175292969e+01 -7.725578784942626953e+00 5.423173774033784866e-03 4.450997352600097656e+00 1.336926102638244629e+00 1.679215192794799805e+00
3.647000000000000000e+03 1.644791603088378906e+01 -5.550697803497314453e+00 2.276887893676757812e+00 2.855425119400024414e+00 1.539693951606750488e+00 -1.179186224937438965e+00
3.648000000000000000e+03 1.189684391021728516e+01 -4.428112506866455078e+00 1.215809702873229980e+00 6.949720859527587891e+00 2.449659109115600586e+00 5.586973428726196289e-01
3.649000000000000000e+03 1.545573425292968750e+01 -3.410680532455444336e+00 3.272092103958129883e+00 3.948040485382080078e+00 2.166039705276489258e+00 -1.425575256347656250e+00
3.650000000000000000e+03 1.431532478332519531e+01 -7.904388427734375000e+00 6.311592459678649902e-01 3.244810104370117188e+00 1.162790775299072266e+00 2.060607969760894775e-01
3.651000000000000000e+03 1.624074745178222656e+01 -4.669628143310546875e+00 2.651573896408081055e+00 3.130415439605712891e+00 1.734596848487854004e+00 -1.321393251419067383e+00
3.652000000000000000e+03 1.700844383239746094e+01 -5.864400863647460938e+00 2.260528564453125000e+00 2.481198549270629883e+00 1.422518134117126465e+00 -1.243760585784912109e+00
3.653000000000000000e+03 6.324328231811523438e+01 1.165451049804687500e+01 6.097733378410339355e-01 3.484648466110229492e+00 1.228326559066772461e+00 -9.413623213768005371e-01
3.654000000000000000e+03 5.944460678100585938e+01 1.656063079833984375e+01 1.206969380378723145e+00 3.222917079925537109e+00 1.328965902328491211e+00 -7.574132084846496582e-02
3.655000000000000000e+03 6.073960113525390625e+01 1.195167541503906250e+01 8.945884108543395996e-01 2.811994791030883789e+00 1.111974954605102539e+00 -6.723300814628601074e-01
3.656000000000000000e+03 6.192259597778320312e+01 1.181625747680664062e+01 7.498351335525512695e-01 3.168872594833374023e+00 1.175612330436706543e+00 -8.123579025268554688e-01
3.657000000000000000e+03 5.727563095092773438e+01 1.499229621887207031e+01 1.393516778945922852e+00 2.733456134796142578e+00 1.238091945648193359e+00 1.193611621856689453e-01
3.658000000000000000e+03 5.714736175537109375e+01 2.448164558410644531e+01 8.179337382316589355e-01 3.944610357284545898e+00 1.428763270378112793e+00 5.613167881965637207e-01
3.659000000000000000e+03 5.488349914550781250e+01 2.184684753417968750e+01 1.110016822814941406e+00 3.651308059692382812e+00 1.428397536277770996e+00 7.623735070228576660e-01
3.660000000000000000e+03 6.740364837646484375e+01 2.236054611206054688e+01 4.893369674682617188e-01 5.005758285522460938e+00 1.648528575897216797e+00 -2.732638418674468994e-01
3.661000000000000000e+03 6.412655639648437500e+01 2.366353607177734375e+01 6.291920542716979980e-01 4.544460773468017578e+00 1.552095890045166016e+00 -4.019649326801300049e-02
3.662000000000000000e+03 5.806061172485351562e+01 1.386764335632324219e+01 1.299630880355834961e+00 2.648198366165161133e+00 1.184348821640014648e+00 -1.155428662896156311e-01
3.663000000000000000e+03 5.910850143432617188e+01 1.453462791442871094e+01 1.225845336914062500e+00 2.866811752319335938e+00 1.227797150611877441e+00 -1.928502023220062256e-01
3.664000000000000000e+03 6.714981842041015625e+01 3.067178726196289062e+01 2.048352062702178955e-01 5.256516456604003906e+00 1.638405561447143555e+00 3.595321625471115112e-02
3.665000000000000000e+03 5.304878234863281250e+01 2.501470565795898438e+01 7.362043857574462891e-01 3.980561256408691406e+00 1.415029644966125488e+00 8.678535819053649902e-01
3.666000000000000000e+03 3.698115158081054688e+01 -4.102143478393554688e+01 -1.823531031608581543e+00 4.666217327117919922e+00 8.528059124946594238e-01 2.880509011447429657e-02
3.667000000000000000e+03 2.213381195068359375e+01 -3.414173507690429688e+01 -1.255896210670471191e+00 -7.910663634538650513e-02 -4.005008339881896973e-01 2.025927603244781494e-01
3.668000000000000000e+03 4.970470809936523438e+01 -3.272521209716796875e+01 -2.418585568666458130e-01 1.619375824928283691e+00 4.132551848888397217e-01 -7.748069763183593750e-01
3.669000000000000000e+03 9.272947311401367188e+00 -4.746653556823730469e+00 8.997595310211181641e-01 5.679142951965332031e+00 1.973670721054077148e+00 3.080086708068847656e+00
3.670000000000000000e+03 6.403885841369628906e+00 -5.243069648742675781e+00 1.028136014938354492e+00 2.818195343017578125e+00 1.153899431228637695e+00 2.759706497192382812e+00
3.671000000000000000e+03 7.488197326660156250e+00 -4.572816848754882812e+00 1.406155824661254883e+00 3.534410238265991211e+00 1.482169866561889648e+00 3.207856416702270508e+00
3.672000000000000000e+03 9.525036811828613281e+00 -5.091599464416503906e+00 6.914179325103759766e-01 5.739274024963378906e+00 1.929207563400268555e+00 2.871792793273925781e+00
3.673000000000000000e+03 8.224495887756347656e+00 -5.042777061462402344e+00 9.885904192924499512e-01 4.408039093017578125e+00 1.618988871574401855e+00 3.246840000152587891e+00
3.674000000000000000e+03 7.955747127532958984e+00 4.661512851715087891e+00 4.928121864795684814e-01 4.123109340667724609e+00 1.384776353836059570e+00 -1.898568153381347656e+00
3.675000000000000000e+03 7.143959045410156250e+00 -4.733177661895751953e+00 1.309600949287414551e+00 3.214176654815673828e+00 1.357133269309997559e+00 3.058879852294921875e+00
3.676000000000000000e+03 8.095415115356445312e+00 -4.277737617492675781e+00 1.510364890098571777e+00 4.187935352325439453e+00 1.709490060806274414e+00 3.410199880599975586e+00
3.677000000000000000e+03 8.095107078552246094e+00 -4.665770053863525391e+00 1.258603096008300781e+00 4.246613025665283203e+00 1.651564836502075195e+00 3.326516628265380859e+00
3.678000000000000000e+03 7.612081527709960938e+00 6.642369270324707031e+00 -2.979080751538276672e-02 4.150944232940673828e+00 1.236346125602722168e+00 -1.280264973640441895e+00
3.679000000000000000e+03 1.281825828552246094e+01 -3.905278921127319336e+00 2.039700269699096680e+00 6.591138362884521484e+00 2.589251518249511719e+00 -4.672394990921020508e-01
3.680000000000000000e+03 1.209021949768066406e+01 -3.987672328948974609e+00 1.556099891662597656e+00 7.258575439453125000e+00 2.644402503967285156e+00 1.758323758840560913e-01
3.681000000000000000e+03 6.608189105987548828e+00 4.930030345916748047e+00 6.377236247062683105e-01 2.542936086654663086e+00 9.541978836059570312e-01 -1.287577986717224121e+00
3.682000000000000000e+03 9.260281562805175781e+00 -7.908068656921386719e+00 -2.556659281253814697e-01 4.497987747192382812e+00 1.272696495056152344e+00 2.789366722106933594e+00
3.683000000000000000e+03 1.522756195068359375e+01 -1.405070662498474121e+00 4.363294124603271484e+00 4.312219619750976562e+00 2.602654218673706055e+00 -1.218704223632812500e+00
3.684000000000000000e+03 1.073233890533447266e+01 -5.553190708160400391e+00 4.780723452568054199e-01 6.023237228393554688e+00 1.950392842292785645e+00 1.987342000007629395e+00
3.685000000000000000e+03 9.143385887145996094e+00 5.342012882232666016e+00 -1.714341640472412109e-01 5.883577346801757812e+00 1.713642954826354980e+00 -1.706509470939636230e+00
3.686000000000000000e+03 6.752388477325439453e+00 -4.672754764556884766e+00 1.324766755104064941e+00 2.858125925064086914e+00 1.254867792129516602e+00 2.879954338073730469e+00
3.687000000000000000e+03 1.239617061614990234e+01 -3.474215984344482422e+00 2.154714822769165039e+00 7.400192260742187500e+00 2.866472005844116211e+00 -3.728470802307128906e-01
3.688000000000000000e+03 6.894058704376220703e+00 4.807912826538085938e+00 6.380687355995178223e-01 2.805572748184204102e+00 1.033092379570007324e+00 -1.409303545951843262e+00
3.689000000000000000e+03 9.732869148254394531e+00 -7.985039234161376953e+00 -2.491993755102157593e-01 4.519725799560546875e+00 1.281157970428466797e+00 2.631824016571044922e+00
3.690000000000000000e+03 1.314069843292236328e+01 -4.028901100158691406e+00 2.119703769683837891e+00 6.191205024719238281e+00 2.493272542953491211e+00 -6.029844880104064941e-01
3.691000000000000000e+03 1.319952392578125000e+01 -3.389872550964355469e+00 2.657938957214355469e+00 6.461438655853271484e+00 2.735813140869140625e+00 -9.198911190032958984e-01
3.692000000000000000e+03 6.939784049987792969e+00 -4.938069343566894531e+00 1.200362324714660645e+00 3.131464481353759766e+00 1.299548029899597168e+00 2.993928909301757812e+00
3.693000000000000000e+03 8.027334213256835938e+00 7.272551059722900391e+00 -2.155827134847640991e-01 4.578084945678710938e+00 1.308750629425048828e+00 -1.173871994018554688e+00
3.694000000000000000e+03 1.035005664825439453e+01 5.707890987396240234e+00 -6.115282177925109863e-01 7.081574916839599609e+00 1.941014051437377930e+00 -1.199160933494567871e+00
3.695000000000000000e+03 1.017164134979248047e+01 6.213857173919677734e+00 -6.224150657653808594e-01 6.679985046386718750e+00 1.817270994186401367e+00 -1.156818866729736328e+00
3.696000000000000000e+03 7.509818553924560547e+00 -6.358263015747070312e+00 4.395581185817718506e-01 3.908117532730102539e+00 1.304302692413330078e+00 3.020893573760986328e+00
3.697000000000000000e+03 1.401277542114257812e+01 -3.138475418090820312e+00 3.228850364685058594e+00 5.493706703186035156e+00 2.616767168045043945e+00 -1.298410534858703613e+00
3.698000000000000000e+03 1.196169471740722656e+01 -7.308976173400878906e+00 2.078140974044799805e-01 4.660114288330078125e+00 1.460378527641296387e+00 1.373597741127014160e+00
3.699000000000000000e+03 1.450811672210693359e+01 -2.629915475845336914e+00 3.713768243789672852e+00 4.966979026794433594e+00 2.604224205017089844e+00 -1.426570773124694824e+00
3.700000000000000000e+03 1.407043552398681641e+01 -2.368731021881103516e+00 3.963713169097900391e+00 5.525832176208496094e+00 2.846863746643066406e+00 -1.392408490180969238e+00
3.701000000000000000e+03 1.570052433013916016e+01 -4.340407371520996094e+00 2.758163213729858398e+00 3.642602205276489258e+00 1.920229554176330566e+00 -1.322463631629943848e+00
3.702000000000000000e+03 1.272448444366455078e+01 -7.519186973571777344e+00 3.085162937641143799e-01 4.225060462951660156e+00 1.360072970390319824e+00 9.737549424171447754e-01
3.703000000000000000e+03 1.500023555755615234e+01 -3.165267705917358398e+00 3.399077415466308594e+00 4.409554004669189453e+00 2.342589378356933594e+00 -1.423465490341186523e+00
3.704000000000000000e+03 7.964749336242675781e+00 -7.402662277221679688e+00 -6.804030388593673706e-02 4.204090595245361328e+00 1.240815043449401855e+00 2.965350627899169922e+00
3.705000000000000000e+03 8.435911178588867188e+00 -7.646453380584716797e+00 -1.563960015773773193e-01 4.333716869354248047e+00 1.253196239471435547e+00 2.930889844894409180e+00
3.706000000000000000e+03 1.506915283203125000e+01 -4.697403430938720703e+00 2.380195379257202148e+00 4.045820713043212891e+00 1.927804827690124512e+00 -1.076067328453063965e+00
3.707000000000000000e+03 1.346176338195800781e+01 -7.796844482421875000e+00 4.333094656467437744e-01 3.704507112503051758e+00 1.241344928741455078e+00 6.227421164512634277e-01
3.708000000000000000e+03 1.604025077819824219e+01 -6.523011207580566406e+00 1.691815257072448730e+00 2.865657091140747070e+00 1.367241740226745605e+00 -8.462375402450561523e-01
3.709000000000000000e+03 1.576061725616455078e+01 -7.224640846252441406e+00 1.291318535804748535e+00 2.819420099258422852e+00 1.233221650123596191e+00 -5.715333819389343262e-01
3.710000000000000000e+03 1.478244972229003906e+01 -7.418267726898193359e+00 9.534541964530944824e-01 3.270424127578735352e+00 1.267163515090942383e+00 -1.257190555334091187e-01
3.711000000000000000e+03 5.528051376342773438e+01 1.326300334930419922e+01 1.524966359138488770e+00 2.298995971679687500e+00 1.147188663482666016e+00 3.514205515384674072e-01
3.712000000000000000e+03 6.377593231201171875e+01 1.983568382263183594e+01 8.029738068580627441e-01 4.243527412414550781e+00 1.513950347900390625e+00 -2.433903664350509644e-01
3.713000000000000000e+03 6.060163879394531250e+01 1.733967971801757812e+01 1.105914354324340820e+00 3.470004081726074219e+00 1.372775435447692871e+00 -1.452623605728149414e-01
3.714000000000000000e+03 5.744123840332031250e+01 1.701268196105957031e+01 1.355799913406372070e+00 3.072267055511474609e+00 1.328420042991638184e+00 2.492588758468627930e-01
3.715000000000000000e+03 6.315352630615234375e+01 2.138356590270996094e+01 7.932888865470886230e-01 4.250663280487060547e+00 1.513185620307922363e+00 -1.169714331626892090e-01
3.716000000000000000e+03 5.849382019042968750e+01 1.793430709838867188e+01 1.249204397201538086e+00 3.286255359649658203e+00 1.360637903213500977e+00 1.641901284456253052e-01
3.717000000000000000e+03 5.726916503906250000e+01 2.174625587463378906e+01 1.062358856201171875e+00 3.682674407958984375e+00 1.423509955406188965e+00 5.039240717887878418e-01
3.718000000000000000e+03 7.401117324829101562e+00 4.957570552825927734e+00 4.983239471912384033e-01 3.470705747604370117e+00 1.190708875656127930e+00 -1.605279564857482910e+00
3.719000000000000000e+03 7.056053161621093750e+00 5.100760936737060547e+00 5.029731988906860352e-01 3.137117862701416016e+00 1.092027306556701660e+00 -1.433283329010009766e+00
3.720000000000000000e+03 7.380407810211181641e+00 -5.671688556671142578e+00 7.897505760192871094e-01 3.720446586608886719e+00 1.353059172630310059e+00 3.072657823562622070e+00
3.721000000000000000e+03 8.716502189636230469e+00 -5.229986190795898438e+00 8.015894293785095215e-01 4.906113147735595703e+00 1.712310791015625000e+00 3.181476831436157227e+00
3.722000000000000000e+03 6.579391956329345703e+00 -4.387564659118652344e+00 1.501306891441345215e+00 2.520854473114013672e+00 1.206648349761962891e+00 2.768701314926147461e+00
3.723000000000000000e+03 7.780291080474853516e+00 -4.650098323822021484e+00 1.288814544677734375e+00 3.894227266311645508e+00 1.554912567138671875e+00 3.269095182418823242e+00
3.724000000000000000e+03 7.961448669433593750e+00 4.944363117218017578e+00 3.504806458950042725e-01 4.185858249664306641e+00 1.360901713371276855e+00 -1.769714117050170898e+00
3.725000000000000000e+03 1.037439155578613281e+01 -5.012011051177978516e+00 6.345357298851013184e-01 6.343327522277832031e+00 2.093358993530273438e+00 2.291744947433471680e+00
3.726000000000000000e+03 7.109023571014404297e+00 5.709167003631591797e+00 3.259593248367309570e-01 3.362841606140136719e+00 1.106640338897705078e+00 -1.364250063896179199e+00
3.727000000000000000e+03 9.887261390686035156e+00 -6.938571929931640625e+00 2.776430547237396240e-02 4.966028690338134766e+00 1.498137831687927246e+00 2.530018806457519531e+00
3.728000000000000000e+03 1.005894565582275391e+01 -5.119481563568115234e+00 6.266145110130310059e-01 6.123250007629394531e+00 2.024959325790405273e+00 2.519071102142333984e+00
3.729000000000000000e+03 1.089011859893798828e+01 -6.990282535552978516e+00 9.415229409933090210e-02 5.028914451599121094e+00 1.536920070648193359e+00 2.043516874313354492e+00
3.730000000000000000e+03 1.120115280151367188e+01 -4.979336738586425781e+00 7.310907840728759766e-01 6.581639289855957031e+00 2.193819046020507812e+00 1.452123403549194336e+00
3.731000000000000000e+03 8.841208457946777344e+00 5.229412078857421875e+00 -2.841264195740222931e-02 5.489870548248291016e+00 1.638437390327453613e+00 -1.798292875289916992e+00
3.732000000000000000e+03 8.769493103027343750e+00 6.742483139038085938e+00 -3.389300704002380371e-01 5.320104598999023438e+00 1.494352340698242188e+00 -1.282540440559387207e+00
3.733000000000000000e+03 7.987057209014892578e+00 5.282381057739257812e+00 2.381760478019714355e-01 4.335060596466064453e+00 1.371971011161804199e+00 -1.699843645095825195e+00
3.734000000000000000e+03 8.573010444641113281e+00 4.795889377593994141e+00 2.163836956024169922e-01 4.989635944366455078e+00 1.561805844306945801e+00 -1.914593100547790527e+00
3.735000000000000000e+03 1.457432365417480469e+01 -3.630023241043090820e+00 2.920594215393066406e+00 4.769990921020507812e+00 2.307175636291503906e+00 -1.258237600326538086e+00
3.736000000000000000e+03 8.712646484375000000e+00 4.418703556060791016e+00 2.974510192871093750e-01 5.284256458282470703e+00 1.674512147903442383e+00 -2.107268571853637695e+00
3.737000000000000000e+03 1.427334499359130859e+01 -4.577465534210205078e+00 2.184998512268066406e+00 4.762110233306884766e+00 2.084132671356201172e+00 -8.481099009513854980e-01
3.738000000000000000e+03 1.250802993774414062e+01 -4.339048862457275391e+00 1.510644435882568359e+00 6.549478054046630859e+00 2.418036699295043945e+00 1.034295931458473206e-02
3.739000000000000000e+03 7.851135253906250000e+00 6.233284950256347656e+00 7.746483664959669113e-03 4.339438438415527344e+00 1.304155468940734863e+00 -1.414641141891479492e+00
3.740000000000000000e+03 1.463476562500000000e+01 -2.239709615707397461e+00 4.051621913909912109e+00 4.820746421813964844e+00 2.661710500717163086e+00 -1.410278677940368652e+00
3.741000000000000000e+03 1.448736286163330078e+01 -3.111764907836914062e+00 3.385807991027832031e+00 4.946561336517333984e+00 2.499710798263549805e+00 -1.359097719192504883e+00
3.742000000000000000e+03 1.464262104034423828e+01 -4.128194808959960938e+00 2.623287916183471680e+00 4.598755359649658203e+00 2.166613101959228516e+00 -1.140855550765991211e+00
3.743000000000000000e+03 8.333660125732421875e+00 6.466974735260009766e+00 -1.565247476100921631e-01 4.821393489837646484e+00 1.399460673332214355e+00 -1.383206963539123535e+00
3.744000000000000000e+03 9.049919128417968750e+00 6.327735424041748047e+00 -3.577401340007781982e-01 5.624512195587158203e+00 1.580031633377075195e+00 -1.372250795364379883e+00
3.745000000000000000e+03 8.633987426757812500e+00 6.081888198852539062e+00 -1.720611155033111572e-01 5.175061225891113281e+00 1.500900030136108398e+00 -1.495868921279907227e+00
3.746000000000000000e+03 1.078668022155761719e+01 -5.079733371734619141e+00 6.577555537223815918e-01 6.428901195526123047e+00 2.125997066497802734e+00 1.870604038238525391e+00
3.747000000000000000e+03 1.151774406433105469e+01 -5.476950168609619141e+00 6.579334139823913574e-01 6.104497909545898438e+00 2.028729438781738281e+00 1.289516329765319824e+00
3.748000000000000000e+03 9.235627174377441406e+00 -5.389332771301269531e+00 6.105368733406066895e-01 5.339269638061523438e+00 1.784941911697387695e+00 2.953378677368164062e+00
3.749000000000000000e+03 1.009975814819335938e+01 -7.426197052001953125e+00 -6.973856687545776367e-02 4.739761352539062500e+00 1.401006817817687988e+00 2.461254835128784180e+00
3.750000000000000000e+03 1.423023700714111328e+01 -4.121256828308105469e+00 2.475823163986206055e+00 4.987648487091064453e+00 2.239041328430175781e+00 -1.034956574440002441e+00
3.751000000000000000e+03 1.338926029205322266e+01 -3.824081420898437500e+00 2.370802640914916992e+00 6.044093132019042969e+00 2.524468898773193359e+00 -8.022808432579040527e-01
3.752000000000000000e+03 1.321299266815185547e+01 -7.331229209899902344e+00 5.478385686874389648e-01 4.093852519989013672e+00 1.392507433891296387e+00 6.434756517410278320e-01
3.753000000000000000e+03 1.538922309875488281e+01 -6.331568241119384766e+00 1.567245006561279297e+00 3.341080904006958008e+00 1.472497701644897461e+00 -6.717309355735778809e-01
3.754000000000000000e+03 1.430568408966064453e+01 -7.035717010498046875e+00 9.632741808891296387e-01 3.682207822799682617e+00 1.393644571304321289e+00 -4.097137227654457092e-02
3.755000000000000000e+03 1.513738059997558594e+01 -6.874651432037353516e+00 1.298872351646423340e+00 3.270484447479248047e+00 1.370807051658630371e+00 -4.622378647327423096e-01
3.756000000000000000e+03 1.554818344116210938e+01 -5.873327255249023438e+00 1.816366195678710938e+00 3.356946945190429688e+00 1.551993966102600098e+00 -8.359927535057067871e-01
3.757000000000000000e+03 1.499192905426025391e+01 -5.204407691955566406e+00 2.029666900634765625e+00 3.954056262969970703e+00 1.795116901397705078e+00 -8.911856412887573242e-01
3.758000000000000000e+03 5.959026718139648438e+01 1.886554145812988281e+01 1.133766770362854004e+00 3.527517080307006836e+00 1.398385167121887207e+00 8.433590084314346313e-02
3.759000000000000000e+03 5.847964477539062500e+01 2.035223770141601562e+01 1.123816132545471191e+00 3.586433649063110352e+00 1.413074970245361328e+00 3.152112066745758057e-01
3.760000000000000000e+03 6.098484039306640625e+01 2.251295852661132812e+01 8.570629954338073730e-01 4.063866138458251953e+00 1.476278662681579590e+00 1.402999311685562134e-01
3.761000000000000000e+03 6.398925018310546875e+01 2.576332473754882812e+01 5.083394050598144531e-01 4.681356906890869141e+00 1.556908965110778809e+00 6.532892584800720215e-02
3.762000000000000000e+03 6.180125045776367188e+01 1.819378852844238281e+01 9.989116191864013672e-01 3.740414619445800781e+00 1.421797871589660645e+00 -2.121175229549407959e-01
3.763000000000000000e+03 9.002388954162597656e+00 -5.010488510131835938e+00 8.472089171409606934e-01 5.275494575500488281e+00 1.836811065673828125e+00 3.142966508865356445e+00
3.764000000000000000e+03 7.441807270050048828e+00 -5.338066101074218750e+00 9.547455906867980957e-01 3.692525625228881836e+00 1.394181370735168457e+00 3.128817796707153320e+00
3.765000000000000000e+03 8.924930572509765625e+00 5.720592021942138672e+00 -1.997707486152648926e-01 5.565217494964599609e+00 1.609634041786193848e+00 -1.592453360557556152e+00
3.766000000000000000e+03 7.769090652465820312e+00 -6.157130241394042969e+00 5.214787125587463379e-01 4.065855979919433594e+00 1.376200437545776367e+00 3.076927900314331055e+00
3.767000000000000000e+03 1.059715938568115234e+01 -6.606907844543457031e+00 1.606362313032150269e-01 5.237911224365234375e+00 1.619564294815063477e+00 2.135892868041992188e+00
3.768000000000000000e+03 9.799984931945800781e+00 -5.428959369659423828e+00 5.302541255950927734e-01 5.731564044952392578e+00 1.878545403480529785e+00 2.655969619750976562e+00
3.769000000000000000e+03 7.175599098205566406e+00 5.420500755310058594e+00 4.009799361228942871e-01 3.342904806137084961e+00 1.123165488243103027e+00 -1.428060531616210938e+00
3.770000000000000000e+03 1.375012111663818359e+01 -3.712850570678710938e+00 2.621294021606445312e+00 5.672554969787597656e+00 2.488154649734497070e+00 -1.034854650497436523e+00
3.771000000000000000e+03 1.387049388885498047e+01 -4.155384063720703125e+00 2.308903455734252930e+00 5.349172115325927734e+00 2.297422647476196289e+00 -8.601502180099487305e-01
3.772000000000000000e+03 8.218254089355468750e+00 -6.881930828094482422e+00 1.342744827270507812e-01 4.344273090362548828e+00 1.343564271926879883e+00 2.998941421508789062e+00
3.773000000000000000e+03 8.378667831420898438e+00 5.208160877227783203e+00 1.585838198661804199e-01 4.789915561676025391e+00 1.484549760818481445e+00 -1.769661188125610352e+00
3.774000000000000000e+03 1.050151252746582031e+01 -5.977720260620117188e+00 3.417853116989135742e-01 5.609633922576904297e+00 1.785425782203674316e+00 2.159229040145874023e+00
3.775000000000000000e+03 7.707632064819335938e+00 -5.558876991271972656e+00 7.827941775321960449e-01 3.949755191802978516e+00 1.419764876365661621e+00 3.127367019653320312e+00
3.776000000000000000e+03 7.711343288421630859e+00 5.703330039978027344e+00 1.933773756027221680e-01 4.081851005554199219e+00 1.282568573951721191e+00 -1.513929963111877441e+00
3.777000000000000000e+03 1.220214557647705078e+01 -6.296019077301025391e+00 5.627729296684265137e-01 5.214147090911865234e+00 1.733075976371765137e+00 1.000186920166015625e+00
3.778000000000000000e+03 9.356499671936035156e+00 -7.469481945037841797e+00 -1.187853366136550903e-01 4.627218246459960938e+00 1.352529883384704590e+00 2.746571302413940430e+00
3.779000000000000000e+03 9.304028511047363281e+00 5.901381015777587891e+00 -3.536161184310913086e-01 5.951091766357421875e+00 1.679242730140686035e+00 -1.471071958541870117e+00
3.780000000000000000e+03 8.983685493469238281e+00 -7.252377986907958984e+00 -3.362300992012023926e-02 4.587197780609130859e+00 1.366072416305541992e+00 2.868292570114135742e+00
3.781000000000000000e+03 1.225808525085449219e+01 -4.808950901031494141e+00 1.181435585021972656e+00 6.306347370147705078e+00 2.246334791183471680e+00 3.833577632904052734e-01
3.782000000000000000e+03 1.219780826568603516e+01 -4.393311977386474609e+00 1.388207912445068359e+00 6.746403217315673828e+00 2.440383195877075195e+00 2.830051779747009277e-01
3.783000000000000000e+03 1.157460498809814453e+01 -6.996723175048828125e+00 2.094612270593643188e-01 4.957563877105712891e+00 1.550107479095458984e+00 1.557884216308593750e+00
3.784000000000000000e+03 1.261859226226806641e+01 -7.039626121520996094e+00 4.662267565727233887e-01 4.559030055999755859e+00 1.507576942443847656e+00 9.316817522048950195e-01
3.785000000000000000e+03 1.460076618194580078e+01 -5.137392044067382812e+00 1.957494020462036133e+00 4.258428096771240234e+00 1.864776611328125000e+00 -7.852480411529541016e-01
3.786000000000000000e+03 1.303331279754638672e+01 -6.881340980529785156e+00 6.028909087181091309e-01 4.470040798187255859e+00 1.521879553794860840e+00 5.973904132843017578e-01
3.787000000000000000e+03 1.026816749572753906e+01 -6.791949272155761719e+00 1.044822037220001221e-01 5.100456714630126953e+00 1.561481714248657227e+00 2.368949651718139648e+00
3.788000000000000000e+03 1.380572891235351562e+01 -5.434806823730468750e+00 1.539688229560852051e+00 4.791861057281494141e+00 1.899464845657348633e+00 -3.508624136447906494e-01
3.789000000000000000e+03 1.602514457702636719e+01 -5.907234191894531250e+00 1.959999322891235352e+00 3.016699075698852539e+00 1.493009567260742188e+00 -1.002498269081115723e+00
3.790000000000000000e+03 1.393569946289062500e+01 -7.462060451507568359e+00 6.980029344558715820e-01 3.677373647689819336e+00 1.312612891197204590e+00 3.110089600086212158e-01
3.791000000000000000e+03 1.536683845520019531e+01 -5.285295486450195312e+00 2.147928714752197266e+00 3.620834350585937500e+00 1.730628967285156250e+00 -9.964337944984436035e-01
3.792000000000000000e+03 6.072681427001953125e+01 1.980642318725585938e+01 1.022404909133911133e+00 3.762817621231079102e+00 1.435566782951354980e+00 2.504165843129158020e-02
3.793000000000000000e+03 6.189384460449218750e+01 2.069760513305664062e+01 9.137887954711914062e-01 3.988858222961425781e+00 1.470794081687927246e+00 -4.065697267651557922e-02
3.794000000000000000e+03 6.175691604614257812e+01 2.552252006530761719e+01 6.120740771293640137e-01 4.383166313171386719e+00 1.498571991920471191e+00 2.164290696382522583e-01
3.795000000000000000e+03 8.532501220703125000e+00 -5.748571395874023438e+00 5.757758617401123047e-01 4.658966541290283203e+00 1.570422768592834473e+00 3.097758531570434570e+00
3.796000000000000000e+03 8.433241844177246094e+00 -5.378715991973876953e+00 7.987813353538513184e-01 4.640940666198730469e+00 1.631916642189025879e+00 3.173977613449096680e+00
3.797000000000000000e+03 9.563281059265136719e+00 -6.498977661132812500e+00 1.877880543470382690e-01 5.052621364593505859e+00 1.572122931480407715e+00 2.696614265441894531e+00
3.798000000000000000e+03 8.003061294555664062e+00 5.899455547332763672e+00 3.698813170194625854e-02 4.468860626220703125e+00 1.351754546165466309e+00 -1.498217344284057617e+00
3.799000000000000000e+03 1.033297729492187500e+01 -5.381994724273681641e+00 5.163707733154296875e-01 6.034109592437744141e+00 1.965144038200378418e+00 2.283423423767089844e+00
3.800000000000000000e+03 1.012631130218505859e+01 -5.729874610900878906e+00 4.136943519115447998e-01 5.755089282989501953e+00 1.850635051727294922e+00 2.428244590759277344e+00
3.801000000000000000e+03 9.236147880554199219e+00 -6.842668056488037109e+00 7.450570911169052124e-02 4.799160480499267578e+00 1.462099790573120117e+00 2.790476560592651367e+00
3.802000000000000000e+03 8.062680244445800781e+00 -6.487339496612548828e+00 3.309848904609680176e-01 4.284269809722900391e+00 1.384576320648193359e+00 3.050711154937744141e+00
3.803000000000000000e+03 1.122401618957519531e+01 -6.628757476806640625e+00 2.296667546033859253e-01 5.221286296844482422e+00 1.635285854339599609e+00 1.742725372314453125e+00
3.804000000000000000e+03 1.222718429565429688e+01 -6.950440406799316406e+00 3.561017513275146484e-01 4.782708644866943359e+00 1.541643142700195312e+00 1.172837734222412109e+00
3.805000000000000000e+03 9.516024589538574219e+00 -5.765652656555175781e+00 4.503420889377593994e-01 5.383231639862060547e+00 1.750072121620178223e+00 2.795885324478149414e+00
3.806000000000000000e+03 8.902650833129882812e+00 -5.659081459045410156e+00 5.690896511077880859e-01 4.969811439514160156e+00 1.661670327186584473e+00 3.036885499954223633e+00
3.807000000000000000e+03 1.233102798461914062e+01 -5.250333786010742188e+00 1.026557445526123047e+00 5.932357311248779297e+00 2.087674379348754883e+00 5.110123157501220703e-01
3.808000000000000000e+03 9.874094963073730469e+00 -6.126810073852539062e+00 2.753450572490692139e-01 5.363223075866699219e+00 1.691570401191711426e+00 2.554405212402343750e+00
3.809000000000000000e+03 1.026753616333007812e+01 -6.369271278381347656e+00 1.950303167104721069e-01 5.339331626892089844e+00 1.660308599472045898e+00 2.348733663558959961e+00
3.810000000000000000e+03 1.363659572601318359e+01 -4.627922058105468750e+00 1.915142059326171875e+00 5.379383087158203125e+00 2.188357591629028320e+00 -5.786719322204589844e-01
3.811000000000000000e+03 1.425678920745849609e+01 -4.988666534423828125e+00 1.895728230476379395e+00 4.653468608856201172e+00 1.964759111404418945e+00 -6.974127292633056641e-01
3.812000000000000000e+03 1.393844604492187500e+01 -4.581716537475585938e+00 2.028946876525878906e+00 5.099396705627441406e+00 2.138503074645996094e+00 -7.295300960540771484e-01
3.813000000000000000e+03 8.600171089172363281e+00 -6.966982841491699219e+00 6.919151544570922852e-02 4.484230995178222656e+00 1.366026759147644043e+00 2.950159788131713867e+00
3.814000000000000000e+03 1.259176445007324219e+01 -4.759558200836181641e+00 1.358678579330444336e+00 6.214476585388183594e+00 2.271946668624877930e+00 1.300908625125885010e-01
3.815000000000000000e+03 1.457350921630859375e+01 -6.524955272674560547e+00 1.250106215476989746e+00 3.791591882705688477e+00 1.512509465217590332e+00 -3.043422102928161621e-01
3.816000000000000000e+03 1.361658382415771484e+01 -7.090999126434326172e+00 7.074910998344421387e-01 4.003378391265869141e+00 1.413260817527770996e+00 3.421006500720977783e-01
3.817000000000000000e+03 1.344251251220703125e+01 -6.703707695007324219e+00 8.374563455581665039e-01 4.362905979156494141e+00 1.560108661651611328e+00 3.278444111347198486e-01
3.818000000000000000e+03 5.824549102783203125e+01 2.632309532165527344e+01 6.239196062088012695e-01 4.160020828247070312e+00 1.435182213783264160e+00 4.836203455924987793e-01
3.819000000000000000e+03 5.967184066772460938e+01 2.147465133666992188e+01 9.813779592514038086e-01 3.825850486755371094e+00 1.442168474197387695e+00 2.336308211088180542e-01
3.820000000000000000e+03 6.385316085815429688e+01 2.789879417419433594e+01 3.951826095581054688e-01 4.790343284606933594e+00 1.555657744407653809e+00 1.240972802042961121e-01
3.821000000000000000e+03 1.335789871215820312e+01 -4.665599822998046875e+00 1.746709942817687988e+00 5.667289257049560547e+00 2.224199771881103516e+00 -4.589458405971527100e-01
3.822000000000000000e+03 1.116340065002441406e+01 -5.851051807403564453e+00 4.471811056137084961e-01 5.813452720642089844e+00 1.878190159797668457e+00 1.659610986709594727e+00
3.823000000000000000e+03 9.175993919372558594e+00 -6.099682331085205078e+00 3.478926718235015869e-01 5.023693084716796875e+00 1.611475825309753418e+00 2.886053800582885742e+00
3.824000000000000000e+03 1.087388134002685547e+01 -6.264146804809570312e+00 2.731375098228454590e-01 5.469993591308593750e+00 1.722939372062683105e+00 1.970977306365966797e+00
3.825000000000000000e+03 1.188195133209228516e+01 -6.623952865600585938e+00 3.713485002517700195e-01 5.085493087768554688e+00 1.637052536010742188e+00 1.283993959426879883e+00
3.826000000000000000e+03 1.248154735565185547e+01 -6.650063991546630859e+00 5.177779793739318848e-01 4.932300567626953125e+00 1.635023474693298340e+00 8.656643629074096680e-01
3.827000000000000000e+03 1.192482757568359375e+01 -5.266920089721679688e+00 8.208435773849487305e-01 6.193410396575927734e+00 2.104276180267333984e+00 8.814175128936767578e-01
3.828000000000000000e+03 1.187248325347900391e+01 -5.922759532928466797e+00 5.764361023902893066e-01 5.559269428253173828e+00 1.840711712837219238e+00 1.094928622245788574e+00
3.829000000000000000e+03 8.831608772277832031e+00 -6.497983455657958984e+00 2.527730464935302734e-01 4.706440448760986328e+00 1.487764000892639160e+00 2.948574066162109375e+00
3.830000000000000000e+03 8.394287109375000000e+00 -6.167679309844970703e+00 4.128325581550598145e-01 4.510960578918457031e+00 1.477137923240661621e+00 3.054102897644042969e+00
3.831000000000000000e+03 1.365392684936523438e+01 -6.017063140869140625e+00 1.128323674201965332e+00 4.635173797607421875e+00 1.729049205780029297e+00 4.968640394508838654e-03
3.832000000000000000e+03 1.440402698516845703e+01 -5.607090950012207031e+00 1.625899076461791992e+00 4.293048858642578125e+00 1.775684356689453125e+00 -5.373249650001525879e-01
3.833000000000000000e+03 1.256362438201904297e+01 -5.983581542968750000e+00 7.626553773880004883e-01 5.323806762695312500e+00 1.825938582420349121e+00 6.084306240081787109e-01
3.834000000000000000e+03 1.302799606323242188e+01 -4.970742225646972656e+00 1.406571745872497559e+00 5.674061298370361328e+00 2.124189853668212891e+00 -5.817329511046409607e-02
3.835000000000000000e+03 1.221108531951904297e+01 -5.625669956207275391e+00 7.872995138168334961e-01 5.728012084960937500e+00 1.954593539237976074e+00 7.751115560531616211e-01
3.836000000000000000e+03 1.334429836273193359e+01 -5.082492828369140625e+00 1.507733225822448730e+00 5.385142326354980469e+00 2.067862510681152344e+00 -2.212817370891571045e-01
3.837000000000000000e+03 1.154093170166015625e+01 -6.255237102508544922e+00 3.943104147911071777e-01 5.466131210327148438e+00 1.758132576942443848e+00 1.425894379615783691e+00
3.838000000000000000e+03 1.284279251098632812e+01 -6.433588981628417969e+00 7.200139760971069336e-01 4.866305351257324219e+00 1.675895810127258301e+00 6.154940128326416016e-01
3.839000000000000000e+03 1.404548645019531250e+01 -6.295442104339599609e+00 1.169052958488464355e+00 4.206023693084716797e+00 1.612522959709167480e+00 -1.501380205154418945e-01
3.840000000000000000e+03 1.410622406005859375e+01 -5.276039600372314453e+00 1.688220739364624023e+00 4.673899173736572266e+00 1.908635973930358887e+00 -5.639644861221313477e-01
3.841000000000000000e+03 1.285872840881347656e+01 -4.673443794250488281e+00 1.478626608848571777e+00 6.027308940887451172e+00 2.251780509948730469e+00 -3.761380538344383240e-02
3.842000000000000000e+03 6.153404235839843750e+01 2.809510803222656250e+01 4.419449567794799805e-01 4.524104118347167969e+00 1.489814758300781250e+00 2.854355573654174805e-01
3.843000000000000000e+03 5.437925720214843750e+01 2.556720352172851562e+01 7.059819698333740234e-01 3.992278814315795898e+00 1.409478187561035156e+00 7.890000939369201660e-01
3.844000000000000000e+03 5.498530960083007812e+01 2.420443725585937500e+01 8.737956285476684570e-01 3.872583150863647461e+00 1.423913598060607910e+00 7.459002137184143066e-01
3.845000000000000000e+03 1.326572036743164062e+01 -6.233572959899902344e+00 9.059160947799682617e-01 4.726679325103759766e+00 1.689778685569763184e+00 2.525647878646850586e-01
3.846000000000000000e+03 1.298223400115966797e+01 -5.715159416198730469e+00 1.047302961349487305e+00 5.275615692138671875e+00 1.896875619888305664e+00 2.654304504394531250e-01
3.847000000000000000e+03 1.274221897125244141e+01 -5.208501338958740234e+00 1.158161640167236328e+00 5.747505664825439453e+00 2.071700096130371094e+00 2.085276544094085693e-01
3.848000000000000000e+03 1.386490058898925781e+01 -6.742144107818603516e+00 9.340198040008544922e-01 4.098198413848876953e+00 1.509665489196777344e+00 1.061480119824409485e-01
3.849000000000000000e+03 1.342134475708007812e+01 -5.551420688629150391e+00 1.266819596290588379e+00 5.051952362060546875e+00 1.895631670951843262e+00 -7.086282223463058472e-02
3.850000000000000000e+03 5.848998641967773438e+01 2.310925292968750000e+01 9.068121910095214844e-01 3.884081602096557617e+00 1.437268137931823730e+00 4.223441779613494873e-01
3.851000000000000000e+03 5.988862609863281250e+01 2.459244537353515625e+01 7.340278625488281250e-01 4.142309188842773438e+00 1.462901115417480469e+00 3.297813534736633301e-01
3.852000000000000000e+03 6.526336669921875000e+01 3.187730598449707031e+01 1.780074238777160645e-01 5.104158878326416016e+00 1.584649920463562012e+00 1.281836777925491333e-01
3.853000000000000000e+03 6.532199096679687500e+01 3.427343750000000000e+01 8.007816225290298462e-02 5.173902034759521484e+00 1.576194167137145996e+00 1.314287930727005005e-01
3.854000000000000000e+03 5.058872985839843750e+01 3.549322891235351562e+01 -5.855754017829895020e-01 4.120593070983886719e+00 1.060505390167236328e+00 5.070869326591491699e-01
3.855000000000000000e+03 4.674054336547851562e+01 3.500739288330078125e+01 -7.710212469100952148e-01 3.727660894393920898e+00 8.869919180870056152e-01 4.491037130355834961e-01
3.856000000000000000e+03 2.242822456359863281e+01 -4.118610000610351562e+01 -5.790550634264945984e-02 -2.063312567770481110e-02 -2.356158941984176636e-02 1.322062909603118896e-01
3.857000000000000000e+03 8.344607353210449219e+00 -4.099036407470703125e+01 6.806432604789733887e-01 2.982866525650024414e+00 1.099052906036376953e+00 -8.746830374002456665e-02
3.858000000000000000e+03 5.210000610351562500e+01 3.052457046508789062e+01 8.816953003406524658e-02 4.171286106109619141e+00 1.277836680412292480e+00 7.602458596229553223e-01
3.859000000000000000e+03 5.413853454589843750e+01 2.753174591064453125e+01 4.714871346950531006e-01 4.100429534912109375e+00 1.371574997901916504e+00 7.615775465965270996e-01
3.860000000000000000e+03 5.620114135742187500e+01 2.725657081604003906e+01 5.310126543045043945e-01 4.138751029968261719e+00 1.400929093360900879e+00 6.358695626258850098e-01
3.861000000000000000e+03 1.285986328125000000e+01 -4.115101242065429688e+01 7.622299790382385254e-01 3.000953793525695801e-01 3.186976015567779541e-01 7.320874929428100586e-02
3.862000000000000000e+03 7.143048858642578125e+01 -3.826244735717773438e+01 -4.464964270591735840e-01 7.145417213439941406e+00 2.009676218032836914e+00 4.374153539538383484e-02
3.863000000000000000e+03 9.075364112854003906e+00 -3.622178649902343750e+01 -6.891676038503646851e-02 1.795468688011169434e+00 5.179655551910400391e-01 -3.697288334369659424e-01
3.864000000000000000e+03 5.152378845214843750e+01 -3.717702865600585938e+01 -2.720063030719757080e-01 1.325728654861450195e+00 3.161167204380035400e-01 -6.393299102783203125e-01
3.865000000000000000e+03 5.415150833129882812e+01 -3.833158493041992188e+01 5.150140728801488876e-03 7.700244784355163574e-01 2.325523942708969116e-01 -5.648044943809509277e-01
3.866000000000000000e+03 4.147820281982421875e+01 3.797687911987304688e+01 -1.219525933265686035e+00 2.223583698272705078e+00 3.012173473834991455e-01 1.650769263505935669e-02
3.867000000000000000e+03 3.921532440185546875e+01 3.835234069824218750e+01 -1.229755878448486328e+00 1.118518948554992676e+00 -3.337105736136436462e-02 -5.008292198181152344e-02
3.868000000000000000e+03 6.911131286621093750e+01 3.229215621948242188e+01 1.175351440906524658e-01 5.485026836395263672e+00 1.680768609046936035e+00 2.994883432984352112e-02
3.869000000000000000e+03 4.476854705810546875e+01 -3.759801483154296875e+01 -1.028441548347473145e+00 3.611581087112426758e+00 7.749418616294860840e-01 -7.441869974136352539e-01
3.870000000000000000e+03 4.755321121215820312e+01 -3.679994201660156250e+01 -6.641011238098144531e-01 2.762163162231445312e+00 6.294186115264892578e-01 -7.431602478027343750e-01
3.871000000000000000e+03 4.180267715454101562e+01 -4.083044052124023438e+01 -1.553737521171569824e+00 4.345778942108154297e+00 8.376124501228332520e-01 -1.657806634902954102e-01
3.872000000000000000e+03 4.424953842163085938e+01 3.812786483764648438e+01 -1.149688243865966797e+00 3.076211929321289062e+00 5.779570937156677246e-01 9.448862820863723755e-02
3.873000000000000000e+03 4.331002044677734375e+01 4.094781112670898438e+01 -1.227522134780883789e+00 2.559795856475830078e+00 3.996821343898773193e-01 8.226232603192329407e-03
3.874000000000000000e+03 5.424831390380859375e+01 3.313930892944335938e+01 -1.191929802298545837e-01 4.342241764068603516e+00 1.266914606094360352e+00 5.831398367881774902e-01
3.875000000000000000e+03 5.275733947753906250e+01 4.050409698486328125e+01 -7.036694884300231934e-01 4.323285102844238281e+00 1.085884690284729004e+00 1.500190794467926025e-01
3.876000000000000000e+03 5.762657165527343750e+01 3.643729019165039062e+01 -2.464924901723861694e-01 4.657257556915283203e+00 1.323229551315307617e+00 3.046568036079406738e-01
3.877000000000000000e+03 6.106761169433593750e+01 3.497719192504882812e+01 -4.202664270997047424e-02 4.853312492370605469e+00 1.443385720252990723e+00 2.589179277420043945e-01
3.878000000000000000e+03 6.385587692260742188e+01 3.714547729492187500e+01 -7.056726515293121338e-02 5.118710994720458984e+00 1.514443159103393555e+00 1.308539062738418579e-01
3.879000000000000000e+03 5.498670578002929688e+01 -3.596151351928710938e+01 -3.939511477947235107e-01 5.138257145881652832e-01 3.596237301826477051e-02 -5.846097469329833984e-01
3.880000000000000000e+03 1.361253559589385986e-01 -2.026155233383178711e+00 8.214802481234073639e-03 -2.633069455623626709e-01 -7.652764022350311279e-02 -1.098984014242887497e-02
3.881000000000000000e+03 1.177930712699890137e+00 -1.963582038879394531e+00 6.312271207571029663e-02 -2.814969234168529510e-02 1.049190573394298553e-02 -6.516016274690628052e-02
3.882000000000000000e+03 1.719519615173339844e+00 -1.650475382804870605e+00 9.652593731880187988e-02 4.189478233456611633e-02 4.152621701359748840e-02 -3.280524536967277527e-02
3.883000000000000000e+03 2.721740722656250000e+00 -1.612658739089965820e+00 2.468792647123336792e-01 1.243569180369377136e-01 1.113708540797233582e-01 7.628694176673889160e-02
3.884000000000000000e+03 2.896264076232910156e+00 -1.609430551528930664e+00 2.678869962692260742e-01 1.331316828727722168e-01 1.203056052327156067e-01 1.038477644324302673e-01
3.885000000000000000e+03 3.169022798538208008e+00 -2.121733665466308594e+00 4.662433266639709473e-01 2.606222033500671387e-01 2.180596590042114258e-01 2.851399481296539307e-01
3.886000000000000000e+03 4.100977420806884766e+00 -1.619018912315368652e+00 5.961520075798034668e-01 2.006361186504364014e-01 2.390364259481430054e-01 3.511316478252410889e-01
3.887000000000000000e+03 3.908335924148559570e+00 -1.839937686920166016e+00 6.039933562278747559e-01 2.468762993812561035e-01 2.552608847618103027e-01 3.800354897975921631e-01
3.888000000000000000e+03 4.321887493133544922e+00 -1.841381311416625977e+00 8.075186610221862793e-01 2.605505883693695068e-01 3.204207718372344971e-01 5.063915252685546875e-01
3.889000000000000000e+03 4.893740177154541016e+00 -1.649079799652099609e+00 9.860417246818542480e-01 2.409752905368804932e-01 3.681051135063171387e-01 5.781546235084533691e-01
3.890000000000000000e+03 5.273811340332031250e+00 -1.638844370841979980e+00 1.176473021507263184e+00 3.008060157299041748e-01 4.431836903095245361e-01 7.385648488998413086e-01
3.891000000000000000e+03 5.243451118469238281e+00 -2.060634613037109375e+00 1.340903759002685547e+00 4.428787529468536377e-01 5.351347327232360840e-01 9.433499574661254883e-01
3.892000000000000000e+03 5.659955501556396484e+00 -2.013637304306030273e+00 1.593506217002868652e+00 4.964226782321929932e-01 6.269786953926086426e-01 1.115567445755004883e+00
3.893000000000000000e+03 6.894896984100341797e+00 -1.656534194946289062e+00 2.547311305999755859e+00 6.727790832519531250e-01 9.660270810127258301e-01 1.597456216812133789e+00
3.894000000000000000e+03 6.309082508087158203e+00 -1.905649423599243164e+00 2.054054021835327148e+00 6.186257004737854004e-01 8.018039464950561523e-01 1.407351016998291016e+00
3.895000000000000000e+03 6.669171810150146484e+00 -1.956902861595153809e+00 2.391784667968750000e+00 8.182713389396667480e-01 9.630168080329895020e-01 1.723230242729187012e+00
3.896000000000000000e+03 7.097789287567138672e+00 -1.960382103919982910e+00 2.804257154464721680e+00 1.118551492691040039e+00 1.176842570304870605e+00 2.128241300582885742e+00
3.897000000000000000e+03 7.538267612457275391e+00 -1.994335532188415527e+00 3.221435308456420898e+00 1.608660697937011719e+00 1.449028849601745605e+00 2.659863471984863281e+00
3.898000000000000000e+03 7.913423538208007812e+00 -1.644930839538574219e+00 3.744776248931884766e+00 1.667653322219848633e+00 1.623728871345520020e+00 2.796806335449218750e+00
3.899000000000000000e+03 8.311036109924316406e+00 -1.618041992187500000e+00 4.255686283111572266e+00 2.492829799652099609e+00 2.024554967880249023e+00 3.529022455215454102e+00
3.900000000000000000e+03 8.415938377380371094e+00 -2.047612190246582031e+00 3.729861974716186523e+00 3.475856304168701172e+00 2.161715507507324219e+00 3.920288801193237305e+00
3.901000000000000000e+03 8.870920181274414062e+00 -1.661439657211303711e+00 4.384799480438232422e+00 4.594875812530517578e+00 2.693902492523193359e+00 4.587709903717041016e+00
3.902000000000000000e+03 9.796906471252441406e+00 -2.067281723022460938e+00 2.696171045303344727e+00 9.601553916931152344e+00 3.689317464828491211e+00 4.034959793090820312e+00
3.903000000000000000e+03 1.035258102416992188e+01 -1.630896806716918945e+00 2.968252658843994141e+00 1.310879516601562500e+01 4.823114395141601562e+00 2.386760234832763672e+00
3.904000000000000000e+03 1.073456764221191406e+01 -1.479238033294677734e+00 3.780129671096801758e+00 1.353491687774658203e+01 5.194513797760009766e+00 4.593729078769683838e-01
3.905000000000000000e+03 1.126356124877929688e+01 -1.510433673858642578e+00 4.632481098175048828e+00 1.189540100097656250e+01 4.958364963531494141e+00 -8.639886975288391113e-01
3.906000000000000000e+03 1.210461616516113281e+01 -1.395173519849777222e-01 8.072122573852539062e+00 8.879888534545898438e+00 5.085603237152099609e+00 1.397985219955444336e-01
3.907000000000000000e+03 1.240173912048339844e+01 2.079234719276428223e-01 7.099439144134521484e+00 8.289122581481933594e+00 4.616568565368652344e+00 6.551659107208251953e-01
3.908000000000000000e+03 1.169007301330566406e+01 8.765165209770202637e-01 6.112159252166748047e+00 1.094888496398925781e+01 5.118313312530517578e+00 2.143801927566528320e+00
3.909000000000000000e+03 1.062594509124755859e+01 2.056613445281982422e+00 7.559230923652648926e-01 1.191788578033447266e+01 3.802142620086669922e+00 -1.042912364006042480e+00
3.910000000000000000e+03 9.905261993408203125e+00 2.043108463287353516e+00 7.930191755294799805e-01 1.000256156921386719e+01 3.238674402236938477e+00 -3.131050586700439453e+00
3.911000000000000000e+03 9.177988052368164062e+00 1.793955802917480469e+00 2.033270597457885742e+00 6.079798221588134766e+00 2.433920621871948242e+00 -3.994799375534057617e+00
3.912000000000000000e+03 9.106308937072753906e+00 1.608637928962707520e+00 2.286619424819946289e+00 5.306208133697509766e+00 2.277848243713378906e+00 -3.964055776596069336e+00
3.913000000000000000e+03 8.551471710205078125e+00 2.065706491470336914e+00 1.872572183609008789e+00 3.618119239807128906e+00 1.647207379341125488e+00 -2.955330610275268555e+00
3.914000000000000000e+03 7.887826919555664062e+00 1.627721309661865234e+00 1.613469839096069336e+00 1.318642139434814453e+00 8.796336054801940918e-01 -1.638766407966613770e+00
3.915000000000000000e+03 7.003760814666748047e+00 2.077453851699829102e+00 1.116928577423095703e+00 9.127026200294494629e-01 6.088893413543701172e-01 -9.881668090820312500e-01
3.916000000000000000e+03 7.126567363739013672e+00 1.671401619911193848e+00 9.941812157630920410e-01 6.396606564521789551e-01 4.901525378227233887e-01 -7.884898185729980469e-01
3.917000000000000000e+03 6.502074718475341797e+00 1.936566710472106934e+00 7.132418155670166016e-01 4.885402619838714600e-01 3.605346083641052246e-01 -4.792833030223846436e-01
3.918000000000000000e+03 6.501102924346923828e+00 1.664664268493652344e+00 4.949839115142822266e-01 3.733635842800140381e-01 2.605042457580566406e-01 -3.701663017272949219e-01
3.919000000000000000e+03 6.082766532897949219e+00 1.672706365585327148e+00 3.114286065101623535e-01 2.896733283996582031e-01 1.803305745124816895e-01 -1.776835918426513672e-01
3.920000000000000000e+03 5.691746234893798828e+00 1.618137240409851074e+00 1.024693548679351807e-01 1.952144354581832886e-01 8.930514007806777954e-02 -1.300510857254266739e-02
3.921000000000000000e+03 5.671161651611328125e+00 1.841406106948852539e+00 2.561904788017272949e-01 2.424793690443038940e-01 1.496009528636932373e-01 -6.295052915811538696e-02
3.922000000000000000e+03 5.304435253143310547e+00 1.620171546936035156e+00 -2.926298184320330620e-03 1.489043831825256348e-01 4.379342496395111084e-02 9.670433402061462402e-02
3.923000000000000000e+03 4.911801338195800781e+00 1.635592222213745117e+00 -5.071214959025382996e-02 1.031902357935905457e-01 1.574342697858810425e-02 1.752958148717880249e-01
3.924000000000000000e+03 4.513317108154296875e+00 1.675323247909545898e+00 -8.148862421512603760e-02 8.862844854593276978e-02 2.141948789358139038e-03 2.383930981159210205e-01
3.925000000000000000e+03 3.979871034622192383e+00 2.043241024017333984e+00 4.092279449105262756e-02 8.156687021255493164e-02 3.674690052866935730e-02 2.663683891296386719e-01
3.926000000000000000e+03 3.807904481887817383e+00 1.961501002311706543e+00 -2.898890152573585510e-02 5.042624846100807190e-02 6.431203801184892654e-03 2.942125201225280762e-01
3.927000000000000000e+03 3.622726678848266602e+00 1.939392924308776855e+00 -4.460998624563217163e-02 3.255616128444671631e-02 -3.616147441789507866e-03 3.130512833595275879e-01
3.928000000000000000e+03 3.450172424316406250e+00 1.902292966842651367e+00 -5.538912117481231689e-02 2.740694954991340637e-02 -8.394652046263217926e-03 3.170349597930908203e-01
3.929000000000000000e+03 2.707439661026000977e+00 2.002894401550292969e+00 -4.315331578254699707e-02 -3.739957883954048157e-02 -2.416586875915527344e-02 3.415368497371673584e-01
3.930000000000000000e+03 1.742420434951782227e+00 1.773480176925659180e+00 -7.648985087871551514e-02 -1.138326004147529602e-01 -5.709673464298248291e-02 2.948862314224243164e-01
3.931000000000000000e+03 1.307814002037048340e+00 1.614477634429931641e+00 -6.416293978691101074e-02 -1.441904157400131226e-01 -6.250600516796112061e-02 2.352204322814941406e-01
3.932000000000000000e+03 1.110363960266113281e+00 1.616555452346801758e+00 -5.486191064119338989e-02 -1.467624306678771973e-01 -6.048730388283729553e-02 2.129121869802474976e-01
3.933000000000000000e+03 9.185870289802551270e-01 1.607258677482604980e+00 -4.889379814267158508e-02 -1.652870476245880127e-01 -6.425425410270690918e-02 1.828791052103042603e-01
3.934000000000000000e+03 7.551344633102416992e-01 2.321354389190673828e+00 -1.127666095271706581e-03 -2.875404655933380127e-01 -8.660043776035308838e-02 1.532594114542007446e-01
3.935000000000000000e+03 1.444002240896224976e-01 2.238776206970214844e+00 6.230009254068136215e-03 -3.730219304561614990e-01 -1.100375726819038391e-01 6.115233153104782104e-02
3.936000000000000000e+03 4.283949136734008789e-01 3.815841913223266602e+00 1.837877742946147919e-02 -6.643322110176086426e-01 -1.937860250473022461e-01 7.841458916664123535e-02
3.937000000000000000e+03 4.580907821655273438e-01 2.326213121414184570e+00 1.628391072154045105e-02 -2.918615043163299561e-01 -8.267328143119812012e-02 1.474607735872268677e-01
3.938000000000000000e+03 6.743218231201171875e+01 -6.302564144134521484e+00 3.195899426937103271e-01 6.915317058563232422e+00 2.170472145080566406e+00 -1.396883368492126465e+00
3.939000000000000000e+03 7.951469421386718750e+00 -1.626455497741699219e+01 -7.084718942642211914e-01 7.062445163726806641e+00 1.906191945075988770e+00 2.887188434600830078e+00
3.940000000000000000e+03 8.249687194824218750e+00 -3.096308898925781250e+01 -2.744794607162475586e+00 1.910151720046997070e+00 -2.503928840160369873e-01 -1.634712815284729004e-01
3.941000000000000000e+03 3.611809921264648438e+01 -2.713895034790039062e+01 1.083393812179565430e+00 1.051982021331787109e+01 3.480964183807373047e+00 7.280179262161254883e-01
3.942000000000000000e+03 3.666378784179687500e+01 -2.106797599792480469e+01 1.727028846740722656e+00 1.264298820495605469e+01 4.311005115509033203e+00 1.161068975925445557e-01
3.943000000000000000e+03 2.699322319030761719e+01 3.717214965820312500e+01 -2.133177042007446289e+00 -5.789405480027198792e-02 -6.573213338851928711e-01 -3.617602288722991943e-01
3.944000000000000000e+03 1.018441677093505859e+00 -2.378909587860107422e+00 7.617591321468353271e-02 -1.602737233042716980e-02 1.804456301033496857e-02 -1.643113233149051666e-02
3.945000000000000000e+03 3.696114063262939453e+00 -2.110875844955444336e+00 6.488492488861083984e-01 2.956962287425994873e-01 2.833636403083801270e-01 4.175577759742736816e-01
3.946000000000000000e+03 4.194377064704895020e-01 1.932128310203552246e+00 -4.864794015884399414e-02 -3.221192955970764160e-01 -1.112301647663116455e-01 9.420625865459442139e-02
3.947000000000000000e+03 7.149602413177490234e+00 2.371083736419677734e+00 1.273821830749511719e+00 1.339657306671142578e+00 7.840437293052673340e-01 -1.286157488822937012e+00
3.948000000000000000e+03 6.613137245178222656e+00 2.386302709579467773e+00 1.001451134681701660e+00 9.451057314872741699e-01 5.839670300483703613e-01 -8.577088117599487305e-01
3.949000000000000000e+03 6.322630882263183594e+00 1.980303764343261719e+00 6.585559844970703125e-01 4.783473908901214600e-01 3.410710096359252930e-01 -4.170065820217132568e-01
3.950000000000000000e+03 6.401318550109863281e+00 2.189615011215209961e+00 8.787978291511535645e-01 6.648436188697814941e-01 4.630924463272094727e-01 -6.001651883125305176e-01
3.951000000000000000e+03 6.781943321228027344e+00 2.858661413192749023e+00 1.137664794921875000e+00 1.395031571388244629e+00 7.598088979721069336e-01 -1.156530022621154785e+00
3.952000000000000000e+03 2.854655027389526367e+00 -2.111152648925781250e+00 3.863933980464935303e-01 2.346320301294326782e-01 1.863076239824295044e-01 2.247709631919860840e-01
3.953000000000000000e+03 2.824401378631591797e+00 -1.788031458854675293e+00 2.898406684398651123e-01 1.549174040555953979e-01 1.334274262189865112e-01 1.126168742775917053e-01
3.954000000000000000e+03 3.011259078979492188e+00 -1.920487284660339355e+00 3.809175789356231689e-01 1.979426890611648560e-01 1.736580729484558105e-01 1.881316155195236206e-01
3.955000000000000000e+03 9.332990646362304688e+00 1.948230504989624023e+00 1.623170971870422363e+00 7.038481235504150391e+00 2.598495721817016602e+00 -3.888054132461547852e+00
3.956000000000000000e+03 8.810553550720214844e+00 2.382851839065551758e+00 1.543174624443054199e+00 4.898891448974609375e+00 1.932619929313659668e+00 -3.195444345474243164e+00
3.957000000000000000e+03 8.278024673461914062e+00 1.872441411018371582e+00 2.067233562469482422e+00 2.372387170791625977e+00 1.331886172294616699e+00 -2.538720846176147461e+00
3.958000000000000000e+03 8.405530929565429688e+00 2.077558279037475586e+00 1.734940052032470703e+00 3.090201616287231445e+00 1.447542428970336914e+00 -2.675586700439453125e+00
3.959000000000000000e+03 8.238644599914550781e+00 2.068250179290771484e+00 1.805348396301269531e+00 2.739202022552490234e+00 1.363365173339843750e+00 -2.541595220565795898e+00
3.960000000000000000e+03 8.234360694885253906e+00 2.308773517608642578e+00 1.728412151336669922e+00 3.037372589111328125e+00 1.429735422134399414e+00 -2.549360752105712891e+00
3.961000000000000000e+03 9.256765365600585938e+00 2.339546203613281250e+00 1.307323575019836426e+00 6.636690139770507812e+00 2.383204221725463867e+00 -3.474089622497558594e+00
3.962000000000000000e+03 1.118145942687988281e+01 2.293819189071655273e+00 1.062000751495361328e+00 1.129322338104248047e+01 3.706567287445068359e+00 2.098934501409530640e-01
3.963000000000000000e+03 1.157029247283935547e+01 1.715394496917724609e+00 2.772272109985351562e+00 1.143685722351074219e+01 4.262738704681396484e+00 1.446406483650207520e+00
3.964000000000000000e+03 1.249474525451660156e+01 6.129995584487915039e-01 6.267628192901611328e+00 8.424489974975585938e+00 4.407635688781738281e+00 1.266602039337158203e+00
3.965000000000000000e+03 1.209752273559570312e+01 1.357415765523910522e-01 7.821188926696777344e+00 8.975928306579589844e+00 5.039134979248046875e+00 7.165361046791076660e-01
3.966000000000000000e+03 1.264682865142822266e+01 -1.564038693904876709e-01 6.884571075439453125e+00 7.683335304260253906e+00 4.370371818542480469e+00 -3.008724376559257507e-02
3.967000000000000000e+03 1.231924915313720703e+01 -1.030370473861694336e+00 6.317075252532958984e+00 8.481765747070312500e+00 4.439652442932128906e+00 -1.220690727233886719e+00
3.968000000000000000e+03 1.203360176086425781e+01 -1.020058393478393555e+00 6.523901462554931641e+00 9.269112586975097656e+00 4.737904071807861328e+00 -1.359757065773010254e+00
3.969000000000000000e+03 1.218279743194580078e+01 -1.511615872383117676e+00 5.229732990264892578e+00 8.904720306396484375e+00 4.240335941314697266e+00 -1.392343640327453613e+00
3.970000000000000000e+03 1.170425987243652344e+01 -1.449748754501342773e+00 5.251841545104980469e+00 1.042630958557128906e+01 4.703445434570312500e+00 -1.309276223182678223e+00
3.971000000000000000e+03 5.513930797576904297e+00 2.082004785537719727e+00 4.012985229492187500e-01 3.217519223690032959e-01 2.169151306152343750e-01 -1.077824607491493225e-01
3.972000000000000000e+03 5.802903175354003906e+00 2.243251323699951172e+00 5.964075922966003418e-01 4.555946886539459229e-01 3.156006932258605957e-01 -2.943488955497741699e-01
3.973000000000000000e+03 4.254164218902587891e+00 2.635174751281738281e+00 2.877475023269653320e-01 2.180960327386856079e-01 1.517530679702758789e-01 1.211881116032600403e-01
3.974000000000000000e+03 3.784389734268188477e+00 2.207172393798828125e+00 1.024839133024215698e-01 7.657472789287567139e-02 5.371759086847305298e-02 2.689331471920013428e-01
3.975000000000000000e+03 3.979466438293457031e+00 2.823369503021240234e+00 2.747620046138763428e-01 2.001445144414901733e-01 1.424719542264938354e-01 1.445908695459365845e-01
3.976000000000000000e+03 2.472035169601440430e+00 2.115495204925537109e+00 -2.882926538586616516e-02 -7.654053717851638794e-02 -3.161093965172767639e-02 3.371672928333282471e-01
3.977000000000000000e+03 2.631685018539428711e+00 2.514535665512084961e+00 6.335872411727905273e-02 -4.473302513360977173e-02 5.587709601968526840e-03 3.185383081436157227e-01
3.978000000000000000e+03 1.379023551940917969e+00 2.083739042282104492e+00 -2.077093161642551422e-02 -1.860120147466659546e-01 -6.203488260507583618e-02 2.736781835556030273e-01
3.979000000000000000e+03 1.536556720733642578e+00 1.820204257965087891e+00 -5.927158892154693604e-02 -1.369859874248504639e-01 -5.887727066874504089e-02 2.792342007160186768e-01
3.980000000000000000e+03 5.447661399841308594e+00 -1.981993794441223145e+00 1.448089957237243652e+00 4.480258822441101074e-01 5.688347220420837402e-01 9.976165294647216797e-01
3.981000000000000000e+03 6.396563053131103516e+00 -2.089884281158447266e+00 2.180679082870483398e+00 7.410502433776855469e-01 8.765187859535217285e-01 1.600618243217468262e+00
3.982000000000000000e+03 6.915787696838378906e+00 -2.262129783630371094e+00 2.593383550643920898e+00 1.242992401123046875e+00 1.150912761688232422e+00 2.199212312698364258e+00
3.983000000000000000e+03 7.295678138732910156e+00 -2.260851860046386719e+00 2.905047893524169922e+00 1.583849430084228516e+00 1.346669197082519531e+00 2.567839145660400391e+00
3.984000000000000000e+03 8.353238105773925781e+00 -1.843695521354675293e+00 4.006531715393066406e+00 3.068794488906860352e+00 2.122597694396972656e+00 3.776122093200683594e+00
3.985000000000000000e+03 9.037786483764648438e+00 -1.991655111312866211e+00 3.704037189483642578e+00 5.915911197662353516e+00 2.885984420776367188e+00 4.673395633697509766e+00
3.986000000000000000e+03 9.382342338562011719e+00 -2.421696424484252930e+00 2.634172916412353516e+00 7.427413940429687500e+00 3.018476009368896484e+00 4.249235153198242188e+00
3.987000000000000000e+03 1.010066413879394531e+01 -2.466878414154052734e+00 2.012507915496826172e+00 9.630268096923828125e+00 3.492832899093627930e+00 3.047376155853271484e+00
3.988000000000000000e+03 1.089501857757568359e+01 -2.191684007644653320e+00 2.498987436294555664e+00 1.109947681427001953e+01 4.079539299011230469e+00 8.424963951110839844e-01
3.989000000000000000e+03 4.791274964809417725e-01 2.881270170211791992e+00 -8.941378444433212280e-03 -4.242640137672424316e-01 -1.299616247415542603e-01 1.105897948145866394e-01
3.990000000000000000e+03 3.843584060668945312e+01 -2.426918792724609375e+01 1.931643247604370117e+00 9.761764526367187500e+00 3.508022308349609375e+00 -7.990954816341400146e-02
3.991000000000000000e+03 4.339543342590332031e+00 -2.869069480895996094e+01 -1.148027300834655762e+00 8.372461318969726562e+00 2.167330026626586914e+00 1.775299787521362305e+00
3.992000000000000000e+03 5.970758914947509766e+00 2.440089941024780273e+00 7.174519896507263184e-01 5.901668667793273926e-01 3.922856450080871582e-01 -4.486049711704254150e-01
3.993000000000000000e+03 9.195106506347656250e+00 -2.417110443115234375e+00 2.828136205673217773e+00 6.690725803375244141e+00 2.855658531188964844e+00 4.329337596893310547e+00
3.994000000000000000e+03 1.117539215087890625e+01 2.711105346679687500e+00 4.606804847717285156e-01 1.046099853515625000e+01 3.276503562927246094e+00 -2.826587557792663574e-01
3.995000000000000000e+03 8.456746101379394531e+00 2.248084068298339844e+00 1.844907641410827637e+00 3.541194438934326172e+00 1.615830659866333008e+00 -2.909100770950317383e+00
3.996000000000000000e+03 7.437996864318847656e+00 2.393962621688842773e+00 1.447559595108032227e+00 1.678045272827148438e+00 9.376814961433410645e-01 -1.634905815124511719e+00
3.997000000000000000e+03 7.303653717041015625e+00 2.239072561264038086e+00 1.333328008651733398e+00 1.345034360885620117e+00 8.035087585449218750e-01 -1.380581498146057129e+00
3.998000000000000000e+03 7.200130939483642578e+00 2.825159788131713867e+00 1.268184185028076172e+00 1.831467628479003906e+00 9.298955202102661133e-01 -1.526092171669006348e+00
3.999000000000000000e+03 5.029473781585693359e+00 -2.250816106796264648e+00 1.260422229766845703e+00 5.086147189140319824e-01 5.307110548019409180e-01 9.619154930114746094e-01
4.000000000000000000e+03 2.730551004409790039e+00 -2.316670656204223633e+00 3.986305296421051025e-01 2.560366988182067871e-01 1.964001655578613281e-01 2.359088212251663208e-01
4.001000000000000000e+03 8.252270698547363281e+00 -2.140767335891723633e+00 3.549388408660888672e+00 3.172246932983398438e+00 2.016490459442138672e+00 3.688557863235473633e+00
4.002000000000000000e+03 1.241583156585693359e+01 -1.716405153274536133e-01 7.354108333587646484e+00 8.093153953552246094e+00 4.634178638458251953e+00 3.289218619465827942e-02
4.003000000000000000e+03 1.537675499916076660e+00 2.273852348327636719e+00 -6.574652070412412286e-05 -1.763211935758590698e-01 -5.291607975959777832e-02 2.869695723056793213e-01
4.004000000000000000e+03 6.545109748840332031e+00 2.136362552642822266e+00 9.132281541824340820e-01 6.801956892013549805e-01 4.780271649360656738e-01 -6.729226708412170410e-01
4.005000000000000000e+03 2.592446565628051758e+00 -2.503139257431030273e+00 3.610036969184875488e-01 2.832113504409790039e-01 1.932645142078399658e-01 2.447354495525360107e-01
4.006000000000000000e+03 8.362567901611328125e+00 -2.496604442596435547e+00 3.128089904785156250e+00 3.960950136184692383e+00 2.126712083816528320e+00 3.922163724899291992e+00
4.007000000000000000e+03 6.225486755371093750e+00 -2.260374546051025391e+00 2.064152479171752930e+00 8.248962759971618652e-01 8.667145967483520508e-01 1.627619147300720215e+00
4.008000000000000000e+03 3.018969774246215820e+00 -2.264600515365600586e+00 4.368743598461151123e-01 2.706083655357360840e-01 2.122448086738586426e-01 2.705924808979034424e-01
4.009000000000000000e+03 2.908735036849975586e+00 -2.447364330291748047e+00 4.260542690753936768e-01 2.879886925220489502e-01 2.142128944396972656e-01 2.818167805671691895e-01
4.010000000000000000e+03 1.184232616424560547e+01 -1.895531892776489258e+00 4.116180896759033203e+00 9.756710052490234375e+00 4.161867141723632812e+00 -1.091483831405639648e+00
4.011000000000000000e+03 1.270210170745849609e+01 -1.059049129486083984e+00 6.048564434051513672e+00 7.646294116973876953e+00 4.108457565307617188e+00 -1.171481966972351074e+00
4.012000000000000000e+03 6.351607799530029297e+00 2.632219076156616211e+00 9.606428146362304688e-01 9.532655477523803711e-01 5.741724967956542969e-01 -7.806346416473388672e-01
4.013000000000000000e+03 3.352797508239746094e+00 2.129585742950439453e+00 2.520948834717273712e-02 3.801183030009269714e-02 1.896639540791511536e-02 3.153113126754760742e-01
4.014000000000000000e+03 1.671110868453979492e+00 -2.506928920745849609e+00 1.670180410146713257e-01 1.586896479129791260e-01 9.771230071783065796e-02 8.398240059614181519e-02
4.015000000000000000e+03 5.016183376312255859e+00 2.450554847717285156e+00 4.179342091083526611e-01 3.401141762733459473e-01 2.274145185947418213e-01 -2.971591986715793610e-02
4.016000000000000000e+03 1.182488441467285156e+01 1.077911257743835449e+00 5.126421451568603516e+00 1.059072589874267578e+01 4.715144157409667969e+00 1.991762042045593262e+00
4.017000000000000000e+03 3.742635488510131836e+00 3.118053913116455078e+00 2.942730188369750977e-01 2.150514572858810425e-01 1.527973413467407227e-01 1.449659317731857300e-01
4.018000000000000000e+03 9.025311470031738281e+00 -2.431514501571655273e+00 3.023751974105834961e+00 5.874636173248291016e+00 2.669516324996948242e+00 4.380817413330078125e+00
4.019000000000000000e+03 9.771222114562988281e+00 -2.777326822280883789e+00 1.942628979682922363e+00 8.236207008361816406e+00 3.053650856018066406e+00 3.429103136062622070e+00
4.020000000000000000e+03 1.045466423034667969e+01 -2.892225980758666992e+00 1.654231429100036621e+00 9.315531730651855469e+00 3.290929079055786133e+00 2.200377464294433594e+00
4.021000000000000000e+03 1.113379478454589844e+01 -2.381190776824951172e+00 2.493470430374145508e+00 1.032706165313720703e+01 3.846159696578979492e+00 4.805780649185180664e-01
4.022000000000000000e+03 6.734381198883056641e+00 -2.443241596221923828e+00 2.435912370681762695e+00 1.264202475547790527e+00 1.110034465789794922e+00 2.172123193740844727e+00
4.023000000000000000e+03 6.535941600799560547e+00 -2.613391160964965820e+00 2.289059877395629883e+00 1.312155485153198242e+00 1.080364584922790527e+00 2.153469562530517578e+00
4.024000000000000000e+03 1.190703487396240234e+01 2.149830818176269531e+00 1.993142247200012207e+00 1.027397918701171875e+01 3.680136442184448242e+00 1.142857074737548828e+00
4.025000000000000000e+03 9.077192306518554688e+00 2.688576936721801758e+00 1.083136320114135742e+00 5.949983596801757812e+00 2.109935998916625977e+00 -3.112551450729370117e+00
4.026000000000000000e+03 4.191558361053466797e+00 -1.718926048278808594e+01 3.147973120212554932e-02 7.037393569946289062e+00 2.120661973953247070e+00 -1.956804469227790833e-02
4.027000000000000000e+03 5.222535133361816406e+00 -2.501321077346801758e+00 1.455070734024047852e+00 6.522187590599060059e-01 6.321868300437927246e-01 1.207521557807922363e+00
4.028000000000000000e+03 5.590897083282470703e+00 -2.350649595260620117e+00 1.642912507057189941e+00 6.638281941413879395e-01 6.920222043991088867e-01 1.306073307991027832e+00
4.029000000000000000e+03 5.709798812866210938e+00 -2.836254596710205078e+00 1.754134535789489746e+00 9.972346425056457520e-01 8.254107832908630371e-01 1.679333448410034180e+00
4.030000000000000000e+03 7.779384613037109375e+01 -3.577937698364257812e+01 -1.421569138765335083e-01 1.019649982452392578e+01 3.016302824020385742e+00 -2.683863639831542969e-01
4.031000000000000000e+03 6.073303222656250000e+00 -2.544290542602539062e+00 1.970696330070495605e+00 9.530604481697082520e-01 8.771270513534545898e-01 1.727857470512390137e+00
4.032000000000000000e+03 6.150615215301513672e+00 -3.029720306396484375e+00 2.006376981735229492e+00 1.287349224090576172e+00 9.881179332733154297e-01 2.069124937057495117e+00
4.033000000000000000e+03 5.962016105651855469e+00 -2.907847642898559570e+00 1.845687985420227051e+00 1.180601239204406738e+00 9.078868031501770020e-01 1.864985585212707520e+00
4.034000000000000000e+03 1.180910396575927734e+01 2.500260114669799805e+00 1.307602643966674805e+00 1.009725093841552734e+01 3.421456098556518555e+00 7.239750027656555176e-01
4.035000000000000000e+03 8.021593093872070312e+00 2.911363124847412109e+00 1.364651560783386230e+00 3.260283470153808594e+00 1.387480497360229492e+00 -2.356316089630126953e+00
4.036000000000000000e+03 1.267907714843750000e+01 -1.421978831291198730e+00 5.374314785003662109e+00 7.752872943878173828e+00 3.938156127929687500e+00 -1.318272590637207031e+00
4.037000000000000000e+03 1.155881309509277344e+01 2.701074600219726562e+00 8.035277724266052246e-01 1.018405151367187500e+01 3.296273708343505859e+00 2.704551517963409424e-01
4.038000000000000000e+03 1.059029769897460938e+01 2.397064924240112305e+00 4.247824549674987793e-01 1.089519691467285156e+01 3.395993709564208984e+00 -1.394930481910705566e+00
4.039000000000000000e+03 3.267121791839599609e+00 -2.757965803146362305e+00 6.046188473701477051e-01 4.637235105037689209e-01 3.205027282238006592e-01 5.321767926216125488e-01
4.040000000000000000e+03 4.287667465209960938e+01 3.295956802368164062e+01 -6.613392829895019531e-01 3.201792478561401367e+00 7.621359825134277344e-01 2.239715009927749634e-01
4.041000000000000000e+03 8.074342727661132812e+00 2.662378787994384766e+00 1.486778020858764648e+00 3.149911403656005859e+00 1.391006827354431152e+00 -2.400735378265380859e+00
4.042000000000000000e+03 6.555869579315185547e+00 2.720630407333374023e+00 1.061707019805908203e+00 1.094487786293029785e+00 6.468584537506103516e-01 -9.419438838958740234e-01
4.043000000000000000e+03 6.604076385498046875e+00 3.187500238418579102e+00 1.044855713844299316e+00 1.519009590148925781e+00 7.691596150398254395e-01 -1.135833144187927246e+00
4.044000000000000000e+03 9.432533264160156250e+00 3.003748178482055664e+00 5.737282037734985352e-01 7.121067047119140625e+00 2.308438539505004883e+00 -2.833169460296630859e+00
4.045000000000000000e+03 1.967929005622863770e+00 4.456554412841796875e+00 1.466375589370727539e-01 -1.471289694309234619e-01 -1.474219898227602243e-04 1.416323482990264893e-01
4.046000000000000000e+03 2.075183296203613281e+01 -3.633267974853515625e+01 -6.776382923126220703e-01 -3.014150857925415039e-01 -2.937160134315490723e-01 4.717728197574615479e-01
4.047000000000000000e+03 3.347383117675781250e+01 -3.594803237915039062e+01 -1.479511260986328125e+00 4.491659164428710938e+00 9.036443233489990234e-01 8.437140583992004395e-01
4.048000000000000000e+03 3.015752983093261719e+01 -6.051877975463867188e+00 2.959645509719848633e+00 4.969192147254943848e-01 1.036969423294067383e+00 -2.031157016754150391e+00
4.049000000000000000e+03 3.217461109161376953e+00 2.651023864746093750e+00 1.340614557266235352e-01 5.191712081432342529e-02 5.579357221722602844e-02 2.775109708309173584e-01
4.050000000000000000e+03 6.311012744903564453e+00 -2.638077974319458008e+00 2.112821578979492188e+00 1.173464655876159668e+00 9.858858585357666016e-01 1.983355879783630371e+00
4.051000000000000000e+03 6.569815158843994141e+00 -2.908230543136596680e+00 2.196464061737060547e+00 1.544198155403137207e+00 1.122198700904846191e+00 2.320888519287109375e+00
4.052000000000000000e+03 6.425383090972900391e+00 2.388793468475341797e+00 8.986849188804626465e-01 8.486543297767639160e-01 5.242017507553100586e-01 -7.310392260551452637e-01
4.053000000000000000e+03 6.161822795867919922e+00 2.559178829193115234e+00 8.174049854278564453e-01 7.679357528686523438e-01 4.756022393703460693e-01 -5.973543524742126465e-01
4.054000000000000000e+03 4.101612854003906250e+01 5.299189567565917969e+00 3.776460289955139160e-01 9.495285987854003906e+00 2.961879730224609375e+00 2.763582944869995117e+00
4.055000000000000000e+03 8.421380043029785156e+00 -2.246386051177978516e+00 3.453525781631469727e+00 3.818168640136718750e+00 2.181508302688598633e+00 3.965938568115234375e+00
4.056000000000000000e+03 1.207294940948486328e+01 9.942093491554260254e-01 5.560168266296386719e+00 9.737803459167480469e+00 4.589391708374023438e+00 1.908235430717468262e+00
4.057000000000000000e+03 1.017421913146972656e+01 2.406589746475219727e+00 4.261472821235656738e-01 1.018074607849121094e+01 3.182067871093750000e+00 -2.315430402755737305e+00
4.058000000000000000e+03 5.691782951354980469e+00 2.046659708023071289e+00 4.421964585781097412e-01 3.378363847732543945e-01 2.340098470449447632e-01 -1.572919487953186035e-01
4.059000000000000000e+03 1.138557243347167969e+01 -2.073343276977539062e+00 3.242646455764770508e+00 1.050896263122558594e+01 4.125482559204101562e+00 -3.327632248401641846e-01
4.060000000000000000e+03 1.143391513824462891e+01 -2.278732299804687500e+00 2.900969743728637695e+00 1.004339504241943359e+01 3.883309364318847656e+00 -2.056359648704528809e-01
4.061000000000000000e+03 9.206412315368652344e+00 -2.810460567474365234e+00 2.344323158264160156e+00 6.562262535095214844e+00 2.671975612640380859e+00 3.988044500350952148e+00
4.062000000000000000e+03 7.008466720581054688e+00 3.080661535263061523e+00 1.179847717285156250e+00 1.839028835296630859e+00 9.056630134582519531e-01 -1.434730052947998047e+00
4.063000000000000000e+03 7.231050014495849609e+00 3.338034391403198242e+00 1.151594877243041992e+00 2.301878690719604492e+00 1.036042094230651855e+00 -1.660599827766418457e+00
4.064000000000000000e+03 1.950699424743652344e+01 -1.497737503051757812e+01 -2.277688026428222656e+00 5.640699863433837891e-01 -5.140854120254516602e-01 -1.298944950103759766e-01
4.065000000000000000e+03 4.009781360626220703e+00 -2.570703029632568359e+00 8.501472473144531250e-01 4.782228171825408936e-01 3.985110223293304443e-01 6.994951367378234863e-01
4.066000000000000000e+03 5.012527942657470703e+00 -2.789120912551879883e+00 1.359843373298645020e+00 7.588512897491455078e-01 6.356084346771240234e-01 1.246124982833862305e+00
4.067000000000000000e+03 4.282490253448486328e+00 -2.936981678009033203e+00 1.034687638282775879e+00 6.590409874916076660e-01 5.081185698509216309e-01 9.789593815803527832e-01
4.068000000000000000e+03 1.305369091033935547e+01 -1.498785734176635742e+00 5.185238361358642578e+00 7.055653572082519531e+00 3.672267675399780273e+00 -1.325292825698852539e+00
4.069000000000000000e+03 9.171845436096191406e+00 -3.260467529296875000e+00 1.910927653312683105e+00 6.331882953643798828e+00 2.472843170166015625e+00 3.742622375488281250e+00
4.070000000000000000e+03 9.708920478820800781e+00 -3.270856618881225586e+00 1.627984404563903809e+00 7.433450222015380859e+00 2.718430519104003906e+00 3.314224243164062500e+00
4.071000000000000000e+03 1.254977989196777344e+01 1.596892252564430237e-02 7.145113945007324219e+00 7.936563014984130859e+00 4.524503231048583984e+00 2.966072559356689453e-01
4.072000000000000000e+03 1.289433670043945312e+01 -1.422487050294876099e-01 6.543855667114257812e+00 7.202335357666015625e+00 4.123857021331787109e+00 -6.693916767835617065e-02
4.073000000000000000e+03 1.317201614379882812e+01 2.732602059841156006e-01 6.016572475433349609e+00 6.920480728149414062e+00 3.881115913391113281e+00 4.124044775962829590e-01
4.074000000000000000e+03 8.005305290222167969e+00 -3.424930810928344727e+00 2.223010063171386719e+00 3.722112417221069336e+00 1.783536791801452637e+00 3.521383762359619141e+00
4.075000000000000000e+03 3.808602333068847656e+00 -9.449274063110351562e+00 -3.354171514511108398e-01 3.418865919113159180e+00 9.250346422195434570e-01 1.629215955734252930e+00
4.076000000000000000e+03 4.134180545806884766e+00 -8.740157127380371094e+00 -2.210767269134521484e-01 3.207671642303466797e+00 8.959784507751464844e-01 1.819820404052734375e+00
4.077000000000000000e+03 3.970667600631713867e+00 3.382348251342773438e+01 -1.815297305583953857e-01 4.518210411071777344e+00 1.301004171371459961e+00 -7.963559031486511230e-01
4.078000000000000000e+03 1.012530899047851562e+01 -3.168042898178100586e+00 1.518295407295227051e+00 8.418353080749511719e+00 2.980994701385498047e+00 2.727564811706542969e+00
4.079000000000000000e+03 1.071203041076660156e+01 -3.454779148101806641e+00 1.332499504089355469e+00 8.438067436218261719e+00 2.931169986724853516e+00 1.801790833473205566e+00
4.080000000000000000e+03 1.110218715667724609e+01 -3.139293432235717773e+00 1.658167362213134766e+00 8.930495262145996094e+00 3.176598787307739258e+00 9.927965402603149414e-01
4.081000000000000000e+03 1.120486354827880859e+01 -2.647989988327026367e+00 2.209349393844604492e+00 9.860974311828613281e+00 3.621097087860107422e+00 5.405045747756958008e-01
4.082000000000000000e+03 5.117121696472167969e+00 2.745699882507324219e+00 5.335069894790649414e-01 4.984010756015777588e-01 3.095724284648895264e-01 -1.700422018766403198e-01
4.083000000000000000e+03 4.260376930236816406e+00 3.276907444000244141e+00 4.333086907863616943e-01 3.995752334594726562e-01 2.498651742935180664e-01 -2.934365905821323395e-02
4.084000000000000000e+03 8.646203041076660156e+00 2.789810180664062500e+00 1.265901088714599609e+00 4.756491184234619141e+00 1.806717753410339355e+00 -2.887319564819335938e+00
4.085000000000000000e+03 8.326534271240234375e+00 3.319748640060424805e+00 1.032427072525024414e+00 4.214049816131591797e+00 1.573943138122558594e+00 -2.484252691268920898e+00
4.086000000000000000e+03 1.044415283203125000e+01 3.679061889648437500e+00 -1.717332750558853149e-01 8.634702682495117188e+00 2.538890838623046875e+00 -1.542625546455383301e+00
4.087000000000000000e+03 1.244432830810546875e+01 1.609230637550354004e+00 3.721566200256347656e+00 9.131460189819335938e+00 3.855908155441284180e+00 1.597882628440856934e+00
4.088000000000000000e+03 1.217743968963623047e+01 2.675117015838623047e+00 1.328516483306884766e+00 9.561305999755859375e+00 3.266946792602539062e+00 8.384568095207214355e-01
4.089000000000000000e+03 1.268708610534667969e+01 3.118748664855957031e+00 1.068572640419006348e+00 8.706525802612304688e+00 2.932529449462890625e+00 7.770929932594299316e-01
4.090000000000000000e+03 6.818404674530029297e+00 -3.335148572921752930e+00 2.089414834976196289e+00 2.106686353683471680e+00 1.258830308914184570e+00 2.708468675613403320e+00
4.091000000000000000e+03 7.058148384094238281e+00 -3.041967391967773438e+00 2.386244773864746094e+00 2.112678527832031250e+00 1.349677085876464844e+00 2.798868417739868164e+00
4.092000000000000000e+03 1.376051139831542969e+01 -1.110881924629211426e+00 5.197645664215087891e+00 5.874774456024169922e+00 3.321726083755493164e+00 -1.060792684555053711e+00
4.093000000000000000e+03 1.332382297515869141e+01 -8.564748764038085938e-01 5.759788990020751953e+00 6.568706989288330078e+00 3.698548793792724609e+00 -8.700743317604064941e-01
4.094000000000000000e+03 1.320098590850830078e+01 -3.002077639102935791e-01 6.120848178863525391e+00 6.705232620239257812e+00 3.847824335098266602e+00 -2.770086228847503662e-01
4.095000000000000000e+03 1.347168731689453125e+01 4.892680048942565918e-01 5.469264507293701172e+00 6.640056610107421875e+00 3.632796287536621094e+00 4.850011467933654785e-01
4.096000000000000000e+03 1.136945056915283203e+01 -2.486229896545410156e+00 2.585592746734619141e+00 9.876394271850585938e+00 3.738595962524414062e+00 5.537591502070426941e-02
4.097000000000000000e+03 1.395290565490722656e+01 6.677925586700439453e+00 -6.445954442024230957e-01 7.155548095703125000e+00 1.953285694122314453e+00 -3.692600131034851074e-02
4.098000000000000000e+03 2.333322525024414062e+00 -3.409594058990478516e+00 3.687576353549957275e-01 4.937559068202972412e-01 2.587540745735168457e-01 4.383854269981384277e-01
4.099000000000000000e+03 1.874446487426757812e+01 -2.716766834259033203e+00 3.586583852767944336e+00 1.784757494926452637e+00 1.611402392387390137e+00 -1.653021931648254395e+00
4.100000000000000000e+03 3.432794570922851562e+00 -3.007406949996948242e+00 7.096287012100219727e-01 5.518995523452758789e-01 3.784584999084472656e-01 6.877312064170837402e-01
4.101000000000000000e+03 4.002765655517578125e+00 -2.926552534103393555e+00 9.025274515151977539e-01 6.162829995155334473e-01 4.556431472301483154e-01 8.424988389015197754e-01
4.102000000000000000e+03 3.770396471023559570e+00 -3.295327663421630859e+00 8.075343370437622070e-01 7.330303788185119629e-01 4.621694087982177734e-01 8.864430189132690430e-01
4.103000000000000000e+03 4.093849945068359375e+01 -2.357270240783691406e+01 1.216318607330322266e+00 7.011106014251708984e+00 2.468227386474609375e+00 -7.373208999633789062e-01
4.104000000000000000e+03 4.007077789306640625e+01 -2.297041320800781250e+01 1.382654309272766113e+00 8.106969833374023438e+00 2.846887111663818359e+00 -3.958827853202819824e-01
4.105000000000000000e+03 4.082042312622070312e+01 -2.132450103759765625e+01 6.004258394241333008e-01 8.026862144470214844e+00 2.588186264038085938e+00 -3.421017527580261230e-01
4.106000000000000000e+03 6.231524944305419922e+00 -3.274660348892211914e+00 1.873247027397155762e+00 1.581153154373168945e+00 1.036320090293884277e+00 2.230659961700439453e+00
4.107000000000000000e+03 4.386070728302001953e+00 6.727241516113281250e+00 2.440403401851654053e-01 1.437321305274963379e+00 5.044084787368774414e-01 -5.076962113380432129e-01
4.108000000000000000e+03 6.214081573486328125e+01 3.069323730468750000e+01 2.273276597261428833e-01 4.774366855621337891e+00 1.500508308410644531e+00 2.729662954807281494e-01
4.109000000000000000e+03 5.344302177429199219e+00 2.629036188125610352e+00 5.967984795570373535e-01 5.060106515884399414e-01 3.308427333831787109e-01 -2.325408160686492920e-01
4.110000000000000000e+03 5.887823104858398438e+00 3.413051605224609375e+00 8.699742555618286133e-01 1.104972481727600098e+00 5.924839973449707031e-01 -7.359510660171508789e-01
4.111000000000000000e+03 7.030401229858398438e+00 3.539315938949584961e+00 1.075187325477600098e+00 2.241008758544921875e+00 9.948588013648986816e-01 -1.540783762931823730e+00
4.112000000000000000e+03 6.854645729064941406e+00 3.706820964813232422e+00 9.935610890388488770e-01 2.164220571517944336e+00 9.473345279693603516e-01 -1.420373439788818359e+00
4.113000000000000000e+03 1.010257816314697266e+01 2.836074113845825195e+00 2.567454278469085693e-01 9.074133872985839844e+00 2.799263715744018555e+00 -2.224215030670166016e+00
4.114000000000000000e+03 8.316421508789062500e+00 3.637499570846557617e+00 8.574036359786987305e-01 4.367366790771484375e+00 1.567431211471557617e+00 -2.369245052337646484e+00
4.115000000000000000e+03 2.847150087356567383e+00 -2.657594203948974609e+00 4.495216608047485352e-01 3.594908416271209717e-01 2.427037507295608521e-01 3.529492616653442383e-01
4.116000000000000000e+03 6.449268341064453125e+01 -3.449180984497070312e+01 -7.301055192947387695e-01 2.226566791534423828e+00 4.489383995532989502e-01 1.008516669273376465e+00
4.117000000000000000e+03 4.508972930908203125e+01 5.315127372741699219e+00 8.594295009970664978e-03 4.488193035125732422e+00 1.349036216735839844e+00 2.802541732788085938e+00
4.118000000000000000e+03 7.249595642089843750e+01 -1.935835075378417969e+01 5.423444509506225586e-01 1.151289653778076172e+01 3.616572380065917969e+00 -3.638386130332946777e-01
4.119000000000000000e+03 3.855117034912109375e+01 -3.012405014038085938e+01 -3.392714262008666992e-01 6.959868431091308594e+00 1.986179113388061523e+00 -7.508699893951416016e-01
4.120000000000000000e+03 3.125840902328491211e+00 4.548462390899658203e+00 3.026902675628662109e-01 3.144884407520294189e-01 1.851536035537719727e-01 6.073472322896122932e-04
4.121000000000000000e+03 5.311312675476074219e+00 -1.115115928649902344e+01 -1.007905483245849609e+00 4.610895156860351562e+00 1.080896973609924316e+00 1.937771439552307129e+00
4.122000000000000000e+03 4.699349403381347656e+00 -8.892539024353027344e+00 -3.092991411685943604e-01 3.484837770462036133e+00 9.526616334915161133e-01 2.059998512268066406e+00
4.123000000000000000e+03 9.141111373901367188e+00 4.143167495727539062e+00 1.978021711111068726e-01 6.145766735076904297e+00 1.903070688247680664e+00 -2.217825174331665039e+00
4.124000000000000000e+03 7.543248653411865234e+00 -3.007987499237060547e+00 2.547517299652099609e+00 2.704889297485351562e+00 1.575721979141235352e+00 3.197802066802978516e+00
4.125000000000000000e+03 7.420135498046875000e+00 -3.196309566497802734e+00 2.404532194137573242e+00 2.713928222656250000e+00 1.535538077354431152e+00 3.159636735916137695e+00
4.126000000000000000e+03 1.128024196624755859e+01 -3.476465225219726562e+00 1.546529412269592285e+00 8.346235275268554688e+00 2.967829465866088867e+00 8.902269005775451660e-01
4.127000000000000000e+03 3.594748306274414062e+01 -2.277831792831420898e+00 5.638419389724731445e-01 3.778746366500854492e+00 1.302776455879211426e+00 9.162483811378479004e-01
4.128000000000000000e+03 4.207950210571289062e+01 7.871334552764892578e+00 1.577298164367675781e+00 8.708492279052734375e+00 3.085736989974975586e+00 3.182870626449584961e+00
4.129000000000000000e+03 6.602961730957031250e+01 2.541265678405761719e+01 4.463208913803100586e-01 4.922922134399414062e+00 1.610772848129272461e+00 -6.179581210017204285e-02
4.130000000000000000e+03 7.489203643798828125e+01 -2.494920539855957031e+01 4.724602997303009033e-01 9.201418876647949219e+00 2.902163743972778320e+00 -1.005253434181213379e+00
4.131000000000000000e+03 6.009896278381347656e+00 -3.206056118011474609e+00 1.813080668449401855e+00 1.378079533576965332e+00 9.573480486869812012e-01 2.052842855453491211e+00
4.132000000000000000e+03 4.564267635345458984e+00 -3.276935577392578125e+00 1.150356411933898926e+00 8.806044459342956543e-01 6.092882752418518066e-01 1.241249322891235352e+00
4.133000000000000000e+03 1.179262447357177734e+01 -3.033212423324584961e+00 2.168964624404907227e+00 8.592920303344726562e+00 3.228565454483032227e+00 -4.064907878637313843e-02
4.134000000000000000e+03 1.136593151092529297e+01 -4.044180870056152344e+00 1.217282652854919434e+00 7.510601520538330078e+00 2.618365287780761719e+00 1.005380392074584961e+00
4.135000000000000000e+03 1.274235916137695312e+01 2.076780557632446289e+00 2.774317741394042969e+00 8.715552330017089844e+00 3.446961164474487305e+00 1.338243007659912109e+00
4.136000000000000000e+03 1.398475360870361328e+01 -7.952048778533935547e-01 5.274976253509521484e+00 5.605320453643798828e+00 3.264089107513427734e+00 -8.151623606681823730e-01
4.137000000000000000e+03 1.312137889862060547e+01 2.297965049743652344e+00 2.516942977905273438e+00 8.134205818176269531e+00 3.195344686508178711e+00 1.182203650474548340e+00
4.138000000000000000e+03 6.682677745819091797e+00 3.805178403854370117e+00 9.399477243423461914e-01 2.029256105422973633e+00 8.907611966133117676e-01 -1.287683010101318359e+00
4.139000000000000000e+03 5.811243057250976562e+00 3.908344030380249023e+00 7.999551296234130859e-01 1.365296483039855957e+00 6.495754718780517578e-01 -8.039618134498596191e-01
4.140000000000000000e+03 5.624719142913818359e+00 2.987690210342407227e+00 7.472397685050964355e-01 7.728336453437805176e-01 4.560220241546630859e-01 -4.748173654079437256e-01
4.141000000000000000e+03 6.453639507293701172e+00 -3.145976543426513672e+00 2.077964305877685547e+00 1.662908911705017090e+00 1.122262001037597656e+00 2.379744529724121094e+00
4.142000000000000000e+03 6.551022052764892578e+00 -3.861935853958129883e+00 1.762749791145324707e+00 2.236775636672973633e+00 1.199857711791992188e+00 2.700298547744750977e+00
4.143000000000000000e+03 6.749958992004394531e+00 -3.625198841094970703e+00 1.941772818565368652e+00 2.248436450958251953e+00 1.257062792778015137e+00 2.748115062713623047e+00
4.144000000000000000e+03 7.061110019683837891e+00 -3.348976373672485352e+00 2.184528112411499023e+00 2.358792304992675781e+00 1.362996101379394531e+00 2.909957408905029297e+00
4.145000000000000000e+03 3.913925409317016602e+00 -3.585371971130371094e+00 8.606147170066833496e-01 9.044916629791259766e-01 5.295318961143493652e-01 1.088802099227905273e+00
4.146000000000000000e+03 3.117892026901245117e+00 -3.765578269958496094e+00 5.924553871154785156e-01 7.777063250541687012e-01 4.110485315322875977e-01 8.042686581611633301e-01
4.147000000000000000e+03 1.125437450408935547e+01 3.937019109725952148e+00 -2.231486588716506958e-01 8.853803634643554688e+00 2.589196443557739258e+00 -6.639956235885620117e-01
4.148000000000000000e+03 1.071734809875488281e+01 4.031299114227294922e+00 -3.014765381813049316e-01 8.548505783081054688e+00 2.474108695983886719e+00 -1.207221508026123047e+00
4.149000000000000000e+03 1.080338573455810547e+01 4.725810527801513672e+00 -4.949861168861389160e-01 7.965499401092529297e+00 2.241153955459594727e+00 -1.070015430450439453e+00
4.150000000000000000e+03 4.457205963134765625e+01 7.857340812683105469e+00 1.464234948158264160e+00 5.441730976104736328e+00 2.071789741516113281e+00 2.778424501419067383e+00
4.151000000000000000e+03 1.234272861480712891e+01 -3.063165664672851562e+00 2.547943353652954102e+00 7.748553276062011719e+00 3.088948965072631836e+00 -5.826410651206970215e-01
4.152000000000000000e+03 1.777023506164550781e+01 -2.905028164386749268e-01 3.603806972503662109e+00 2.590816736221313477e+00 1.858387112617492676e+00 -1.300939321517944336e+00
4.153000000000000000e+03 1.313010311126708984e+01 -2.143283843994140625e+00 4.208209991455078125e+00 6.925911426544189453e+00 3.340236425399780273e+00 -1.342171907424926758e+00
4.154000000000000000e+03 1.234069633483886719e+01 -1.184365940093994141e+01 -9.407337903976440430e-01 1.782353639602661133e+00 2.524859607219696045e-01 2.008749485015869141e+00
4.155000000000000000e+03 7.267660140991210938e+00 -3.298441171646118164e+00 2.269948244094848633e+00 2.583701610565185547e+00 1.456094980239868164e+00 3.053930044174194336e+00
4.156000000000000000e+03 7.569749832153320312e+00 -3.404836654663085938e+00 2.224576711654663086e+00 3.093162536621093750e+00 1.595321774482727051e+00 3.272356510162353516e+00
4.157000000000000000e+03 1.399940013885498047e+01 2.280435711145401001e-02 5.259307384490966797e+00 5.736379623413085938e+00 3.298706054687500000e+00 -2.197858989238739014e-01
4.158000000000000000e+03 1.187186431884765625e+01 -3.634717941284179688e+00 1.729799270629882812e+00 7.829825401306152344e+00 2.867887496948242188e+00 2.034938186407089233e-01
4.159000000000000000e+03 3.740394592285156250e+00 4.936311721801757812e+00 4.062305688858032227e-01 6.444708704948425293e-01 3.152104318141937256e-01 -2.052501887083053589e-01
4.160000000000000000e+03 3.459035110473632812e+01 -1.057320117950439453e+01 1.939828157424926758e+00 4.764190673828125000e+00 2.011205673217773438e+00 -8.849732279777526855e-01
4.161000000000000000e+03 2.015469360351562500e+01 -3.995650768280029297e+00 3.376148462295532227e+00 1.276473283767700195e+00 1.395786523818969727e+00 -1.615303635597229004e+00
4.162000000000000000e+03 1.057668495178222656e+01 -3.823543787002563477e+00 1.130261182785034180e+00 7.763134479522705078e+00 2.668018817901611328e+00 2.019865512847900391e+00
4.163000000000000000e+03 4.408079624176025391e+00 3.095282363891601562e+01 -9.059932082891464233e-02 4.180438518524169922e+00 1.226951837539672852e+00 -1.047958731651306152e+00
4.164000000000000000e+03 5.540196895599365234e+00 -4.289389610290527344e+00 1.323037266731262207e+00 1.818014860153198242e+00 9.423156380653381348e-01 2.177624702453613281e+00
4.165000000000000000e+03 7.275262832641601562e+00 4.089914321899414062e+00 8.640137910842895508e-01 2.882031917572021484e+00 1.123813748359680176e+00 -1.667765021324157715e+00
4.166000000000000000e+03 7.186589241027832031e+00 3.795909643173217773e+00 9.834712743759155273e-01 2.582642555236816406e+00 1.069834113121032715e+00 -1.630380034446716309e+00
4.167000000000000000e+03 5.948905944824218750e+00 -9.009087562561035156e+00 -4.654015004634857178e-01 3.902848005294799805e+00 1.031233906745910645e+00 2.504370689392089844e+00
4.168000000000000000e+03 6.252812385559082031e+00 4.279190540313720703e+00 7.977159619331359863e-01 1.907886385917663574e+00 8.116806745529174805e-01 -1.088647007942199707e+00
4.169000000000000000e+03 9.743451118469238281e+00 -4.199563980102539062e+00 1.040991663932800293e+00 6.532797813415527344e+00 2.272136926651000977e+00 2.882012367248535156e+00
4.170000000000000000e+03 8.679586410522460938e+00 -3.336713790893554688e+00 2.108571052551269531e+00 5.167745113372802734e+00 2.182894945144653320e+00 3.806812763214111328e+00
4.171000000000000000e+03 8.640601158142089844e+00 -3.925849437713623047e+00 1.608687400817871094e+00 5.034294128417968750e+00 1.992894530296325684e+00 3.532683134078979492e+00
4.172000000000000000e+03 1.162047100067138672e+01 4.069724082946777344e+00 -2.077446728944778442e-01 8.742870330810546875e+00 2.560537815093994141e+00 -3.770634829998016357e-01
4.173000000000000000e+03 1.343938064575195312e+01 6.642420291900634766e+00 -7.149432897567749023e-01 7.345407009124755859e+00 1.989139199256896973e+00 -1.061424762010574341e-01
4.174000000000000000e+03 1.266862678527832031e+01 6.958680152893066406e+00 -8.238378763198852539e-01 7.373168945312500000e+00 1.964799284934997559e+00 -2.917158007621765137e-01
4.175000000000000000e+03 6.970607757568359375e+00 -3.832512855529785156e+00 1.870871901512145996e+00 2.602586030960083008e+00 1.342037320137023926e+00 2.937755346298217773e+00
4.176000000000000000e+03 7.388871669769287109e+00 -3.910201072692871094e+00 1.861252903938293457e+00 3.155313491821289062e+00 1.504969835281372070e+00 3.206296443939208984e+00
4.177000000000000000e+03 7.279627227783203125e+01 -6.742479801177978516e+00 -3.525106310844421387e-01 8.610526084899902344e+00 2.477404594421386719e+00 4.317750632762908936e-01
4.178000000000000000e+03 6.672515869140625000e+01 1.649157404899597168e-01 -1.331040143966674805e+00 5.336198806762695312e+00 1.201547503471374512e+00 -1.129042387008666992e+00
4.179000000000000000e+03 4.424322891235351562e+01 -2.788990592956542969e+01 4.443501234054565430e-01 3.613407611846923828e+00 1.217327356338500977e+00 -1.547570824623107910e+00
4.180000000000000000e+03 4.342237472534179688e+01 -2.675705337524414062e+01 7.610143423080444336e-01 4.121369361877441406e+00 1.464715123176574707e+00 -1.603271961212158203e+00
4.181000000000000000e+03 2.045003700256347656e+01 -6.914812564849853516e+00 2.171366453170776367e+00 1.158456444740295410e+00 9.989468455314636230e-01 -1.408086061477661133e+00
4.182000000000000000e+03 2.074084281921386719e+01 -7.588624477386474609e+00 1.988894343376159668e+00 1.053599953651428223e+00 9.127482771873474121e-01 -1.372846364974975586e+00
4.183000000000000000e+03 5.267989730834960938e+01 2.257336425781250000e+01 9.907529950141906738e-01 3.840419769287109375e+00 1.449351787567138672e+00 9.586452245712280273e-01
4.184000000000000000e+03 6.999793529510498047e+00 4.135904312133789062e+00 8.542629480361938477e-01 2.540174484252929688e+00 1.018331170082092285e+00 -1.502380013465881348e+00
4.185000000000000000e+03 1.070592403411865234e+01 -4.654509067535400391e+00 7.994797229766845703e-01 6.864694595336914062e+00 2.299252271652221680e+00 1.904143452644348145e+00
4.186000000000000000e+03 4.137268543243408203e+00 4.724175453186035156e+00 4.760048091411590576e-01 7.872287034988403320e-01 3.789700567722320557e-01 -2.882321774959564209e-01
4.187000000000000000e+03 4.419147968292236328e+00 5.051137924194335938e+00 4.694362580776214600e-01 1.010489940643310547e+00 4.439778327941894531e-01 -3.955261707305908203e-01
4.188000000000000000e+03 2.533976364135742188e+01 -8.885803222656250000e+00 1.857753038406372070e+00 5.259371995925903320e-01 7.151070833206176758e-01 -1.648581027984619141e+00
4.189000000000000000e+03 7.507047653198242188e+00 -4.220822811126708984e+00 1.607433915138244629e+00 3.437156677246093750e+00 1.513377189636230469e+00 3.233230829238891602e+00
4.190000000000000000e+03 1.466947555541992188e+01 -1.861326098442077637e+00 4.307419300079345703e+00 4.834807395935058594e+00 2.742668151855468750e+00 -1.356208801269531250e+00
4.191000000000000000e+03 6.870050811767578125e+01 2.430793380737304688e+01 3.711476027965545654e-01 5.258970737457275391e+00 1.689035534858703613e+00 -2.157821208238601685e-01
4.192000000000000000e+03 6.967056751251220703e+00 3.907055616378784180e+00 9.602680206298828125e-01 2.382138729095458984e+00 1.002722024917602539e+00 -1.507788181304931641e+00
4.193000000000000000e+03 7.018602371215820312e+00 4.407919406890869141e+00 7.787491083145141602e-01 2.675530910491943359e+00 1.036283969879150391e+00 -1.489747524261474609e+00
4.194000000000000000e+03 5.490324020385742188e+00 4.642252445220947266e+00 6.556153297424316406e-01 1.496186971664428711e+00 6.455407142639160156e-01 -7.456930279731750488e-01
4.195000000000000000e+03 8.863616943359375000e+00 -4.080374717712402344e+00 1.433039426803588867e+00 5.326584339141845703e+00 2.027887105941772461e+00 3.479132652282714844e+00
4.196000000000000000e+03 8.373722076416015625e+00 -4.590626239776611328e+00 1.228478312492370605e+00 4.621249675750732422e+00 1.754918456077575684e+00 3.362691879272460938e+00
4.197000000000000000e+03 1.417911529541015625e+01 2.479930877685546875e+00 2.426484346389770508e+00 6.705265998840332031e+00 2.739525079727172852e+00 7.904286980628967285e-01
4.198000000000000000e+03 2.008651733398437500e+01 -7.783104419708251953e+00 1.781622529029846191e+00 1.174734830856323242e+00 8.869072198867797852e-01 -1.300292730331420898e+00
4.199000000000000000e+03 1.240104198455810547e+01 6.174412727355957031e+00 -7.442540526390075684e-01 7.593027591705322266e+00 2.054632186889648438e+00 -3.060152530670166016e-01
4.200000000000000000e+03 6.446936130523681641e+00 -8.405090332031250000e+00 -2.990449666976928711e-01 3.843010425567626953e+00 1.063189625740051270e+00 2.673521280288696289e+00
4.201000000000000000e+03 8.434449195861816406e+00 -4.056151866912841797e+00 1.588539242744445801e+00 4.705955982208251953e+00 1.888348579406738281e+00 3.532049894332885742e+00
4.202000000000000000e+03 7.020801067352294922e+00 -4.253498554229736328e+00 1.576230883598327637e+00 2.879598617553710938e+00 1.336748838424682617e+00 2.981402397155761719e+00
4.203000000000000000e+03 7.910437583923339844e+00 4.341446876525878906e+00 6.140413284301757812e-01 3.980201005935668945e+00 1.378272652626037598e+00 -1.960887193679809570e+00
4.204000000000000000e+03 3.555680465698242188e+01 -9.837909698486328125e+00 2.194100379943847656e+00 5.896705150604248047e+00 2.427241802215576172e+00 -4.996804893016815186e-01
4.205000000000000000e+03 7.138866424560546875e+01 2.182982254028320312e+01 2.686873674392700195e-01 5.690431118011474609e+00 1.787735462188720703e+00 -3.637840449810028076e-01
4.206000000000000000e+03 5.304348945617675781e+00 1.681990623474121094e+01 1.597031354904174805e-01 2.999005556106567383e+00 9.476126432418823242e-01 -4.954833984375000000e-01
4.207000000000000000e+03 6.865462779998779297e+00 -5.258650779724121094e+00 1.059172034263610840e+00 3.211050033569335938e+00 1.281066656112670898e+00 2.979096651077270508e+00
4.208000000000000000e+03 7.329253387451171875e+01 -8.267549872398376465e-01 -5.683003664016723633e-01 7.807312488555908203e+00 2.171703577041625977e+00 2.827217616140842438e-02
4.209000000000000000e+03 9.518291473388671875e+00 5.441030979156494141e+00 -3.400613069534301758e-01 6.335046768188476562e+00 1.798495650291442871e+00 -1.563676595687866211e+00
4.210000000000000000e+03 9.253471374511718750e+00 4.928531169891357422e+00 -1.088891550898551941e-01 6.114583492279052734e+00 1.801708340644836426e+00 -1.853558421134948730e+00
4.211000000000000000e+03 8.122112274169921875e+00 -9.758022308349609375e+00 -8.263412117958068848e-01 4.254594326019287109e+00 1.028475999832153320e+00 2.911827564239501953e+00
4.212000000000000000e+03 7.181278705596923828e+00 -5.145252704620361328e+00 1.067968487739562988e+00 3.446534633636474609e+00 1.354350924491882324e+00 3.073141813278198242e+00
4.213000000000000000e+03 7.374772071838378906e+00 -4.876697540283203125e+00 1.201994895935058594e+00 3.529079437255859375e+00 1.419322252273559570e+00 3.153796672821044922e+00
4.214000000000000000e+03 7.041191577911376953e+00 -6.104995250701904297e+00 6.104152798652648926e-01 3.559895038604736328e+00 1.251093149185180664e+00 2.969249010086059570e+00
4.215000000000000000e+03 1.355950546264648438e+01 -4.223784923553466797e+00 2.116978168487548828e+00 5.632088661193847656e+00 2.324720144271850586e+00 -7.213801741600036621e-01
4.216000000000000000e+03 7.174349784851074219e+00 4.664481163024902344e+00 6.654132604598999023e-01 3.070766925811767578e+00 1.120854020118713379e+00 -1.582107782363891602e+00
4.217000000000000000e+03 6.725804805755615234e+00 4.499652385711669922e+00 7.690811753273010254e-01 2.446451663970947266e+00 9.646598100662231445e-01 -1.358853697776794434e+00
4.218000000000000000e+03 1.280729579925537109e+01 -4.307986736297607422e+00 1.706891179084777832e+00 6.324618816375732422e+00 2.409452915191650391e+00 -2.113613337278366089e-01
4.219000000000000000e+03 1.307736396789550781e+01 -4.326819896697998047e+00 1.832341551780700684e+00 6.109259605407714844e+00 2.382480382919311523e+00 -4.113359451293945312e-01
4.220000000000000000e+03 1.503615379333496094e+01 -2.345564365386962891e+00 3.925674915313720703e+00 4.466534614562988281e+00 2.517663002014160156e+00 -1.436179041862487793e+00
4.221000000000000000e+03 6.391992092132568359e+00 5.121952533721923828e+00 5.813364982604980469e-01 2.434745788574218750e+00 9.048246741294860840e-01 -1.168413639068603516e+00
4.222000000000000000e+03 6.580913066864013672e+00 8.224265098571777344e+00 -8.219590783119201660e-02 3.419457435607910156e+00 1.001178503036499023e+00 -8.548303842544555664e-01
4.223000000000000000e+03 1.667130279541015625e+01 -1.041409611701965332e+00 3.995159387588500977e+00 3.205991268157958984e+00 2.160345077514648438e+00 -1.275366425514221191e+00
4.224000000000000000e+03 8.788977622985839844e+00 -4.660295963287353516e+00 1.106274962425231934e+00 5.128832817077636719e+00 1.870532274246215820e+00 3.311871767044067383e+00
4.225000000000000000e+03 8.573290824890136719e+00 -4.420670509338378906e+00 1.287471890449523926e+00 4.930483341217041016e+00 1.865386486053466797e+00 3.400277376174926758e+00
4.226000000000000000e+03 6.759970188140869141e+00 -7.455774784088134766e+00 -1.189918164163827896e-02 3.743174314498901367e+00 1.119382500648498535e+00 2.804559230804443359e+00
4.227000000000000000e+03 1.330980300903320312e+01 -4.308551788330078125e+00 1.993056893348693848e+00 5.852623462677001953e+00 2.353703975677490234e+00 -5.975912809371948242e-01
4.228000000000000000e+03 7.008369445800781250e+00 -4.524804115295410156e+00 1.453851222991943359e+00 2.978037834167480469e+00 1.329566717147827148e+00 3.006070852279663086e+00
4.229000000000000000e+03 7.241628646850585938e+00 -4.518961429595947266e+00 1.463668465614318848e+00 3.242717266082763672e+00 1.411915779113769531e+00 3.122197628021240234e+00
4.230000000000000000e+03 4.860222625732421875e+01 1.919831657409667969e+01 1.151736736297607422e+00 4.301717281341552734e+00 1.636036276817321777e+00 1.460931420326232910e+00
4.231000000000000000e+03 8.665088653564453125e+00 5.043621540069580078e+00 9.322719275951385498e-02 5.217747211456298828e+00 1.593292236328125000e+00 -1.860491633415222168e+00
4.232000000000000000e+03 8.927131652832031250e+00 4.947928428649902344e+00 1.949150115251541138e-02 5.622642993927001953e+00 1.692640304565429688e+00 -1.893353343009948730e+00
4.233000000000000000e+03 8.489030838012695312e+00 4.563053131103515625e+00 3.227337896823883057e-01 4.901405811309814453e+00 1.567241907119750977e+00 -1.996733069419860840e+00
4.234000000000000000e+03 1.186078643798828125e+01 -4.818143367767333984e+00 1.013997912406921387e+00 6.539285182952880859e+00 2.265985012054443359e+00 7.855575084686279297e-01
4.235000000000000000e+03 7.002967357635498047e+00 6.757038116455078125e+00 6.625434756278991699e-02 3.570630311965942383e+00 1.091065406799316406e+00 -1.156382679939270020e+00
4.236000000000000000e+03 6.830350875854492188e+00 5.491592884063720703e+00 4.344889223575592041e-01 2.964359998703002930e+00 1.019654750823974609e+00 -1.291029691696166992e+00
4.237000000000000000e+03 6.872591018676757812e+00 5.935247421264648438e+00 2.931743562221527100e-01 3.225412130355834961e+00 1.055575966835021973e+00 -1.251338243484497070e+00
4.238000000000000000e+03 1.982209587097167969e+01 -7.301587104797363281e+00 2.012822151184082031e+00 1.250573277473449707e+00 9.790186285972595215e-01 -1.336915731430053711e+00
4.239000000000000000e+03 4.837528610229492188e+01 1.741571807861328125e+01 1.369961619377136230e+00 4.256198406219482422e+00 1.687847971916198730e+00 1.648564696311950684e+00
4.240000000000000000e+03 4.736408615112304688e+01 1.688343620300292969e+01 1.311243891716003418e+00 4.675021171569824219e+00 1.795879483222961426e+00 1.746077537536621094e+00
4.241000000000000000e+03 7.169488430023193359e+00 -6.482174873352050781e+00 3.876154124736785889e-01 3.729255676269531250e+00 1.235061287879943848e+00 2.962989091873168945e+00
4.242000000000000000e+03 8.596295356750488281e+00 5.497564315795898438e+00 -8.359678089618682861e-03 5.137928009033203125e+00 1.538870573043823242e+00 -1.688083887100219727e+00
4.243000000000000000e+03 8.283265113830566406e+00 4.902915000915527344e+00 2.601748704910278320e-01 4.630439758300781250e+00 1.467184305191040039e+00 -1.844339013099670410e+00
4.244000000000000000e+03 7.559961795806884766e+00 5.347965240478515625e+00 3.303467035293579102e-01 3.801007747650146484e+00 1.239406347274780273e+00 -1.559743165969848633e+00
4.245000000000000000e+03 1.513981056213378906e+01 -4.163804531097412109e+00 2.725496768951416016e+00 4.126242160797119141e+00 2.055521726608276367e+00 -1.255040884017944336e+00
4.246000000000000000e+03 1.464890003204345703e+01 -4.624207496643066406e+00 2.290713071823120117e+00 4.435693264007568359e+00 2.017921924591064453e+00 -1.001303434371948242e+00
4.247000000000000000e+03 7.175403118133544922e+00 8.252830505371093750e+00 -1.660444587469100952e-01 3.935648202896118164e+00 1.130881071090698242e+00 -9.158007502555847168e-01
4.248000000000000000e+03 7.583313465118408203e+00 1.227431392669677734e+01 -1.816424429416656494e-01 4.291275024414062500e+00 1.232889771461486816e+00 -4.986571669578552246e-01
4.249000000000000000e+03 7.323538780212402344e+00 -6.839049816131591797e+00 2.456065863370895386e-01 3.862589597702026367e+00 1.232458829879760742e+00 2.950692653656005859e+00
4.250000000000000000e+03 1.309912681579589844e+01 -4.650846958160400391e+00 1.651970624923706055e+00 5.843334674835205078e+00 2.248591661453247070e+00 -2.999644577503204346e-01
4.251000000000000000e+03 4.786388397216796875e+01 1.843071365356445312e+01 1.158525824546813965e+00 4.510898113250732422e+00 1.700827121734619141e+00 1.538263916969299316e+00
4.252000000000000000e+03 1.760732460021972656e+01 -6.696701526641845703e+00 1.924863696098327637e+00 2.048630475997924805e+00 1.192048311233520508e+00 -1.130618810653686523e+00
4.253000000000000000e+03 1.724156761169433594e+01 -5.142912387847900391e+00 2.614014863967895508e+00 2.486362934112548828e+00 1.530113339424133301e+00 -1.403057456016540527e+00
4.254000000000000000e+03 6.022085571289062500e+01 1.513136482238769531e+01 1.131554365158081055e+00 3.164204120635986328e+00 1.288727521896362305e+00 -3.062075078487396240e-01
4.255000000000000000e+03 7.577754020690917969e+00 7.286073684692382812e+00 -1.290274262428283691e-01 4.153134346008300781e+00 1.207232117652893066e+00 -1.140171885490417480e+00
4.256000000000000000e+03 7.337643146514892578e+00 6.982154369354248047e+00 -4.379304125905036926e-02 3.943231344223022461e+00 1.169831514358520508e+00 -1.155185222625732422e+00
4.257000000000000000e+03 6.714876174926757812e+00 5.202350616455078125e+00 5.129040479660034180e-01 2.782477140426635742e+00 9.886143207550048828e-01 -1.282366633415222168e+00
4.258000000000000000e+03 7.660087108612060547e+00 -5.029744625091552734e+00 1.104700565338134766e+00 3.830594062805175781e+00 1.480588316917419434e+00 3.196593999862670898e+00
4.259000000000000000e+03 7.993944168090820312e+00 -5.866056442260742188e+00 6.312205195426940918e-01 4.207749843597412109e+00 1.451691150665283203e+00 3.133060216903686523e+00
4.260000000000000000e+03 8.209240913391113281e+00 -5.575304508209228516e+00 7.135815620422363281e-01 4.371125698089599609e+00 1.525412201881408691e+00 3.161087274551391602e+00
4.261000000000000000e+03 7.226893615722656250e+01 1.490564250946044922e+01 1.857551187276840210e-01 6.044408798217773438e+00 1.869049191474914551e+00 -7.290645837783813477e-01
4.262000000000000000e+03 1.573552131652832031e+01 -5.522693634033203125e+00 2.175297975540161133e+00 3.343993902206420898e+00 1.655787587165832520e+00 -1.038296222686767578e+00
4.263000000000000000e+03 1.552722358703613281e+01 -4.854172706604003906e+00 2.390891075134277344e+00 3.653817653656005859e+00 1.813412666320800781e+00 -1.158413052558898926e+00
4.264000000000000000e+03 7.439841270446777344e+00 5.957344532012939453e+00 1.708899736404418945e-01 3.818291187286376953e+00 1.196754336357116699e+00 -1.397795915603637695e+00
4.265000000000000000e+03 5.710844802856445312e+01 1.317514133453369141e+01 1.351307153701782227e+00 2.371665716171264648e+00 1.116891860961914062e+00 -9.767789393663406372e-03
4.266000000000000000e+03 6.568750000000000000e+01 6.663884639739990234e+00 -3.179646730422973633e-01 4.226513385772705078e+00 1.172564625740051270e+00 -1.383862614631652832e+00
4.267000000000000000e+03 6.014981460571289062e+01 1.376668739318847656e+01 1.088940501213073730e+00 2.975754499435424805e+00 1.219408512115478516e+00 -4.056597650051116943e-01
4.268000000000000000e+03 1.514437675476074219e+01 -5.613505840301513672e+00 1.883767485618591309e+00 3.747109413146972656e+00 1.689262986183166504e+00 -8.078624606132507324e-01
4.269000000000000000e+03 8.319680213928222656e+00 5.789309024810791016e+00 -7.667560130357742310e-04 4.755564212799072266e+00 1.426439166069030762e+00 -1.580715775489807129e+00
4.270000000000000000e+03 8.097932815551757812e+00 -7.753842830657958984e+00 -1.756742000579833984e-01 4.251677989959716797e+00 1.222801089286804199e+00 2.946207046508789062e+00
4.271000000000000000e+03 7.603416919708251953e+00 -7.571334362030029297e+00 -7.455641776323318481e-02 4.085331439971923828e+00 1.203232407569885254e+00 2.946414947509765625e+00
4.272000000000000000e+03 7.466876506805419922e+00 -7.198247909545898438e+00 5.833972990512847900e-02 3.972167968750000000e+00 1.209152340888977051e+00 2.945090293884277344e+00
4.273000000000000000e+03 7.275586128234863281e+00 7.466138362884521484e+00 -1.057084947824478149e-01 3.910340070724487305e+00 1.141389489173889160e+00 -1.060115575790405273e+00
4.274000000000000000e+03 7.684635162353515625e+00 -6.681471347808837891e+00 2.598188519477844238e-01 4.020611286163330078e+00 1.284129023551940918e+00 3.004935026168823242e+00
4.275000000000000000e+03 7.832597255706787109e+00 -7.038375377655029297e+00 1.327258348464965820e-01 4.143674850463867188e+00 1.282920241355895996e+00 3.002667665481567383e+00
4.276000000000000000e+03 1.368527507781982422e+01 -5.033755302429199219e+00 1.658079981803894043e+00 5.110291957855224609e+00 2.030511617660522461e+00 -4.535961449146270752e-01
4.277000000000000000e+03 8.455729484558105469e+00 7.132203578948974609e+00 -3.046135008335113525e-01 4.978736400604248047e+00 1.402236819267272949e+00 -1.206915616989135742e+00
4.278000000000000000e+03 8.029320716857910156e+00 5.619946002960205078e+00 1.374103873968124390e-01 4.450359344482421875e+00 1.376330971717834473e+00 -1.634506821632385254e+00
4.279000000000000000e+03 1.402896118164062500e+01 -5.851044178009033203e+00 1.370860815048217773e+00 4.412104129791259766e+00 1.734889507293701172e+00 -3.079633712768554688e-01
4.280000000000000000e+03 9.711829185485839844e+00 -7.527259349822998047e+00 -1.562854200601577759e-01 4.690649032592773438e+00 1.360309004783630371e+00 2.623437404632568359e+00
4.281000000000000000e+03 1.221576595306396484e+01 -7.694388389587402344e+00 1.684520095586776733e-01 4.297912120819091797e+00 1.339909195899963379e+00 1.338388442993164062e+00
4.282000000000000000e+03 8.334766387939453125e+00 -7.259902477264404297e+00 -7.934864610433578491e-03 4.349907875061035156e+00 1.302591800689697266e+00 2.947712421417236328e+00
4.283000000000000000e+03 1.397589588165283203e+01 -4.963647365570068359e+00 1.835271954536437988e+00 4.913105487823486328e+00 2.024513244628906250e+00 -6.006466746330261230e-01
4.284000000000000000e+03 6.749251556396484375e+01 1.589268398284912109e+01 5.185353755950927734e-01 4.809413433074951172e+00 1.598384618759155273e+00 -7.347595691680908203e-01
4.285000000000000000e+03 9.554960250854492188e+00 -7.163695335388183594e+00 -3.835814772173762321e-03 4.777826309204101562e+00 1.432197213172912598e+00 2.689326763153076172e+00
4.286000000000000000e+03 9.900979042053222656e+00 -9.946446865797042847e-03 3.348727416992187500e+01 4.257584095001220703e+00 1.132345676422119141e+01 8.831920623779296875e+00
4.287000000000000000e+03 9.904818534851074219e+00 -2.906142920255661011e-02 3.140049171447753906e+01 1.280784416198730469e+01 1.326250076293945312e+01 1.734513473510742188e+01
4.288000000000000000e+03 9.912311553955078125e+00 -4.706101492047309875e-02 2.915593719482421875e+01 2.133216285705566406e+01 1.514643001556396484e+01 2.066197776794433594e+01
4.289000000000000000e+03 9.923169136047363281e+00 -6.325436383485794067e-02 2.559905433654785156e+01 3.019436264038085938e+01 1.673802566528320312e+01 2.188466644287109375e+01
4.290000000000000000e+03 9.936976432800292969e+00 -7.701997458934783936e-02 2.221429443359375000e+01 3.819490814208984375e+01 1.812276077270507812e+01 2.081303977966308594e+01
4.291000000000000000e+03 9.953202247619628906e+00 -8.782950043678283691e-02 1.903668403625488281e+01 4.499086380004882812e+01 1.920826339721679688e+01 1.782669639587402344e+01
4.292000000000000000e+03 9.971223831176757812e+00 -9.526807069778442383e-02 1.699472427368164062e+01 4.981093215942382812e+01 2.004169654846191406e+01 1.346887302398681641e+01
4.293000000000000000e+03 9.990350723266601562e+00 -9.905018657445907593e-02 1.624193382263183594e+01 5.235385894775390625e+01 2.057873725891113281e+01 8.355127334594726562e+00
4.294000000000000000e+03 1.000984764099121094e+01 -9.903068840503692627e-02 1.705186271667480469e+01 5.262356185913085938e+01 2.090262794494628906e+01 3.325830698013305664e+00
4.295000000000000000e+03 1.002896595001220703e+01 -9.521032124757766724e-02 1.917791938781738281e+01 5.092271804809570312e+01 2.103019142150878906e+01 -9.768793582916259766e-01
4.296000000000000000e+03 1.004697322845458984e+01 -8.773572742938995361e-02 2.216898345947265625e+01 4.780957412719726562e+01 2.099356651306152344e+01 -4.032220363616943359e+00
4.297000000000000000e+03 1.006317710876464844e+01 -7.689376920461654663e-02 2.563891983032226562e+01 4.404621887207031250e+01 2.090554237365722656e+01 -5.580599308013916016e+00
4.298000000000000000e+03 1.007695674896240234e+01 -6.310057640075683594e-02 2.893567466735839844e+01 4.015316009521484375e+01 2.072665023803710938e+01 -5.694015979766845703e+00
4.299000000000000000e+03 1.008778285980224609e+01 -4.688554257154464722e-02 3.180796241760253906e+01 3.687341690063476562e+01 2.060441398620605469e+01 -4.505899429321289062e+00
4.300000000000000000e+03 1.009523963928222656e+01 -2.887100912630558014e-02 3.385762786865234375e+01 3.439225006103515625e+01 2.047496223449707031e+01 -2.362651109695434570e+00
4.301000000000000000e+03 1.009904003143310547e+01 -9.748386219143867493e-03 3.496957397460937500e+01 3.312854385375976562e+01 2.042943572998046875e+01 4.220479428768157959e-01
4.302000000000000000e+03 1.009904003143310547e+01 9.748386219143867493e-03 3.496992874145507812e+01 3.312066268920898438e+01 2.042717742919921875e+01 3.486363410949707031e+00
4.303000000000000000e+03 1.009523963928222656e+01 2.887100912630558014e-02 3.377919006347656250e+01 3.440993881225585938e+01 2.045673942565917969e+01 6.439981937408447266e+00
4.304000000000000000e+03 1.008778285980224609e+01 4.688554257154464722e-02 3.143262100219726562e+01 3.697748565673828125e+01 2.052303123474121094e+01 8.845149040222167969e+00
4.305000000000000000e+03 1.007695674896240234e+01 6.310057640075683594e-02 2.798095703125000000e+01 4.046002578735351562e+01 2.053229522705078125e+01 1.028844833374023438e+01
4.306000000000000000e+03 1.006317710876464844e+01 7.689376920461654663e-02 2.379300117492675781e+01 4.440904617309570312e+01 2.046061515808105469e+01 1.035722637176513672e+01
4.307000000000000000e+03 1.004697322845458984e+01 8.773572742938995361e-02 1.936599349975585938e+01 4.826622009277343750e+01 2.028966331481933594e+01 8.800581932067871094e+00
4.308000000000000000e+03 1.002896595001220703e+01 9.521032124757766724e-02 1.512232398986816406e+01 5.114248657226562500e+01 1.987944221496582031e+01 5.696038246154785156e+00
4.309000000000000000e+03 1.000984764099121094e+01 9.903068840503692627e-02 1.184547424316406250e+01 5.249174880981445312e+01 1.930116653442382812e+01 1.295288443565368652e+00
4.310000000000000000e+03 9.990350723266601562e+00 9.905018657445907593e-02 9.663428306579589844e+00 5.168131256103515625e+01 1.840342330932617188e+01 -3.757818937301635742e+00
4.311000000000000000e+03 9.971223831176757812e+00 9.526807069778442383e-02 9.025635719299316406e+00 4.865630340576171875e+01 1.730458259582519531e+01 -8.838227272033691406e+00
4.312000000000000000e+03 9.953202247619628906e+00 8.782950043678283691e-02 9.358678817749023438e+00 4.347233963012695312e+01 1.584930610656738281e+01 -1.314568710327148438e+01
4.313000000000000000e+03 9.936976432800292969e+00 7.701997458934783936e-02 1.076347351074218750e+01 3.662838745117187500e+01 1.421755790710449219e+01 -1.618642044067382812e+01
4.314000000000000000e+03 9.923169136047363281e+00 6.325436383485794067e-02 1.224059200286865234e+01 2.881750869750976562e+01 1.231742954254150391e+01 -1.760275268554687500e+01
4.315000000000000000e+03 9.912311553955078125e+00 4.706101492047309875e-02 1.404998874664306641e+01 2.034240150451660156e+01 1.031771659851074219e+01 -1.710381698608398438e+01
4.316000000000000000e+03 9.904818534851074219e+00 2.906142920255661011e-02 1.498492717742919922e+01 1.228380298614501953e+01 8.180619239807128906e+00 -1.487481880187988281e+01
4.317000000000000000e+03 9.900979042053222656e+00 9.946446865797042847e-03 1.646632194519042969e+01 4.064201354980468750e+00 6.159156799316406250e+00 -7.571791648864746094e+00
