# el_label, x, y, sXX, sYY, sZZ, sXY
1.000000000000000000e+00 1.564007759094238281e+01 -8.439451456069946289e-01 -2.482438325881958008e+00 -1.370071411132812500e+00 -1.155752897262573242e+00 -2.012843370437622070e+00
2.000000000000000000e+00 1.544107723236083984e+01 -8.399274945259094238e-01 2.027904510498046875e+00 6.549962162971496582e-01 8.048702478408813477e-01 2.632229328155517578e-01
3.000000000000000000e+00 1.524207687377929688e+01 -8.359099030494689941e-01 1.426841735839843750e+00 -3.334887623786926270e-01 3.280058801174163818e-01 -2.834491431713104248e-01
4.000000000000000000e+00 1.504307651519775391e+01 -8.318922519683837891e-01 1.489801645278930664e+00 2.233054786920547485e-01 5.139321088790893555e-01 -8.763793855905532837e-02
5.000000000000000000e+00 1.564461612701416016e+01 -9.021731615066528320e-01 8.771708488464355469e+00 -1.716577410697937012e+00 2.116539239883422852e+00 -5.941816568374633789e-01
6.000000000000000000e+00 1.544864082336425781e+01 -9.369742274284362793e-01 4.528046607971191406e+00 -1.123756170272827148e-01 1.324701309204101562e+00 -4.154933989048004150e-02
7.000000000000000000e+00 1.525266647338867188e+01 -9.717752337455749512e-01 4.894725799560546875e+00 3.675760924816131592e-01 1.578690648078918457e+00 6.092041134834289551e-01
8.000000000000000000e+00 1.505669116973876953e+01 -1.006576299667358398e+00 4.054370403289794922e+00 -1.379945725202560425e-01 1.174912691116333008e+00 2.067663818597793579e-01
9.000000000000000000e+00 1.566040325164794922e+01 -9.584035873413085938e-01 1.349121093750000000e+01 1.117514148354530334e-01 4.080888748168945312e+00 3.795687437057495117e+00
1.000000000000000000e+01 1.547495269775390625e+01 -1.030691504478454590e+00 9.121577262878417969e+00 2.741934657096862793e-01 2.818731069564819336e+00 1.899180293083190918e+00
1.100000000000000000e+01 1.528950309753417969e+01 -1.102979540824890137e+00 6.984048843383789062e+00 5.067614316940307617e-01 2.247242927551269531e+00 1.605896472930908203e+00
1.200000000000000000e+01 1.510405254364013672e+01 -1.175267577171325684e+00 6.471177577972412109e+00 7.343891859054565430e-01 2.161669969558715820e+00 1.626879930496215820e+00
1.300000000000000000e+01 1.568683528900146484e+01 -1.010484695434570312e+00 1.578357601165771484e+01 3.946522474288940430e+00 5.919029235839843750e+00 7.644269466400146484e+00
1.400000000000000000e+01 1.551900672912597656e+01 -1.117493271827697754e+00 1.086589622497558594e+01 2.178386449813842773e+00 3.913284778594970703e+00 4.757177352905273438e+00
1.500000000000000000e+01 1.535117816925048828e+01 -1.224501848220825195e+00 9.127948760986328125e+00 1.963445663452148438e+00 3.327418327331542969e+00 3.541809320449829102e+00
1.600000000000000000e+01 1.518334960937500000e+01 -1.331510543823242188e+00 7.673268795013427734e+00 1.496913433074951172e+00 2.751054763793945312e+00 3.113983631134033203e+00
1.700000000000000000e+01 1.572290134429931641e+01 -1.056423306465148926e+00 1.516123676300048828e+01 8.840928077697753906e+00 7.200649738311767578e+00 1.072960662841796875e+01
1.800000000000000000e+01 1.557911586761474609e+01 -1.194057703018188477e+00 1.153810405731201172e+01 5.716688632965087891e+00 5.176437854766845703e+00 7.103095054626464844e+00
1.900000000000000000e+01 1.543533134460449219e+01 -1.331692099571228027e+00 9.356477737426757812e+00 4.309272289276123047e+00 4.099725246429443359e+00 5.505050659179687500e+00
2.000000000000000000e+01 1.529154682159423828e+01 -1.469326615333557129e+00 8.340793609619140625e+00 3.632605791091918945e+00 3.592019796371459961e+00 4.639188289642333984e+00
2.100000000000000000e+01 1.576722049713134766e+01 -1.094461560249328613e+00 1.362244892120361328e+01 1.488946247100830078e+01 8.553573608398437500e+00 1.208237457275390625e+01
2.200000000000000000e+01 1.565298175811767578e+01 -1.257454872131347656e+00 1.048372077941894531e+01 9.691029548645019531e+00 6.052424907684326172e+00 8.573950767517089844e+00
2.300000000000000000e+01 1.553874301910400391e+01 -1.420448184013366699e+00 8.999127388000488281e+00 7.844286441802978516e+00 5.053024291992187500e+00 6.837276935577392578e+00
2.400000000000000000e+01 1.542450428009033203e+01 -1.583441495895385742e+00 7.738149166107177734e+00 6.435615062713623047e+00 4.252129077911376953e+00 5.735941886901855469e+00
2.500000000000000000e+01 1.581809711456298828e+01 -1.123144030570983887e+00 1.102243709564208984e+01 2.051294898986816406e+01 9.460616111755371094e+00 1.181024742126464844e+01
2.600000000000000000e+01 1.573777580261230469e+01 -1.305258870124816895e+00 9.311051368713378906e+00 1.430652141571044922e+01 7.085271835327148438e+00 8.636756896972656250e+00
2.700000000000000000e+01 1.565745449066162109e+01 -1.487373828887939453e+00 7.692619800567626953e+00 1.122223091125488281e+01 5.674455165863037109e+00 7.292219638824462891e+00
2.800000000000000000e+01 1.557713317871093750e+01 -1.669488668441772461e+00 6.908643722534179688e+00 1.001463794708251953e+01 5.076984405517578125e+00 6.175617694854736328e+00
2.900000000000000000e+01 1.587358379364013672e+01 -1.141372919082641602e+00 9.325734138488769531e+00 2.557841110229492188e+01 1.047124385833740234e+01 9.769851684570312500e+00
3.000000000000000000e+01 1.583025360107421875e+01 -1.335640311241149902e+00 7.606655120849609375e+00 1.831420707702636719e+01 7.776258945465087891e+00 7.678173542022705078e+00
3.100000000000000000e+01 1.578692436218261719e+01 -1.529907822608947754e+00 6.765879154205322266e+00 1.482691192626953125e+01 6.477837085723876953e+00 6.383515357971191406e+00
3.200000000000000000e+01 1.574359416961669922e+01 -1.724175333976745605e+00 5.702286243438720703e+00 1.249651145935058594e+01 5.459639072418212891e+00 5.821712493896484375e+00
3.300000000000000000e+01 1.593155765533447266e+01 -1.148450613021850586e+00 8.325520515441894531e+00 2.915449333190917969e+01 1.124400424957275391e+01 6.576668262481689453e+00
3.400000000000000000e+01 1.592687702178955078e+01 -1.347436547279357910e+00 6.728826522827148438e+00 2.150391197204589844e+01 8.469821929931640625e+00 5.716638565063476562e+00
3.500000000000000000e+01 1.592219734191894531e+01 -1.546422600746154785e+00 5.790242671966552734e+00 1.781944465637207031e+01 7.082905769348144531e+00 4.735087394714355469e+00
3.600000000000000000e+01 1.591751670837402344e+01 -1.745408535003662109e+00 5.121796131134033203e+00 1.503274536132812500e+01 6.046362400054931641e+00 4.046860694885253906e+00
3.700000000000000000e+01 1.598980140686035156e+01 -1.144106388092041016e+00 8.528333663940429688e+00 3.102155303955078125e+01 1.186496639251708984e+01 3.029182195663452148e+00
3.800000000000000000e+01 1.602394866943359375e+01 -1.340196251869201660e+00 6.822360992431640625e+00 2.355451965332031250e+01 9.113063812255859375e+00 3.102684974670410156e+00
3.900000000000000000e+01 1.605809783935546875e+01 -1.536286115646362305e+00 5.378214836120605469e+00 1.961176490783691406e+01 7.496993541717529297e+00 2.658779144287109375e+00
4.000000000000000000e+01 1.609224510192871094e+01 -1.732375979423522949e+00 4.995564460754394531e+00 1.772004127502441406e+01 6.814682006835937500e+00 2.199536085128784180e+00
4.100000000000000000e+01 1.604608345031738281e+01 -1.128506541252136230e+00 1.006704425811767578e+01 3.126312446594238281e+01 1.239905071258544922e+01 -2.460521310567855835e-01
4.200000000000000000e+01 1.611775398254394531e+01 -1.314196467399597168e+00 7.712893486022949219e+00 2.436009979248046875e+01 9.621897697448730469e+00 4.232656061649322510e-01
4.300000000000000000e+01 1.618942260742187500e+01 -1.499886393547058105e+00 6.106389045715332031e+00 2.051325416564941406e+01 7.985893249511718750e+00 3.920078873634338379e-01
4.400000000000000000e+01 1.626109313964843750e+01 -1.685576319694519043e+00 5.403831481933593750e+00 1.769472694396972656e+01 6.929567337036132812e+00 6.004431843757629395e-01
4.500000000000000000e+01 1.609825325012207031e+01 -1.102247953414916992e+00 1.289710807800292969e+01 3.045974540710449219e+01 1.300705623626708984e+01 -2.581266880035400391e+00
4.600000000000000000e+01 1.620470237731933594e+01 -1.270432114601135254e+00 9.065289497375488281e+00 2.391565322875976562e+01 9.894283294677734375e+00 -2.044611454010009766e+00
4.700000000000000000e+01 1.631114959716796875e+01 -1.438616156578063965e+00 8.007308959960937500e+00 2.035019111633300781e+01 8.507249832153320312e+00 -1.369922995567321777e+00
4.800000000000000000e+01 1.641759872436523438e+01 -1.606800436973571777e+00 6.423068523406982422e+00 1.694073295593261719e+01 7.009140491485595703e+00 -1.830236434936523438e+00
4.900000000000000000e+01 1.614431190490722656e+01 -1.066335320472717285e+00 1.565674304962158203e+01 2.830736732482910156e+01 1.318923282623291016e+01 -4.219635963439941406e+00
5.000000000000000000e+01 1.628146553039550781e+01 -1.210577845573425293e+00 1.151341056823730469e+01 2.313054275512695312e+01 1.039318656921386719e+01 -3.175016641616821289e+00
5.100000000000000000e+01 1.641862106323242188e+01 -1.354820251464843750e+00 9.662173271179199219e+00 1.886905288696289062e+01 8.559368133544921875e+00 -3.225153446197509766e+00
5.200000000000000000e+01 1.655577468872070312e+01 -1.499062776565551758e+00 8.530464172363281250e+00 1.761634254455566406e+01 7.844041824340820312e+00 -2.990892171859741211e+00
5.300000000000000000e+01 1.618249702453613281e+01 -1.022143125534057617e+00 1.814975929260253906e+01 2.668981742858886719e+01 1.345187282562255859e+01 -4.505416393280029297e+00
5.400000000000000000e+01 1.634510803222656250e+01 -1.136924147605895996e+00 1.428872680664062500e+01 2.118173789978027344e+01 1.064113998413085938e+01 -3.697523117065429688e+00
5.500000000000000000e+01 1.650772094726562500e+01 -1.251705288887023926e+00 1.135567092895507812e+01 1.806043243408203125e+01 8.824831008911132812e+00 -3.775538682937622070e+00
5.600000000000000000e+01 1.667033195495605469e+01 -1.366486191749572754e+00 1.024736976623535156e+01 1.592407512664794922e+01 7.851433753967285156e+00 -3.020828723907470703e+00
5.700000000000000000e+01 1.621134757995605469e+01 -9.713624715805053711e-01 2.100110244750976562e+01 2.531778526306152344e+01 1.389566612243652344e+01 -3.427106380462646484e+00
5.800000000000000000e+01 1.639319419860839844e+01 -1.052289724349975586e+00 1.598071384429931641e+01 1.925960922241210938e+01 1.057209682464599609e+01 -3.720920085906982422e+00
5.900000000000000000e+01 1.657504081726074219e+01 -1.133216977119445801e+00 1.370280265808105469e+01 1.713617324829101562e+01 9.251692771911621094e+00 -2.802841663360595703e+00
6.000000000000000000e+01 1.675688743591308594e+01 -1.214144229888916016e+00 1.145387649536132812e+01 1.355466270446777344e+01 7.502562046051025391e+00 -3.054387807846069336e+00
6.100000000000000000e+01 1.622976112365722656e+01 -9.159365296363830566e-01 2.219618606567382812e+01 2.328107452392578125e+01 1.364317798614501953e+01 -2.243664741516113281e+00
6.200000000000000000e+01 1.642388343811035156e+01 -9.599131345748901367e-01 1.761467170715332031e+01 1.906500625610351562e+01 1.100390338897705078e+01 -2.152857542037963867e+00
6.300000000000000000e+01 1.661800575256347656e+01 -1.003889799118041992e+00 1.486580753326416016e+01 1.495479011535644531e+01 8.946179389953613281e+00 -2.126658916473388672e+00
6.400000000000000000e+01 1.681212806701660156e+01 -1.047866344451904297e+00 1.351422786712646484e+01 1.399808597564697266e+01 8.253694534301757812e+00 -2.099951267242431641e+00
6.500000000000000000e+01 1.623703193664550781e+01 -8.579862713813781738e-01 2.292678260803222656e+01 2.341886329650878906e+01 1.390369415283203125e+01 -4.624346494674682617e-01
6.600000000000000000e+01 1.643600273132324219e+01 -8.633294105529785156e-01 1.806327819824218750e+01 1.799081802368164062e+01 1.081622886657714844e+01 -3.958791494369506836e-01
6.700000000000000000e+01 1.663497161865234375e+01 -8.686725497245788574e-01 1.528633689880371094e+01 1.526074314117431641e+01 9.164124488830566406e+00 -7.684823870658874512e-01
6.800000000000000000e+01 1.683394050598144531e+01 -8.740156292915344238e-01 1.343583774566650391e+01 1.333827114105224609e+01 8.032232284545898438e+00 -1.007465958595275879e+00
6.900000000000000000e+01 1.623288345336914062e+01 -7.997294068336486816e-01 2.240291786193847656e+01 2.374888610839843750e+01 1.384554100036621094e+01 1.587773680686950684e+00
7.000000000000000000e+01 1.642908477783203125e+01 -7.662345767021179199e-01 1.759555244445800781e+01 1.830866050720214844e+01 1.077126407623291016e+01 1.271873831748962402e+00
7.100000000000000000e+01 1.662528800964355469e+01 -7.327397465705871582e-01 1.469819259643554688e+01 1.583670616149902344e+01 9.160469055175781250e+00 8.400718569755554199e-01
7.200000000000000000e+01 1.682148933410644531e+01 -6.992449164390563965e-01 1.209231472015380859e+01 1.352708053588867188e+01 7.685818672180175781e+00 7.285296320915222168e-01
7.300000000000000000e+01 1.621747016906738281e+01 -7.433950901031494141e-01 2.084245109558105469e+01 2.450639152526855469e+01 1.360465335845947266e+01 3.258467674255371094e+00
7.400000000000000000e+01 1.640339851379394531e+01 -6.723440885543823242e-01 1.610582733154296875e+01 1.977995109558105469e+01 1.076573371887207031e+01 2.605802297592163086e+00
7.500000000000000000e+01 1.658932495117187500e+01 -6.012930870056152344e-01 1.311295795440673828e+01 1.652261734008789062e+01 8.890672683715820312e+00 2.234917402267456055e+00
7.600000000000000000e+01 1.677525329589843750e+01 -5.302420854568481445e-01 1.154730701446533203e+01 1.464217853546142578e+01 7.856845378875732422e+00 2.084712505340576172e+00
7.700000000000000000e+01 1.619138526916503906e+01 -6.911392211914062500e-01 1.858805084228515625e+01 2.648987388610839844e+01 1.352337741851806641e+01 4.197659492492675781e+00
7.800000000000000000e+01 1.635992431640625000e+01 -5.852509140968322754e-01 1.367621612548828125e+01 2.116454315185546875e+01 1.045222854614257812e+01 3.386080026626586914e+00
7.900000000000000000e+01 1.652846145629882812e+01 -4.793626666069030762e-01 1.128013515472412109e+01 1.815193367004394531e+01 8.829620361328125000e+00 2.795472145080566406e+00
8.000000000000000000e+01 1.669699859619140625e+01 -3.734743893146514893e-01 9.879655838012695312e+00 1.561891174316406250e+01 7.649569988250732422e+00 2.353344917297363281e+00
8.100000000000000000e+01 1.615562629699707031e+01 -6.449613571166992188e-01 1.546660518646240234e+01 2.849241065979003906e+01 1.318770503997802734e+01 4.287418365478515625e+00
8.200000000000000000e+01 1.630032539367675781e+01 -5.082878470420837402e-01 1.105988311767578125e+01 2.300871276855468750e+01 1.022057819366455078e+01 3.128158092498779297e+00
8.300000000000000000e+01 1.644502258300781250e+01 -3.716143667697906494e-01 8.956280708312988281e+00 1.951562690734863281e+01 8.541572570800781250e+00 2.460191249847412109e+00
8.400000000000000000e+01 1.658972167968750000e+01 -2.349408566951751709e-01 7.661615848541259766e+00 1.725916481018066406e+01 7.476234436035156250e+00 1.903771162033081055e+00
8.500000000000000000e+01 1.611156082153320312e+01 -6.066286563873291016e-01 1.214344692230224609e+01 3.048376846313476562e+01 1.278816509246826172e+01 3.199011564254760742e+00
8.600000000000000000e+01 1.622688293457031250e+01 -4.444000422954559326e-01 8.529066085815429688e+00 2.439041709899902344e+01 9.875844955444335938e+00 1.826578497886657715e+00
8.700000000000000000e+01 1.634220695495605469e+01 -2.821713984012603760e-01 6.549796581268310547e+00 2.075970649719238281e+01 8.192851066589355469e+00 1.304134011268615723e+00
8.800000000000000000e+01 1.645752906799316406e+01 -1.199427470564842224e-01 5.587849140167236328e+00 1.836067771911621094e+01 7.184557914733886719e+00 7.304595112800598145e-01
8.900000000000000000e+01 1.606087684631347656e+01 -5.776079893112182617e-01 9.387023925781250000e+00 3.188611221313476562e+01 1.238194084167480469e+01 8.624230623245239258e-01
9.000000000000000000e+01 1.614241027832031250e+01 -3.960322439670562744e-01 6.189439773559570312e+00 2.499791717529296875e+01 9.356206893920898438e+00 -2.786736190319061279e-01
9.100000000000000000e+01 1.622394371032714844e+01 -2.144564837217330933e-01 4.948698997497558594e+00 2.119174003601074219e+01 7.842131614685058594e+00 -6.063217520713806152e-01
9.200000000000000000e+01 1.630547523498535156e+01 -3.288073465228080750e-02 3.487612485885620117e+00 1.887483024597167969e+01 6.708733081817626953e+00 -8.562111258506774902e-01
9.300000000000000000e+01 1.600551223754882812e+01 -5.590099096298217773e-01 7.048583507537841797e+00 3.197098922729492188e+01 1.170587158203125000e+01 -2.404011011123657227e+00
9.400000000000000000e+01 1.605013656616210938e+01 -3.650353848934173584e-01 5.126763343811035156e+00 2.452409172058105469e+01 8.895256996154785156e+00 -2.931833982467651367e+00
9.500000000000000000e+01 1.609476089477539062e+01 -1.710609048604965210e-01 3.593907833099365234e+00 2.056059074401855469e+01 7.246349811553955078e+00 -2.921839714050292969e+00
9.600000000000000000e+01 1.613938331604003906e+01 2.291357889771461487e-02 2.932495594024658203e+00 1.824464988708496094e+01 6.353143692016601562e+00 -2.572603464126586914e+00
9.700000000000000000e+01 1.594758796691894531e+01 -5.515460371971130371e-01 6.411487579345703125e+00 3.053207969665527344e+01 1.108306980133056641e+01 -6.049957275390625000e+00
9.800000000000000000e+01 1.595359420776367188e+01 -3.525956571102142334e-01 4.609359741210937500e+00 2.261924171447753906e+01 8.168580055236816406e+00 -5.713696956634521484e+00
9.900000000000000000e+01 1.595960044860839844e+01 -1.536452770233154297e-01 3.588509321212768555e+00 1.887263298034667969e+01 6.738342761993408203e+00 -5.076832294464111328e+00
1.000000000000000000e+02 1.596560573577880859e+01 4.530511423945426941e-02 2.804515123367309570e+00 1.623875236511230469e+01 5.712980270385742188e+00 -4.671072006225585938e+00
1.010000000000000000e+02 1.588931751251220703e+01 -5.555021166801452637e-01 6.810265064239501953e+00 2.711791610717773438e+01 1.017845439910888672e+01 -9.497946739196777344e+00
1.020000000000000000e+02 1.585647583007812500e+01 -3.591890633106231689e-01 5.335484981536865234e+00 1.960985565185546875e+01 7.483602046966552734e+00 -7.924708843231201172e+00
1.030000000000000000e+02 1.582363510131835938e+01 -1.628760248422622681e-01 4.148784637451171875e+00 1.590373420715332031e+01 6.015755653381347656e+00 -6.902793884277343750e+00
1.040000000000000000e+02 1.579079532623291016e+01 3.343700617551803589e-02 3.328669548034667969e+00 1.375976943969726562e+01 5.126531600952148438e+00 -6.274369716644287109e+00
1.050000000000000000e+02 1.583293247222900391e+01 -5.707266330718994141e-01 8.654150009155273438e+00 2.223826408386230469e+01 9.267724037170410156e+00 -1.189030838012695312e+01
1.060000000000000000e+02 1.576250076293945312e+01 -3.845632672309875488e-01 6.464059352874755859e+00 1.536463928222656250e+01 6.548609733581542969e+00 -9.190356254577636719e+00
1.070000000000000000e+02 1.569207000732421875e+01 -1.983999311923980713e-01 5.311114311218261719e+00 1.245934581756591797e+01 5.331138134002685547e+00 -7.850401401519775391e+00
1.080000000000000000e+02 1.562163925170898438e+01 -1.223658770322799683e-02 4.172156810760498047e+00 1.068894767761230469e+01 4.458331108093261719e+00 -6.978406906127929688e+00
1.090000000000000000e+02 1.578059005737304688e+01 -5.966370701789855957e-01 1.065102195739746094e+01 1.609011840820312500e+01 8.022341728210449219e+00 -1.265465259552001953e+01
1.100000000000000000e+02 1.567526340484619141e+01 -4.277473390102386475e-01 8.089729309082031250e+00 1.076854038238525391e+01 5.657480716705322266e+00 -9.172793388366699219e+00
1.110000000000000000e+02 1.556993770599365234e+01 -2.588576078414916992e-01 6.148130416870117188e+00 8.553769111633300781e+00 4.410569667816162109e+00 -7.584372520446777344e+00
1.120000000000000000e+02 1.546461105346679688e+01 -8.996786177158355713e-02 5.206299304962158203e+00 7.682440280914306641e+00 3.866621971130371094e+00 -6.654224872589111328e+00
1.130000000000000000e+02 1.573429298400878906e+01 -6.322418451309204102e-01 1.281182575225830078e+01 9.735404014587402344e+00 6.764169216156005859e+00 -1.141612815856933594e+01
1.140000000000000000e+02 1.559810256958007812e+01 -4.870886802673339844e-01 8.682312011718750000e+00 6.129488945007324219e+00 4.443540573120117188e+00 -7.752436161041259766e+00
1.150000000000000000e+02 1.546191120147705078e+01 -3.419354856014251709e-01 6.896680831909179688e+00 5.197452545166015625e+00 3.628240108489990234e+00 -6.229402065277099609e+00
1.160000000000000000e+02 1.532572078704833984e+01 -1.967822760343551636e-01 5.352900981903076172e+00 4.448994159698486328e+00 2.940568447113037109e+00 -5.353333473205566406e+00
1.170000000000000000e+02 1.569581317901611328e+01 -6.761785149574279785e-01 1.294289302825927734e+01 3.805854558944702148e+00 5.024624347686767578e+00 -8.327030181884765625e+00
1.180000000000000000e+02 1.553396987915039062e+01 -5.603165030479431152e-01 8.568399429321289062e+00 2.507038831710815430e+00 3.322631597518920898e+00 -5.155156612396240234e+00
1.190000000000000000e+02 1.537212657928466797e+01 -4.444544017314910889e-01 6.065630435943603516e+00 2.518507003784179688e+00 2.575241327285766602e+00 -4.063908100128173828e+00
1.200000000000000000e+02 1.521028232574462891e+01 -3.285923600196838379e-01 5.106909751892089844e+00 2.315718650817871094e+00 2.226788520812988281e+00 -3.834713220596313477e+00
1.210000000000000000e+02 1.566662406921386719e+01 -7.267658114433288574e-01 1.111148452758789062e+01 -9.594841599464416504e-01 3.045600175857543945e+00 -3.513253927230834961e+00
1.220000000000000000e+02 1.548532104492187500e+01 -6.446285247802734375e-01 5.566502094268798828e+00 8.034740090370178223e-01 1.910992860794067383e+00 -2.080195665359497070e+00
1.230000000000000000e+02 1.530401802062988281e+01 -5.624912977218627930e-01 4.830600738525390625e+00 1.196863412857055664e+00 1.808239221572875977e+00 -2.461222171783447266e+00
1.240000000000000000e+02 1.512271404266357422e+01 -4.803541004657745361e-01 3.697638988494873047e+00 5.841224789619445801e-01 1.284528493881225586e+00 -1.906262278556823730e+00
1.250000000000000000e+02 1.564784145355224609e+01 -7.820677757263183594e-01 1.986394643783569336e+00 -2.165388107299804688e+00 -5.369802936911582947e-02 1.106927514076232910e+00
1.260000000000000000e+02 1.545401668548583984e+01 -7.367985248565673828e-01 3.427556991577148438e+00 9.930255413055419922e-01 1.326174736022949219e+00 -1.119174480438232422e+00
1.270000000000000000e+02 1.526019191741943359e+01 -6.915292739868164062e-01 2.125291347503662109e+00 -2.344114184379577637e-01 5.672639608383178711e-01 -5.240749120712280273e-01
1.280000000000000000e+02 1.506636714935302734e+01 -6.462600231170654297e-01 1.454061508178710938e+00 2.935887575149536133e-01 5.242950916290283203e-01 -5.061157345771789551e-01
1.290000000000000000e+02 1.033413124084472656e+01 -3.203840851783752441e-01 2.133487462997436523e-01 1.627693325281143188e-02 6.888770312070846558e-02 7.999577559530735016e-03
1.300000000000000000e+02 1.165441513061523438e+01 -1.535039186477661133e+00 1.599313735961914062e+00 -3.860621899366378784e-02 4.682122766971588135e-01 2.748851180076599121e-01
1.310000000000000000e+02 1.265017509460449219e+01 -1.468748927116394043e+00 2.085127353668212891e+00 4.092183709144592285e-02 6.378147602081298828e-01 3.212021887302398682e-01
1.320000000000000000e+02 1.025619029998779297e+01 -1.309061646461486816e+00 9.115107655525207520e-01 -2.072773128747940063e-02 2.672349214553833008e-01 1.849725693464279175e-01
1.330000000000000000e+02 1.095368671417236328e+01 -8.906608819961547852e-01 8.223165273666381836e-01 -3.142613917589187622e-02 2.372671067714691162e-01 6.041725724935531616e-02
1.340000000000000000e+02 1.236437416076660156e+01 -1.640876889228820801e+00 2.191841602325439453e+00 3.943427279591560364e-02 6.693828105926513672e-01 4.220479130744934082e-01
1.350000000000000000e+02 1.184599399566650391e+01 -1.131455659866333008e+00 1.253395199775695801e+00 -4.452582076191902161e-02 3.626607954502105713e-01 9.399211406707763672e-02
1.360000000000000000e+02 1.259948539733886719e+01 -1.259523034095764160e+00 1.792777895927429199e+00 2.252529747784137726e-02 5.445909500122070312e-01 1.448138952255249023e-01
1.370000000000000000e+02 1.265506172180175781e+01 -7.996237277984619141e-01 1.004658579826354980e+00 2.859526872634887695e-02 3.099761307239532471e-01 -3.365907073020935059e-02
1.380000000000000000e+02 1.215551567077636719e+01 -1.456741690635681152e+00 1.824937343597412109e+00 -2.145797014236450195e-03 5.468375086784362793e-01 2.880465090274810791e-01
1.390000000000000000e+02 1.262351608276367188e+01 -1.021766543388366699e+00 1.450809121131896973e+00 2.293769642710685730e-02 4.421240687370300293e-01 6.382369250059127808e-02
1.400000000000000000e+02 1.261152935028076172e+01 -5.633490681648254395e-01 6.569918990135192871e-01 2.264709584414958954e-02 2.038916945457458496e-01 -7.756521552801132202e-02
1.410000000000000000e+02 1.100850582122802734e+01 -4.207709729671478271e-01 3.162539601325988770e-01 -2.693080157041549683e-02 8.679694682359695435e-02 -2.174717560410499573e-02
1.420000000000000000e+02 1.250850009918212891e+01 -1.819726705551147461e+00 2.381813526153564453e+00 3.677516430616378784e-02 7.255766391754150391e-01 5.098341107368469238e-01
1.430000000000000000e+02 1.222626495361328125e+01 -8.851470351219177246e-01 1.102192640304565430e+00 1.142913708463311195e-03 3.310006558895111084e-01 1.953498646616935730e-02
1.440000000000000000e+02 1.196925354003906250e+01 -5.320305228233337402e-01 5.549134612083435059e-01 2.238934859633445740e-03 1.671457141637802124e-01 -7.163769006729125977e-02
1.450000000000000000e+02 1.146639919281005859e+01 -7.289913892745971680e-01 6.961544752120971680e-01 -1.955760084092617035e-02 2.029790729284286499e-01 2.468345686793327332e-02
1.460000000000000000e+02 1.097755050659179688e+01 -1.405745267868041992e+00 1.213301658630371094e+00 -2.729483507573604584e-02 3.558020591735839844e-01 2.127161324024200439e-01
1.470000000000000000e+02 1.028669261932373047e+01 -8.108272552490234375e-01 6.257557868957519531e-01 -9.901526384055614471e-03 1.847562640905380249e-01 5.966517329216003418e-02
1.480000000000000000e+02 1.264932155609130859e+01 -1.644119024276733398e+00 2.455691814422607422e+00 8.050497272051870823e-04 7.369490861892700195e-01 4.104868173599243164e-01
1.490000000000000000e+02 1.579471111297607422e+01 -2.045916795730590820e+00 4.403989791870117188e+00 1.248892593383789062e+01 5.067874908447265625e+00 4.109016418457031250e+00
1.500000000000000000e+02 1.655734062194824219e+01 -1.772746086120605469e+00 5.939147949218750000e+00 1.671343421936035156e+01 6.795774459838867188e+00 -2.363466978073120117e+00
1.510000000000000000e+02 1.677860641479492188e+01 -1.669964909553527832e+00 6.698649406433105469e+00 1.400446128845214844e+01 6.210933208465576172e+00 -2.343635320663452148e+00
1.520000000000000000e+02 1.708833122253417969e+01 -1.099951267242431641e+00 1.035619068145751953e+01 1.146973896026611328e+01 6.547778606414794922e+00 -2.207298517227172852e+00
1.530000000000000000e+02 1.710299491882324219e+01 -8.566742539405822754e-01 1.118261051177978516e+01 1.113505077362060547e+01 6.695298671722412109e+00 -6.438933014869689941e-01
1.540000000000000000e+02 1.723417663574218750e+01 -5.571451783180236816e-01 1.019989967346191406e+01 1.067079257965087891e+01 6.261207580566406250e+00 3.441560268402099609e-01
1.550000000000000000e+02 1.682536506652832031e+01 -2.888230383396148682e-01 9.326559066772460938e+00 1.500000095367431641e+01 7.297967910766601562e+00 2.461863279342651367e+00
1.560000000000000000e+02 1.636330986022949219e+01 1.102348715066909790e-01 2.752325057983398438e+00 1.843979644775390625e+01 6.357635974884033203e+00 -6.968591809272766113e-01
1.570000000000000000e+02 1.387391090393066406e+01 -4.384323954582214355e-01 -8.324493169784545898e-01 2.615869231522083282e-02 -2.418871968984603882e-01 -5.269146338105201721e-02
1.580000000000000000e+02 1.327137470245361328e+01 -3.942661285400390625e-01 -1.455759525299072266e+00 3.549074754118919373e-02 -4.260806143283843994e-01 1.542067825794219971e-01
1.590000000000000000e+02 1.584510231018066406e+01 5.840660333633422852e-01 1.267539978027343750e+00 1.238406848907470703e+01 4.095482826232910156e+00 -4.659658432006835938e+00
1.600000000000000000e+02 1.671098709106445312e+01 -9.728858619928359985e-02 6.713295459747314453e+00 1.519095134735107422e+01 6.571273803710937500e+00 1.325354218482971191e+00
1.610000000000000000e+02 1.618629646301269531e+01 -1.988531351089477539e+00 4.240675449371337891e+00 1.431326961517333984e+01 5.566183567047119141e+00 1.641068339347839355e+00
1.620000000000000000e+02 1.425713539123535156e+01 -8.163043260574340820e-01 1.342772841453552246e+00 8.007792383432388306e-02 4.268552362918853760e-01 -1.382691562175750732e-01
1.630000000000000000e+02 1.286575603485107422e+01 -1.867135286331176758e+00 2.845839262008666992e+00 2.327864766120910645e-01 9.235877394676208496e-01 7.881956696510314941e-01
1.640000000000000000e+02 1.405501556396484375e+01 -1.546735405921936035e+00 3.934709072113037109e+00 2.985872924327850342e-01 1.269988894462585449e+00 9.704353213310241699e-01
1.650000000000000000e+02 1.559962558746337891e+01 -2.125803232192993164e+00 5.174840450286865234e+00 8.803922653198242188e+00 4.193628787994384766e+00 4.298235893249511719e+00
1.660000000000000000e+02 1.548458671569824219e+01 -2.234651803970336914e+00 4.791135787963867188e+00 8.397868156433105469e+00 3.956701040267944336e+00 4.738144397735595703e+00
1.670000000000000000e+02 1.524364662170410156e+01 -1.736881732940673828e+00 7.001099586486816406e+00 5.095834255218505859e+00 3.629080057144165039e+00 5.073678970336914062e+00
1.680000000000000000e+02 1.492138290405273438e+01 -1.250354051589965820e+00 5.673047065734863281e+00 3.718210458755493164e-01 1.813460350036621094e+00 1.296512603759765625e+00
1.690000000000000000e+02 1.306488990783691406e+01 -1.887751102447509766e+00 3.054108381271362305e+00 1.081449165940284729e-01 9.486759305000305176e-01 8.179287314414978027e-01
1.700000000000000000e+02 1.326544952392578125e+01 8.877235054969787598e-01 6.174582242965698242e-01 1.270279169082641602e+00 5.663212537765502930e-01 -1.622712492942810059e+00
1.710000000000000000e+02 1.347663497924804688e+01 6.481467485427856445e-01 7.285910248756408691e-01 9.667084813117980957e-01 5.085898637771606445e-01 -1.550999522209167480e+00
1.720000000000000000e+02 1.346728420257568359e+01 3.157838881015777588e-01 3.840452730655670166e-01 5.836040377616882324e-01 2.902947962284088135e-01 -1.039067029953002930e+00
1.730000000000000000e+02 1.551419067382812500e+01 1.841301769018173218e-01 3.589958667755126953e+00 9.305127143859863281e+00 3.868525743484497070e+00 -6.275559902191162109e+00
1.740000000000000000e+02 1.307674789428710938e+01 -3.671071827411651611e-01 -1.603965878486633301e+00 -8.849894255399703979e-02 -5.077394843101501465e-01 1.271445453166961670e-01
1.750000000000000000e+02 1.344792079925537109e+01 -1.872129291296005249e-01 -6.876268386840820312e-01 1.791111528873443604e-01 -1.525547206401824951e-01 -1.838744580745697021e-01
1.760000000000000000e+02 1.325910568237304688e+01 6.612556576728820801e-01 3.480825722217559814e-01 9.319630861282348633e-01 3.840136826038360596e-01 -1.245426774024963379e+00
1.770000000000000000e+02 1.410938739776611328e+01 -2.572563886642456055e-01 3.098793029785156250e-01 3.220940828323364258e-01 1.895920187234878540e-01 -6.615319252014160156e-01
1.780000000000000000e+02 1.487171077728271484e+01 -6.026180386543273926e-01 8.996978998184204102e-01 1.338713802397251129e-02 2.739255130290985107e-01 -3.889693617820739746e-01
1.790000000000000000e+02 1.643153572082519531e+01 2.085210829973220825e-01 2.835289239883422852e+00 1.694567108154296875e+01 5.934288501739501953e+00 -6.569342017173767090e-01
1.800000000000000000e+02 1.543655490875244141e+01 3.989997506141662598e-01 2.787633180618286133e+00 8.175459861755371094e+00 3.288927793502807617e+00 -5.768780231475830078e+00
1.810000000000000000e+02 1.493445205688476562e+01 -3.983383476734161377e-01 2.917195081710815430e+00 8.378838300704956055e-01 1.126523613929748535e+00 -1.769899487495422363e+00
1.820000000000000000e+02 1.484661769866943359e+01 -8.274341821670532227e-01 1.412821292877197266e+00 -1.300770193338394165e-01 3.848232626914978027e-01 -1.584741026163101196e-01
1.830000000000000000e+02 1.448789215087890625e+01 -1.104789972305297852e+00 3.241896867752075195e+00 1.433676928281784058e-01 1.015579342842102051e+00 2.265944629907608032e-01
1.840000000000000000e+02 1.501397991180419922e+01 -1.444393634796142578e+00 7.064244747161865234e+00 1.811013936996459961e+00 2.662577629089355469e+00 2.887552738189697266e+00
1.850000000000000000e+02 1.545232105255126953e+01 -2.018971920013427734e+00 5.619391918182373047e+00 8.347521781921386719e+00 4.190074443817138672e+00 4.939166545867919922e+00
1.860000000000000000e+02 1.691528129577636719e+01 -1.510398387908935547e+00 8.830712318420410156e+00 1.242661380767822266e+01 6.377197742462158203e+00 -2.696995258331298828e+00
1.870000000000000000e+02 1.289845943450927734e+01 -1.652555346488952637e+00 2.526059150695800781e+00 4.211987182497978210e-02 7.704536914825439453e-01 4.492574334144592285e-01
1.880000000000000000e+02 1.341792964935302734e+01 -7.023235559463500977e-01 1.030447483062744141e+00 -8.084642700850963593e-03 3.067088723182678223e-01 -1.710135117173194885e-02
1.890000000000000000e+02 1.303925132751464844e+01 -6.130811572074890137e-01 7.785468697547912598e-01 -7.149530574679374695e-03 2.314192056655883789e-01 -5.551986396312713623e-02
1.900000000000000000e+02 1.464015483856201172e+01 7.151944637298583984e-01 2.237997531890869141e+00 3.647069931030273438e+00 1.765520215034484863e+00 -3.879113674163818359e+00
1.910000000000000000e+02 1.504493522644042969e+01 -2.171326130628585815e-01 4.125953197479248047e+00 1.865141749382019043e+00 1.797328591346740723e+00 -3.321926355361938477e+00
1.920000000000000000e+02 1.567329883575439453e+01 2.637518644332885742e-01 2.749725341796875000e+00 1.129868507385253906e+01 4.214523315429687500e+00 -5.955438613891601562e+00
1.930000000000000000e+02 1.618630790710449219e+01 2.884790897369384766e-01 2.515082359313964844e+00 1.485925674438476562e+01 5.212301731109619141e+00 -2.528634071350097656e+00
1.940000000000000000e+02 1.579882144927978516e+01 1.876747608184814453e-01 2.707129240036010742e+00 1.293628311157226562e+01 4.693023681640625000e+00 -5.797345638275146484e+00
1.950000000000000000e+02 1.648379135131835938e+01 3.732280433177947998e-01 2.243964195251464844e+00 1.515540790557861328e+01 5.219811916351318359e+00 -1.259620070457458496e+00
1.960000000000000000e+02 1.691614913940429688e+01 -4.679789543151855469e-01 1.025645065307617188e+01 1.362250995635986328e+01 7.163688182830810547e+00 1.432807683944702148e+00
1.970000000000000000e+02 1.698646354675292969e+01 -6.353196501731872559e-01 1.143543148040771484e+01 1.196859455108642578e+01 7.021207809448242188e+00 6.751081347465515137e-01
1.980000000000000000e+02 1.450472354888916016e+01 -2.862971127033233643e-01 1.418927907943725586e+00 5.068551301956176758e-01 5.777349472045898438e-01 -1.099638104438781738e+00
1.990000000000000000e+02 1.518665027618408203e+01 -6.487282365560531616e-02 4.651621341705322266e+00 4.054511070251464844e+00 2.611839771270751953e+00 -4.953639507293701172e+00
2.000000000000000000e+02 1.702927017211914062e+01 -4.517082273960113525e-01 1.020966243743896484e+01 1.223259830474853516e+01 6.732678413391113281e+00 9.300319552421569824e-01
2.010000000000000000e+02 1.606763839721679688e+01 4.023948013782501221e-01 1.549018740653991699e+00 1.404462337493896484e+01 4.678092956542968750e+00 -3.720943450927734375e+00
2.020000000000000000e+02 1.655776786804199219e+01 3.682678192853927612e-02 4.248517513275146484e+00 1.636264991760253906e+01 6.183350563049316406e+00 -9.730076044797897339e-02
2.030000000000000000e+02 1.698915672302246094e+01 -2.354848198592662811e-02 6.246557712554931641e+00 1.313308715820312500e+01 5.813893795013427734e+00 1.610909223556518555e+00
2.040000000000000000e+02 1.543396854400634766e+01 6.176655292510986328e-01 2.258423805236816406e+00 8.367240905761718750e+00 3.187699556350708008e+00 -5.347783565521240234e+00
2.050000000000000000e+02 1.606744194030761719e+01 5.476955175399780273e-01 1.368411898612976074e+00 1.327651977539062500e+01 4.393479347229003906e+00 -3.959928035736083984e+00
2.060000000000000000e+02 1.606468963623046875e+01 2.374947220087051392e-01 1.991601109504699707e+00 1.541565895080566406e+01 5.222177982330322266e+00 -4.107826232910156250e+00
2.070000000000000000e+02 1.553496932983398438e+01 -1.857464909553527832e+00 6.021014690399169922e+00 8.770724296569824219e+00 4.437521934509277344e+00 5.819815158843994141e+00
2.080000000000000000e+02 1.600616836547851562e+01 -2.200323581695556641e+00 3.694868326187133789e+00 1.285489082336425781e+01 4.964927673339843750e+00 2.539186477661132812e+00
2.090000000000000000e+02 1.673572158813476562e+01 -1.924331545829772949e+00 5.790847301483154297e+00 1.402560710906982422e+01 5.944936275482177734e+00 -2.232720613479614258e+00
2.100000000000000000e+02 1.717319869995117188e+01 -1.363484025001525879e+00 9.946805953979492188e+00 1.110756874084472656e+01 6.316312313079833984e+00 -3.021344661712646484e+00
2.110000000000000000e+02 1.513787841796875000e+01 -1.598041415214538574e+00 7.241811752319335938e+00 2.974326848983764648e+00 3.064841508865356445e+00 4.169023990631103516e+00
2.120000000000000000e+02 1.501009368896484375e+01 -1.758981227874755859e+00 6.686018466949462891e+00 3.322357416152954102e+00 3.002512693405151367e+00 3.705892324447631836e+00
2.130000000000000000e+02 1.445465183258056641e+01 -2.020479202270507812e+00 5.323593139648437500e+00 1.532808184623718262e+00 2.056920528411865234e+00 2.568918228149414062e+00
2.140000000000000000e+02 1.695684051513671875e+01 -1.292647480964660645e+00 1.161535739898681641e+01 1.277842140197753906e+01 7.318133831024169922e+00 -3.530893325805664062e+00
2.150000000000000000e+02 1.429186439514160156e+01 -1.135975122451782227e+00 2.989576339721679688e+00 -3.716729953885078430e-02 8.857226967811584473e-01 2.466592043638229370e-01
2.160000000000000000e+02 1.641775512695312500e+01 -1.929169416427612305e+00 5.230096340179443359e+00 1.451402664184570312e+01 5.923236846923828125e+00 -4.869763255119323730e-01
2.170000000000000000e+02 1.503306865692138672e+01 6.671473979949951172e-01 2.531163215637207031e+00 5.679189205169677734e+00 2.463105678558349609e+00 -4.871163368225097656e+00
2.180000000000000000e+02 1.462539768218994141e+01 4.984590113162994385e-01 2.456689119338989258e+00 3.033281564712524414e+00 1.646991252899169922e+00 -3.637856006622314453e+00
2.190000000000000000e+02 1.366437053680419922e+01 8.422712087631225586e-01 1.139310121536254883e+00 1.569667935371398926e+00 8.126934170722961426e-01 -2.187737226486206055e+00
2.200000000000000000e+02 1.346897983551025391e+01 8.642709851264953613e-01 7.509749531745910645e-01 1.258960247039794922e+00 6.029805541038513184e-01 -1.786546826362609863e+00
2.210000000000000000e+02 1.522069549560546875e+01 4.137753248214721680e-01 3.060900211334228516e+00 6.525585651397705078e+00 2.875945806503295898e+00 -5.380466461181640625e+00
2.220000000000000000e+02 1.500960159301757812e+01 4.623821079730987549e-01 2.958243846893310547e+00 4.844121456146240234e+00 2.340709447860717773e+00 -4.763362884521484375e+00
2.230000000000000000e+02 1.594538974761962891e+01 1.930612176656723022e-01 2.488039731979370117e+00 1.493273925781250000e+01 5.226233482360839844e+00 -4.701762676239013672e+00
2.240000000000000000e+02 1.563676357269287109e+01 5.997509360313415527e-01 1.684722065925598145e+00 9.926797866821289062e+00 3.483455896377563477e+00 -5.109875202178955078e+00
2.250000000000000000e+02 1.310315227508544922e+01 -1.629204303026199341e-01 -1.184607863426208496e+00 -1.905093714594841003e-02 -3.610976636409759521e-01 -4.696707800030708313e-02
2.260000000000000000e+02 1.407384872436523438e+01 -4.807310998439788818e-01 -5.665526390075683594e-01 1.974868960678577423e-02 -1.640411913394927979e-01 -7.711636275053024292e-02
2.270000000000000000e+02 1.429622840881347656e+01 -2.533060610294342041e-01 8.847643733024597168e-01 3.409724235534667969e-01 3.677210509777069092e-01 -8.762863278388977051e-01
2.280000000000000000e+02 1.467217063903808594e+01 -5.643489956855773926e-01 4.488636553287506104e-01 1.295127719640731812e-01 1.735129356384277344e-01 -3.230209350585937500e-01
2.290000000000000000e+02 1.472473049163818359e+01 -3.388038873672485352e-01 2.162916421890258789e+00 5.260151624679565430e-01 8.066794872283935547e-01 -1.434292674064636230e+00
2.300000000000000000e+02 1.327161884307861328e+01 -1.683362722396850586e+00 3.072100877761840820e+00 1.168012619018554688e-01 9.566706418991088867e-01 6.347808837890625000e-01
2.310000000000000000e+02 1.404576492309570312e+01 -8.236445784568786621e-01 1.314684867858886719e+00 -9.003908932209014893e-02 3.673937022686004639e-01 -1.112850084900856018e-01
2.320000000000000000e+02 1.383034229278564453e+01 -8.045867085456848145e-01 1.257410407066345215e+00 -3.060851618647575378e-02 3.680405616760253906e-01 -4.292906820774078369e-02
2.330000000000000000e+02 1.425473022460937500e+01 -2.014072656631469727e+00 4.956596374511718750e+00 1.118511676788330078e+00 1.822532415390014648e+00 2.154750347137451172e+00
2.340000000000000000e+02 1.322966575622558594e+01 -6.446748375892639160e-01 8.850710391998291016e-01 3.776654973626136780e-02 2.768512666225433350e-01 -2.694614604115486145e-02
2.350000000000000000e+02 1.314585590362548828e+01 -1.010590910911560059e+00 1.628961563110351562e+00 -8.492257446050643921e-03 4.861407876014709473e-01 1.516699790954589844e-02
2.360000000000000000e+02 1.386274528503417969e+01 -1.971174120903015137e+00 4.148686885833740234e+00 5.689767003059387207e-01 1.415299057960510254e+00 1.410964488983154297e+00
2.370000000000000000e+02 1.405850315093994141e+01 -1.999305605888366699e+00 4.555897712707519531e+00 8.572088479995727539e-01 1.623932003974914551e+00 1.832133650779724121e+00
2.380000000000000000e+02 1.466915035247802734e+01 -2.017739534378051758e+00 5.695409297943115234e+00 2.267753839492797852e+00 2.388948917388916016e+00 3.074534654617309570e+00
2.390000000000000000e+02 1.490759086608886719e+01 -2.042656660079956055e+00 5.950189590454101562e+00 3.266253471374511719e+00 2.764932870864868164e+00 3.762055635452270508e+00
2.400000000000000000e+02 1.424685668945312500e+01 -1.750220894813537598e+00 4.755493164062500000e+00 7.010360956192016602e-01 1.636958837509155273e+00 1.636923193931579590e+00
2.410000000000000000e+02 1.532426071166992188e+01 -1.894608616828918457e+00 6.424581050872802734e+00 6.347137928009033203e+00 3.831515789031982422e+00 4.920736312866210938e+00
2.420000000000000000e+02 1.531155300140380859e+01 -2.179538965225219727e+00 5.333961009979248047e+00 6.817601203918457031e+00 3.645468711853027344e+00 4.625427246093750000e+00
2.430000000000000000e+02 1.483939266204833984e+01 -1.580323934555053711e+00 6.332642078399658203e+00 1.390220403671264648e+00 2.316858768463134766e+00 2.585831403732299805e+00
2.440000000000000000e+02 1.346265411376953125e+01 -1.898593425750732422e+00 3.619664907455444336e+00 3.065642714500427246e-01 1.177868723869323730e+00 1.008533954620361328e+00
2.450000000000000000e+02 1.365570068359375000e+01 6.398009657859802246e-01 9.984484910964965820e-01 1.177381157875061035e+00 6.527488827705383301e-01 -1.735110640525817871e+00
2.460000000000000000e+02 1.318103981018066406e+01 2.355215698480606079e-01 -1.661532074213027954e-01 3.339408338069915771e-01 5.033629015088081360e-02 -6.416056156158447266e-01
2.470000000000000000e+02 1.323114490509033203e+01 4.405293762683868408e-01 3.078415691852569580e-01 5.359538793563842773e-01 2.531386315822601318e-01 -9.524909257888793945e-01
2.480000000000000000e+02 1.295627021789550781e+01 -1.225682139396667480e+00 1.932477355003356934e+00 -1.850208453834056854e-02 5.741925835609436035e-01 1.365568339824676514e-01
2.490000000000000000e+02 1.473931407928466797e+01 -1.325642466545104980e+00 5.257052898406982422e+00 5.450828075408935547e-01 1.740640759468078613e+00 1.223107933998107910e+00
2.500000000000000000e+02 1.445592689514160156e+01 -8.186421990394592285e-01 1.360233306884765625e+00 -6.132890284061431885e-02 3.896713256835937500e-01 -1.385801434516906738e-01
2.510000000000000000e+02 1.422887897491455078e+01 2.696083486080169678e-01 1.815702795982360840e+00 1.291648864746093750e+00 9.322054982185363770e-01 -2.137059450149536133e+00
2.520000000000000000e+02 1.425056743621826172e+01 7.584401369094848633e-01 1.819117665290832520e+00 2.460087537765502930e+00 1.283761620521545410e+00 -3.069496870040893555e+00
2.530000000000000000e+02 1.384521102905273438e+01 5.896253585815429688e-01 1.304740548133850098e+00 1.371349453926086426e+00 8.028270006179809570e-01 -2.076220750808715820e+00
2.540000000000000000e+02 1.443266773223876953e+01 5.089665055274963379e-01 2.226664543151855469e+00 2.371460437774658203e+00 1.379437565803527832e+00 -3.131902217864990234e+00
2.550000000000000000e+02 1.386014175415039062e+01 8.123770952224731445e-01 1.385642051696777344e+00 1.682838916778564453e+00 9.205442667007446289e-01 -2.330381393432617188e+00
2.560000000000000000e+02 1.404274749755859375e+01 5.498326420783996582e-01 1.579733490943908691e+00 1.547412991523742676e+00 9.381439685821533203e-01 -2.342294931411743164e+00
2.570000000000000000e+02 1.363240718841552734e+01 -1.393642872571945190e-01 -2.643597126007080078e-01 1.809310913085937500e-01 -2.502858638763427734e-02 -3.920800983905792236e-01
2.580000000000000000e+02 1.361845779418945312e+01 -7.591031193733215332e-01 1.149413824081420898e+00 2.858486492186784744e-03 3.456816971302032471e-01 -2.070132456719875336e-02
2.590000000000000000e+02 1.464011669158935547e+01 -1.681830286979675293e+00 5.800769329071044922e+00 1.300221800804138184e+00 2.130297183990478516e+00 2.353046417236328125e+00
2.600000000000000000e+02 1.366532897949218750e+01 -1.920233249664306641e+00 3.816896438598632812e+00 3.600625097751617432e-01 1.253087639808654785e+00 1.187739729881286621e+00
2.610000000000000000e+02 1.293137359619140625e+01 -1.437651395797729492e+00 2.275810480117797852e+00 -1.093225833028554916e-02 6.794634461402893066e-01 2.721274793148040771e-01
2.620000000000000000e+02 1.326097011566162109e+01 -1.903902292251586914e+00 3.299372196197509766e+00 2.349652796983718872e-01 1.060301303863525391e+00 9.307337999343872070e-01
2.630000000000000000e+02 1.313830852508544922e+01 3.592948988080024719e-02 -5.146036148071289062e-01 2.018527388572692871e-01 -9.382527321577072144e-02 -3.342391550540924072e-01
2.640000000000000000e+02 1.297356319427490234e+01 -1.020465612411499023e+00 1.588254690170288086e+00 5.698470398783683777e-03 4.781859517097473145e-01 2.449972741305828094e-02
2.650000000000000000e+02 1.488973331451416016e+01 1.536796838045120239e-01 3.434763908386230469e+00 3.087937831878662109e+00 1.956810593605041504e+00 -3.856136560440063477e+00
2.660000000000000000e+02 1.486567497253417969e+01 -1.041127324104309082e+00 3.789718389511108398e+00 2.298588156700134277e-01 1.205873131752014160e+00 2.862970829010009766e-01
2.670000000000000000e+02 1.436430168151855469e+01 -1.433925509452819824e+00 4.509385585784912109e+00 3.441287279129028320e-01 1.456054329872131348e+00 9.998571276664733887e-01
2.680000000000000000e+02 1.401809692382812500e+01 3.035731017589569092e-01 1.372436761856079102e+00 1.084959626197814941e+00 7.372189164161682129e-01 -1.834659218788146973e+00
2.690000000000000000e+02 1.426527309417724609e+01 6.394762545824050903e-03 1.555492758750915527e+00 8.053434491157531738e-01 7.082508802413940430e-01 -1.608100891113281250e+00
2.700000000000000000e+02 1.381601810455322266e+01 -6.343555450439453125e-02 2.222507297992706299e-01 3.086079657077789307e-01 1.592576056718826294e-01 -6.559513807296752930e-01
2.710000000000000000e+02 1.475351047515869141e+01 -1.422519683837890625e-01 2.901887178421020508e+00 1.228223443031311035e+00 1.239033222198486328e+00 -2.348423719406127930e+00
2.720000000000000000e+02 1.330446338653564453e+01 -9.246346950531005859e-01 1.445482850074768066e+00 4.874583333730697632e-02 4.482685923576354980e-01 -1.092729903757572174e-02
2.730000000000000000e+02 1.374776935577392578e+01 -1.174059629440307617e+00 2.493628978729248047e+00 -9.303365834057331085e-03 7.452976703643798828e-01 1.375812888145446777e-01
2.740000000000000000e+02 1.445478153228759766e+01 5.545740202069282532e-02 2.216178894042968750e+00 1.190772891044616699e+00 1.022085547447204590e+00 -2.094696521759033203e+00
2.750000000000000000e+02 1.443369865417480469e+01 -1.722422361373901367e+00 5.209034442901611328e+00 9.073097109794616699e-01 1.834903240203857422e+00 1.883104205131530762e+00
2.760000000000000000e+02 1.343713951110839844e+01 -1.644942760467529297e+00 3.179537057876586914e+00 1.748189777135848999e-01 1.006306767463684082e+00 6.590226292610168457e-01
2.770000000000000000e+02 1.376779460906982422e+01 1.440237760543823242e-01 6.699161529541015625e-01 5.565115809440612793e-01 3.679283261299133301e-01 -1.123864531517028809e+00
2.780000000000000000e+02 1.443058586120605469e+01 2.789810597896575928e-01 2.240416049957275391e+00 1.718130826950073242e+00 1.187564015388488770e+00 -2.704961538314819336e+00
2.790000000000000000e+02 1.408525943756103516e+01 -1.155337810516357422e+00 2.848830938339233398e+00 3.639102354645729065e-02 8.655665516853332520e-01 2.867413759231567383e-01
2.800000000000000000e+02 1.339249324798583984e+01 1.386549770832061768e-01 -3.076318651437759399e-03 3.252137303352355957e-01 9.664122015237808228e-02 -6.619438529014587402e-01
2.810000000000000000e+02 1.358832359313964844e+01 4.655418097972869873e-01 7.543088197708129883e-01 9.317706823348999023e-01 5.058238506317138672e-01 -1.436364531517028809e+00
2.820000000000000000e+02 1.462715435028076172e+01 2.806668281555175781e-01 2.712280511856079102e+00 2.434519529342651367e+00 1.544040083885192871e+00 -3.261139392852783203e+00
2.830000000000000000e+02 1.309580421447753906e+01 -1.665664196014404297e+00 2.871337890625000000e+00 1.091879457235336304e-01 8.941577076911926270e-01 6.203809380531311035e-01
2.840000000000000000e+02 1.316506767272949219e+01 -1.207154631614685059e+00 2.002161502838134766e+00 3.132316842675209045e-02 6.100454330444335938e-01 1.311569958925247192e-01
2.850000000000000000e+02 1.374560070037841797e+01 -1.645176172256469727e+00 3.632091522216796875e+00 2.125857919454574585e-01 1.153403162956237793e+00 8.022196292877197266e-01
2.860000000000000000e+02 1.314223003387451172e+01 -1.438199996948242188e+00 2.449650764465332031e+00 2.418318763375282288e-02 7.421501874923706055e-01 2.678403258323669434e-01
2.870000000000000000e+02 1.316843795776367188e+01 -8.429368734359741211e-01 1.193166971206665039e+00 7.777163758873939514e-03 3.602832257747650146e-01 -3.065159916877746582e-02
2.880000000000000000e+02 1.300129032135009766e+01 -8.189820647239685059e-01 1.139986753463745117e+00 2.072032727301120758e-02 3.482120931148529053e-01 -1.215602178126573563e-02
2.890000000000000000e+02 1.512580490112304688e+01 -2.111389875411987305e+00 5.808718681335449219e+00 5.251547336578369141e+00 3.318079710006713867e+00 4.577472686767578125e+00
2.900000000000000000e+02 1.571772384643554688e+01 -1.898891329765319824e+00 5.189692020416259766e+00 1.163739776611328125e+01 5.048126697540283203e+00 4.727516651153564453e+00
2.910000000000000000e+02 1.565690994262695312e+01 -2.257588148117065430e+00 4.718466758728027344e+00 8.426918983459472656e+00 3.943615674972534180e+00 4.109332561492919922e+00
2.920000000000000000e+02 1.591146278381347656e+01 -1.926900267601013184e+00 4.224782943725585938e+00 1.365847015380859375e+01 5.364975929260253906e+00 4.311052322387695312e+00
2.930000000000000000e+02 1.345474910736083984e+01 -1.310245394706726074e+00 2.531336784362792969e+00 1.350809261202812195e-02 7.634534835815429688e-01 2.061451077461242676e-01
2.940000000000000000e+02 1.355912780761718750e+01 -1.080809235572814941e+00 1.950774431228637695e+00 -6.615039310418069363e-04 5.850338935852050781e-01 4.699808359146118164e-02
2.950000000000000000e+02 1.392473316192626953e+01 -1.292894721031188965e+00 3.021133422851562500e+00 2.480576746165752411e-02 9.137817621231079102e-01 3.210946321487426758e-01
2.960000000000000000e+02 1.467830848693847656e+01 -1.074263691902160645e+00 3.480130910873413086e+00 -6.890317052602767944e-02 1.023368239402770996e+00 2.162443697452545166e-01
2.970000000000000000e+02 1.465203762054443359e+01 -8.227378129959106445e-01 1.389381647109985352e+00 1.174397468566894531e-01 4.520464241504669189e-01 -1.282870024442672729e-01
2.980000000000000000e+02 1.333116817474365234e+01 -3.752002492547035217e-02 -4.992517232894897461e-01 1.494840979576110840e-01 -1.049302816390991211e-01 -3.821193277835845947e-01
2.990000000000000000e+02 1.328242206573486328e+01 -2.012096643447875977e-01 -1.044817686080932617e+00 9.733574837446212769e-02 -2.842445671558380127e-01 -1.088892370462417603e-01
3.000000000000000000e+02 1.346541786193847656e+01 -4.081975221633911133e-01 -1.289317488670349121e+00 5.105691775679588318e-02 -3.714781701564788818e-01 4.580479487776756287e-02
3.010000000000000000e+02 1.366699504852294922e+01 -4.096926152706146240e-01 -1.049480319023132324e+00 3.069087304174900055e-02 -3.056368529796600342e-01 -2.236831933259963989e-02
3.020000000000000000e+02 1.427004528045654297e+01 -5.045299530029296875e-01 -2.914391756057739258e-01 1.187301427125930786e-01 -5.181271210312843323e-02 -1.491806507110595703e-01
3.030000000000000000e+02 1.446922588348388672e+01 -5.311027765274047852e-01 4.150654748082160950e-02 5.460191890597343445e-02 2.883253991603851318e-02 -2.511090636253356934e-01
3.040000000000000000e+02 1.456753063201904297e+01 -8.853965252637863159e-02 2.239726543426513672e+00 9.601591825485229492e-01 9.599657654762268066e-01 -1.985943317413330078e+00
3.050000000000000000e+02 1.405578422546386719e+01 7.836521267890930176e-01 1.560713768005371094e+00 2.104941368103027344e+00 1.099696516990661621e+00 -2.682695388793945312e+00
3.060000000000000000e+02 1.423880672454833984e+01 5.229005217552185059e-01 1.850657463073730469e+00 1.932104229927062988e+00 1.134828448295593262e+00 -2.712903738021850586e+00
3.070000000000000000e+02 1.444519042968750000e+01 7.361885905265808105e-01 1.983940243721008301e+00 2.971881151199340820e+00 1.486746430397033691e+00 -3.465128421783447266e+00
3.080000000000000000e+02 1.481568527221679688e+01 4.880207777023315430e-01 2.751391410827636719e+00 3.823035955429077148e+00 1.972328186035156250e+00 -4.105474948883056641e+00
3.090000000000000000e+02 1.483534336090087891e+01 6.933053135871887207e-01 2.383831739425659180e+00 4.458707809448242188e+00 2.052761793136596680e+00 -4.370339870452880859e+00
3.100000000000000000e+02 1.523391246795654297e+01 6.384998559951782227e-01 2.401973247528076172e+00 7.002722263336181641e+00 2.821408510208129883e+00 -5.181923866271972656e+00
3.110000000000000000e+02 1.533563041687011719e+01 8.007950335741043091e-02 4.165732860565185547e+00 6.420650005340576172e+00 3.175914764404296875e+00 -5.908007144927978516e+00
3.120000000000000000e+02 1.515811061859130859e+01 2.103741466999053955e-01 3.704142093658447266e+00 5.352464199066162109e+00 2.716981887817382812e+00 -5.244883537292480469e+00
3.130000000000000000e+02 1.688255310058593750e+01 -1.716238707304000854e-01 7.611871242523193359e+00 1.456031417846679688e+01 6.651655673980712891e+00 1.797079205513000488e+00
3.140000000000000000e+02 1.618506050109863281e+01 1.703753024339675903e-01 3.021137714385986328e+00 1.637632942199707031e+01 5.819240093231201172e+00 -2.056327342987060547e+00
3.150000000000000000e+02 1.597364711761474609e+01 3.342595994472503662e-01 2.110334634780883789e+00 1.417271804809570312e+01 4.884915828704833984e+00 -4.429343223571777344e+00
3.160000000000000000e+02 1.587160778045654297e+01 2.760880291461944580e-01 2.096739530563354492e+00 1.330767536163330078e+01 4.621324539184570312e+00 -5.082781314849853516e+00
3.170000000000000000e+02 1.563013362884521484e+01 4.175611436367034912e-01 2.396294832229614258e+00 1.063199996948242188e+01 3.908488273620605469e+00 -5.690428733825683594e+00
3.180000000000000000e+02 1.380206966400146484e+01 3.661281168460845947e-01 9.204263687133789062e-01 8.510556221008300781e-01 5.314446091651916504e-01 -1.522772312164306641e+00
3.190000000000000000e+02 1.504124164581298828e+01 4.899211972951889038e-02 3.979201316833496094e+00 3.384311437606811523e+00 2.209053754806518555e+00 -4.434811592102050781e+00
3.200000000000000000e+02 1.497490215301513672e+01 2.855959534645080566e-01 3.340993642807006836e+00 4.100426673889160156e+00 2.232426166534423828e+00 -4.491369724273681641e+00
3.210000000000000000e+02 1.480997943878173828e+01 2.960295677185058594e-01 2.985926389694213867e+00 3.176690340042114258e+00 1.848785042762756348e+00 -3.875763416290283203e+00
3.220000000000000000e+02 1.408604240417480469e+01 -1.369500279426574707e+00 3.755804061889648438e+00 8.702441304922103882e-02 1.152848482131958008e+00 4.792051315307617188e-01
3.230000000000000000e+02 1.588959026336669922e+01 4.351136982440948486e-01 1.638386487960815430e+00 1.250977706909179688e+01 4.244449138641357422e+00 -4.863922119140625000e+00
3.240000000000000000e+02 1.577028560638427734e+01 3.668167293071746826e-01 2.160064697265625000e+00 1.228166389465332031e+01 4.332518577575683594e+00 -5.263479709625244141e+00
3.250000000000000000e+02 1.336878967285156250e+01 -1.119132757186889648e+00 1.906242728233337402e+00 7.659391965717077255e-03 5.741706490516662598e-01 6.145723164081573486e-02
3.260000000000000000e+02 1.406757354736328125e+01 -1.758807659149169922e+00 4.347151756286621094e+00 4.664344787597656250e-01 1.444075822830200195e+00 1.318927049636840820e+00
3.270000000000000000e+02 1.360394001007080078e+01 -1.469161510467529297e+00 3.133575677871704102e+00 7.726347446441650391e-02 9.632517695426940918e-01 5.452841520309448242e-01
3.280000000000000000e+02 1.332244110107421875e+01 -1.490778565406799316e+00 2.776432275772094727e+00 4.051097854971885681e-02 8.450829982757568359e-01 4.192831516265869141e-01
3.290000000000000000e+02 1.455286502838134766e+01 -1.386897444725036621e+00 4.829526901245117188e+00 2.538281679153442383e-01 1.525006532669067383e+00 1.092373967170715332e+00
3.300000000000000000e+02 1.420025920867919922e+01 -1.504168033599853516e+00 4.224211215972900391e+00 2.667640149593353271e-01 1.347292542457580566e+00 9.305320978164672852e-01
3.310000000000000000e+02 1.389511203765869141e+01 -1.532835483551025391e+00 3.645575046539306641e+00 1.008110120892524719e-01 1.123915791511535645e+00 7.796978950500488281e-01
3.320000000000000000e+02 1.389729309082031250e+01 -1.740282893180847168e+00 4.093634128570556641e+00 3.938157856464385986e-01 1.346234917640686035e+00 1.186556458473205566e+00
3.330000000000000000e+02 1.358064270019531250e+01 1.139859184622764587e-01 2.843641936779022217e-01 4.654496610164642334e-01 2.249441593885421753e-01 -8.473255038261413574e-01
3.340000000000000000e+02 1.394529628753662109e+01 -2.098203152418136597e-01 6.821782141923904419e-02 1.927257627248764038e-01 7.828307896852493286e-02 -5.651781558990478516e-01
3.350000000000000000e+02 1.491418266296386719e+01 -9.177165478467941284e-02 3.577717304229736328e+00 2.121066331863403320e+00 1.709635138511657715e+00 -3.223759651184082031e+00
3.360000000000000000e+02 1.478906536102294922e+01 2.235065400600433350e-02 3.148823499679565430e+00 2.175469875335693359e+00 1.597288012504577637e+00 -3.247688770294189453e+00
3.370000000000000000e+02 1.394868755340576172e+01 8.699153363704681396e-02 9.956791400909423828e-01 5.724458694458007812e-01 4.704374969005584717e-01 -1.230192661285400391e+00
3.380000000000000000e+02 1.407836627960205078e+01 -6.112712249159812927e-02 9.469541311264038086e-01 5.395351052284240723e-01 4.459467530250549316e-01 -1.105525851249694824e+00
3.390000000000000000e+02 1.462319946289062500e+01 7.898510992527008057e-02 2.886403322219848633e+00 1.817522048950195312e+00 1.411177635192871094e+00 -2.866323232650756836e+00
3.400000000000000000e+02 1.112541198730468750e+01 8.755590021610260010e-02 -2.300894260406494141e+00 -4.086204618215560913e-02 -7.025268673896789551e-01 3.203592896461486816e-01
3.410000000000000000e+02 1.043275928497314453e+01 7.018807530403137207e-01 -1.731290817260742188e+00 -5.800707638263702393e-02 -5.367893576622009277e-01 3.805576264858245850e-02
3.420000000000000000e+02 1.039113426208496094e+01 2.073199152946472168e-01 -2.587323188781738281e+00 -7.270909100770950317e-02 -7.980096936225891113e-01 3.024891912937164307e-01
3.430000000000000000e+02 1.261664295196533203e+01 2.916163504123687744e-01 -8.615448474884033203e-01 1.249978765845298767e-01 -2.209641039371490479e-01 -3.427538275718688965e-01
3.440000000000000000e+02 1.285406112670898438e+01 -9.183140844106674194e-02 -1.106193900108337402e+00 1.559207886457443237e-01 -2.850819230079650879e-01 -5.266144126653671265e-02
3.450000000000000000e+02 1.291294765472412109e+01 2.909747958183288574e-01 -4.414370059967041016e-01 3.730948269367218018e-01 -2.050265856087207794e-02 -4.994403421878814697e-01
3.460000000000000000e+02 1.291342830657958984e+01 5.049982070922851562e-01 -8.806742727756500244e-02 4.856235980987548828e-01 1.192668452858924866e-01 -8.838340044021606445e-01
3.470000000000000000e+02 1.292470550537109375e+01 7.161047458648681641e-01 1.561917662620544434e-01 4.724358022212982178e-01 1.885882616043090820e-01 -1.034584045410156250e+00
3.480000000000000000e+02 1.252264213562011719e+01 8.099142313003540039e-01 -1.596053540706634521e-01 6.035286784172058105e-01 1.331769973039627075e-01 -8.378301858901977539e-01
3.490000000000000000e+02 1.047847557067871094e+01 1.194054007530212402e+00 -1.050669670104980469e+00 8.251277357339859009e-02 -2.904470562934875488e-01 -1.230761632323265076e-01
3.500000000000000000e+02 1.123143291473388672e+01 1.074634194374084473e+00 -8.703989386558532715e-01 2.381885945796966553e-01 -1.896630972623825073e-01 -3.469097018241882324e-01
3.510000000000000000e+02 1.185170269012451172e+01 4.613502323627471924e-01 -1.186605215072631836e+00 1.263003945350646973e-01 -3.180914521217346191e-01 -1.432421952486038208e-01
3.520000000000000000e+02 1.286626815795898438e+01 9.445174932479858398e-01 2.334173470735549927e-01 7.368594408035278320e-01 2.910830378532409668e-01 -1.205188393592834473e+00
3.530000000000000000e+02 1.290708160400390625e+01 8.919702470302581787e-02 -7.402257919311523438e-01 1.695470660924911499e-01 -1.712036132812500000e-01 -2.128252983093261719e-01
3.540000000000000000e+02 1.235228347778320312e+01 -2.859321050345897675e-02 -1.665206789970397949e+00 -3.554113209247589111e-02 -5.102243423461914062e-01 1.170123293995857239e-01
3.550000000000000000e+02 1.254474830627441406e+01 5.180955529212951660e-01 -5.862088203430175781e-01 3.646217584609985352e-01 -6.647612154483795166e-02 -5.810741186141967773e-01
3.560000000000000000e+02 1.196574592590332031e+01 9.483561515808105469e-01 -5.341352820396423340e-01 4.180209040641784668e-01 -3.483431413769721985e-02 -5.981284976005554199e-01
3.570000000000000000e+02 1.182724285125732422e+01 -2.954006567597389221e-02 -2.079408168792724609e+00 -1.671000197529792786e-02 -6.288354396820068359e-01 2.616879642009735107e-01
3.580000000000000000e+02 1.116777706146240234e+01 5.837105512619018555e-01 -1.540235996246337891e+00 9.069272875785827637e-02 -4.348629713058471680e-01 -2.149393968284130096e-02
3.590000000000000000e+02 1.269843959808349609e+01 -2.870124280452728271e-01 -1.833358883857727051e+00 9.411564096808433533e-03 -5.471841692924499512e-01 2.619060873985290527e-01
3.600000000000000000e+02 1.265723133087158203e+01 7.040411978960037231e-02 -1.009960532188415527e+00 1.791913062334060669e-01 -2.492307722568511963e-01 -1.547753065824508667e-01
3.610000000000000000e+02 1.232481479644775391e+01 3.381346464157104492e-01 -1.044223785400390625e+00 1.853671669960021973e-01 -2.576569914817810059e-01 -2.256495505571365356e-01
3.620000000000000000e+02 9.132082939147949219e+00 1.193261861801147461e+00 -1.351308226585388184e+00 -4.015035461634397507e-03 -4.065969884395599365e-01 2.212052941322326660e-01
3.630000000000000000e+02 8.840228080749511719e+00 2.987964749336242676e-01 -2.271695137023925781e+00 6.868198979645967484e-04 -6.813024878501892090e-01 8.682256937026977539e-02
3.640000000000000000e+02 9.686349868774414062e+00 8.232618570327758789e-01 -1.704597115516662598e+00 -5.674654990434646606e-02 -5.284031033515930176e-01 1.330892294645309448e-01
3.650000000000000000e+02 9.754327774047851562e+00 1.270761013031005859e+00 -1.100486516952514648e+00 5.634572356939315796e-02 -3.132422566413879395e-01 8.695680648088455200e-02
3.660000000000000000e+02 7.179237365722656250e+00 1.135380983352661133e+00 -1.195445418357849121e+00 3.266525268554687500e-02 -3.488340377807617188e-01 3.047103583812713623e-01
3.670000000000000000e+02 7.495852947235107422e+00 3.693134486675262451e-01 -1.818567156791687012e+00 3.629735484719276428e-02 -5.346809625625610352e-01 1.177120730280876160e-01
3.680000000000000000e+02 4.847290992736816406e+00 1.142972707748413086e+00 -7.212795019149780273e-01 -6.303715985268354416e-03 -2.182749658823013306e-01 3.402041792869567871e-01
3.690000000000000000e+02 5.210728168487548828e+00 4.030893146991729736e-01 -1.009898543357849121e+00 3.985896473750472069e-04 -3.028499782085418701e-01 1.373054981231689453e-01
3.700000000000000000e+02 1.995135307312011719e+00 2.971296906471252441e-01 -1.161595061421394348e-01 -5.803687963634729385e-03 -3.658895567059516907e-02 5.367258191108703613e-02
3.710000000000000000e+02 1.575190782546997070e+00 9.549418687820434570e-01 -1.151538267731666565e-01 -5.365357920527458191e-02 -5.064222216606140137e-02 1.154080256819725037e-01
3.720000000000000000e+02 2.785901308059692383e+00 3.434567153453826904e-01 -3.038533627986907959e-01 -1.944908313453197479e-02 -9.699073433876037598e-02 8.564896136522293091e-02
3.730000000000000000e+02 1.046339988708496094e+00 1.131190419197082520e+00 -6.544537842273712158e-02 -7.250972092151641846e-02 -4.138652607798576355e-02 8.433631807565689087e-02
3.740000000000000000e+02 6.548387408256530762e-01 3.911903500556945801e-01 -6.845720577985048294e-03 -2.690016524866223335e-03 -2.860721200704574585e-03 5.867653526365756989e-03
3.750000000000000000e+02 3.706651031970977783e-01 9.584220647811889648e-01 -1.155785284936428070e-02 -2.488370612263679504e-02 -1.093246787786483765e-02 1.886690407991409302e-02
3.760000000000000000e+02 3.626862764358520508e+00 3.968683779239654541e-01 -5.000978708267211914e-01 -1.040273159742355347e-02 -1.531501859426498413e-01 1.192405000329017639e-01
3.770000000000000000e+02 4.036561965942382812e+00 1.136868357658386230e+00 -5.391443371772766113e-01 -2.522422932088375092e-02 -1.693105697631835938e-01 3.126120567321777344e-01
3.780000000000000000e+02 4.433042049407958984e+00 4.029726684093475342e-01 -7.450295686721801758e-01 -2.092420123517513275e-03 -2.241366058588027954e-01 1.351151764392852783e-01
3.790000000000000000e+02 5.982672214508056641e+00 4.021290540695190430e-01 -1.279479980468750000e+00 -3.996248356997966766e-03 -3.850428462028503418e-01 1.373825967311859131e-01
3.800000000000000000e+02 5.629526615142822266e+00 1.143089294433593750e+00 -8.911376595497131348e-01 -1.673984341323375702e-03 -2.678435146808624268e-01 3.472985923290252686e-01
3.810000000000000000e+02 6.406020164489746094e+00 1.142129063606262207e+00 -1.054564952850341797e+00 5.850429181009531021e-03 -3.146143555641174316e-01 3.380484879016876221e-01
3.820000000000000000e+02 6.751339912414550781e+00 3.953810334205627441e-01 -1.546610832214355469e+00 3.324083518236875534e-03 -4.629860222339630127e-01 1.412369757890701294e-01
3.830000000000000000e+02 7.928299903869628906e+00 1.109313488006591797e+00 -1.338155865669250488e+00 3.753007575869560242e-02 -3.901877403259277344e-01 2.930035293102264404e-01
3.840000000000000000e+02 8.562547683715820312e+00 8.341934084892272949e-01 -1.628376245498657227e+00 -1.604433916509151459e-02 -4.933261871337890625e-01 2.214431315660476685e-01
3.850000000000000000e+02 9.605813026428222656e+00 3.125008344650268555e-01 -2.545536518096923828e+00 -6.606925278902053833e-02 -7.834817171096801758e-01 1.678387969732284546e-01
3.860000000000000000e+02 3.338710546493530273e+00 1.219864130020141602e+00 -3.773817718029022217e-01 -4.675114154815673828e-02 -1.272398680448532104e-01 2.892996966838836670e-01
3.870000000000000000e+02 8.173814773559570312e+00 2.950259149074554443e-01 -2.039525747299194336e+00 -1.262864936143159866e-02 -6.156463027000427246e-01 6.496747583150863647e-02
3.880000000000000000e+02 1.294126987457275391e+00 3.327617943286895752e-01 -2.784234844148159027e-02 -1.656283624470233917e-02 -1.332155521959066391e-02 1.955121383070945740e-02
3.890000000000000000e+02 2.099803686141967773e+00 8.053871989250183105e-01 -1.977457702159881592e-01 -2.171937935054302216e-02 -6.583954393863677979e-02 1.291662752628326416e-01
3.900000000000000000e+02 2.039426565170288086e+00 1.268257498741149902e+00 -1.755758225917816162e-01 -8.545922487974166870e-02 -7.831051945686340332e-02 2.062117159366607666e-01
3.910000000000000000e+02 2.710239648818969727e+00 1.289621114730834961e+00 -2.538882791996002197e-01 -8.236467838287353516e-02 -1.008758842945098877e-01 2.751786410808563232e-01
3.920000000000000000e+02 2.787479400634765625e+00 8.730778098106384277e-01 -3.077147305011749268e-01 -4.059053957462310791e-02 -1.044915840029716492e-01 1.989061981439590454e-01
3.930000000000000000e+02 1.423105835914611816e+00 -5.983378291130065918e-01 -1.348836719989776611e-02 9.220757521688938141e-03 -1.280282740481197834e-03 -3.688666597008705139e-02
3.940000000000000000e+02 7.742224216461181641e+00 -7.604668140411376953e-01 2.249471694231033325e-01 1.438446994870901108e-02 7.179948687553405762e-02 8.803556114435195923e-02
3.950000000000000000e+02 8.938911437988281250e+00 -3.304409384727478027e-01 1.539675742387771606e-01 -2.253169892355799675e-03 4.551431909203529358e-02 1.119661610573530197e-02
3.960000000000000000e+02 8.363977432250976562e+00 -5.906603932380676270e-01 1.830458492040634155e-01 -1.214846502989530563e-02 5.126921460032463074e-02 6.201996654272079468e-02
3.970000000000000000e+02 7.808338165283203125e+00 -2.690362036228179932e-01 4.997796379029750824e-03 -6.071137264370918274e-03 -3.220022190362215042e-04 9.368324652314186096e-03
3.980000000000000000e+02 6.200392246246337891e+00 -7.648649215698242188e-01 4.770478233695030212e-02 1.270862109959125519e-02 1.812401972711086273e-02 5.002777278423309326e-02
3.990000000000000000e+02 5.377789497375488281e+00 -7.659897804260253906e-01 -1.149973552674055099e-02 6.718877237290143967e-03 -1.434257486835122108e-03 2.747171558439731598e-02
4.000000000000000000e+02 3.740298271179199219e+00 -7.850580215454101562e-01 -5.824900791049003601e-02 8.085157722234725952e-03 -1.504915580153465271e-02 -5.602190271019935608e-03
4.010000000000000000e+02 1.896244049072265625e+00 -2.258648574352264404e-01 -7.645456492900848389e-02 -2.499724738299846649e-03 -2.368628792464733124e-02 -4.538166336715221405e-03
4.020000000000000000e+02 1.794227004051208496e+00 -8.069176673889160156e-01 -3.674606978893280029e-02 -4.044460132718086243e-03 -1.223715860396623611e-02 -2.839816734194755554e-02
4.030000000000000000e+02 9.534239768981933594e+00 -7.004409432411193848e-01 3.855359554290771484e-01 4.206224810332059860e-03 1.169226542115211487e-01 7.611683756113052368e-02
4.040000000000000000e+02 9.605977058410644531e+00 -2.501018047332763672e-01 1.641040295362472534e-01 -7.770850788801908493e-03 4.689995199441909790e-02 -7.823406718671321869e-03
4.050000000000000000e+02 7.006165981292724609e+00 -7.658683657646179199e-01 1.177069097757339478e-01 1.702727749943733215e-04 3.536315262317657471e-02 5.747485533356666565e-02
4.060000000000000000e+02 6.231027126312255859e+00 -2.677430808544158936e-01 -9.335158020257949829e-02 1.182769192382693291e-03 -2.765064500272274017e-02 1.232224050909280777e-02
4.070000000000000000e+02 5.358909606933593750e+00 -1.257482528686523438e+00 1.000659540295600891e-01 2.657478302717208862e-02 3.799222037196159363e-02 6.595782190561294556e-02
4.080000000000000000e+02 4.554882526397705078e+00 -7.707033753395080566e-01 -4.036749154329299927e-02 1.165752951055765152e-02 -8.612988516688346863e-03 9.748071432113647461e-03
4.090000000000000000e+02 2.967601060867309570e+00 -8.159039020538330078e-01 -4.527030512690544128e-02 6.710714194923639297e-03 -1.156787760555744171e-02 -2.779033966362476349e-02
4.100000000000000000e+02 2.916714668273925781e+00 -1.282356142997741699e+00 -1.336224284023046494e-02 2.253181114792823792e-02 2.750870306044816971e-03 -2.343575842678546906e-02
4.110000000000000000e+02 1.253518700599670410e+00 -2.535161077976226807e-01 -2.994164638221263885e-02 7.273658178746700287e-03 -6.800396367907524109e-03 -1.508857496082782745e-02
4.120000000000000000e+02 4.465751647949218750e-01 -5.418612360954284668e-01 -3.422642359510064125e-03 -1.089202892035245895e-02 -4.294401500374078751e-03 -6.002995185554027557e-03
4.130000000000000000e+02 7.741975784301757812e-01 -1.132472991943359375e+00 -2.145106904208660126e-02 -2.860339172184467316e-02 -1.501633785665035248e-02 -2.401349507272243500e-02
4.140000000000000000e+02 1.425497412681579590e+00 -1.245025873184204102e+00 -8.393260650336742401e-03 -1.921270391903817654e-03 -3.094359301030635834e-03 -3.901539370417594910e-02
4.150000000000000000e+02 8.603631019592285156e+00 -1.205452799797058105e+00 4.864081442356109619e-01 -9.397195652127265930e-03 1.431032866239547729e-01 1.426152586936950684e-01
4.160000000000000000e+02 9.453383445739746094e+00 -1.210339188575744629e+00 6.699306368827819824e-01 -4.124859813600778580e-03 1.997417360544204712e-01 1.496082544326782227e-01
4.170000000000000000e+02 7.802464962005615234e+00 -1.251430630683898926e+00 3.465965390205383301e-01 1.049525663256645203e-02 1.071275398135185242e-01 1.352155506610870361e-01
4.180000000000000000e+02 6.181401252746582031e+00 -1.257121801376342773e+00 1.610109359025955200e-01 1.803814619779586792e-02 5.371472239494323730e-02 8.325479924678802490e-02
4.190000000000000000e+02 3.718976259231567383e+00 -1.268243789672851562e+00 1.625374332070350647e-02 2.072243764996528625e-02 1.109285466372966766e-02 1.701492699794471264e-03
4.200000000000000000e+02 6.998754501342773438e+00 -1.258277654647827148e+00 2.679902613162994385e-01 2.787391655147075653e-02 8.875925838947296143e-02 1.315667331218719482e-01
4.210000000000000000e+02 4.537205696105957031e+00 -1.260026812553405762e+00 3.631922975182533264e-02 2.484992891550064087e-02 1.835074834525585175e-02 2.741449512541294098e-02
4.220000000000000000e+02 2.150559663772583008e+00 -1.289564967155456543e+00 -1.376416161656379700e-02 -1.797210657969117165e-03 -4.668411798775196075e-03 -3.911726921796798706e-02
4.230000000000000000e+02 2.298886060714721680e+00 -8.701308369636535645e-01 -4.780472069978713989e-02 4.001500550657510757e-03 -1.314096618443727493e-02 -3.434178233146667480e-02
4.240000000000000000e+02 7.047719001770019531e+00 -2.675906717777252197e-01 -4.053565114736557007e-02 2.099585719406604767e-03 -1.153081934899091721e-02 1.842424273490905762e-02
4.250000000000000000e+02 5.402644157409667969e+00 -2.685071825981140137e-01 -1.283282637596130371e-01 2.315380144864320755e-03 -3.780386596918106079e-02 7.340114098042249680e-03
4.260000000000000000e+02 4.573170185089111328e+00 -2.706765830516815186e-01 -1.447942703962326050e-01 7.031749119050800800e-04 -4.322732612490653992e-02 1.565523794852197170e-03
4.270000000000000000e+02 3.748543500900268555e+00 -2.768141925334930420e-01 -1.377214938402175903e-01 5.079606547951698303e-03 -3.979256749153137207e-02 -7.200387306511402130e-03
4.280000000000000000e+02 2.949836730957031250e+00 -2.935477793216705322e-01 -1.156936809420585632e-01 -5.327047780156135559e-03 -3.630622103810310364e-02 -7.268523797392845154e-03
4.290000000000000000e+02 2.266805171966552734e+00 -4.647758603096008301e-01 -6.352256238460540771e-02 5.717754829674959183e-03 -1.734144240617752075e-02 -2.364007569849491119e-02
4.300000000000000000e+02 1.091943645477294922e+01 -1.979613304138183594e+00 1.575612664222717285e+00 5.181651562452316284e-03 4.742383062839508057e-01 4.507403075695037842e-01
4.310000000000000000e+02 3.719107627868652344e+00 -1.993851423263549805e+00 8.496659249067306519e-02 5.706750601530075073e-02 4.261023178696632385e-02 3.514623641967773438e-02
4.320000000000000000e+02 6.087629199028015137e-01 -1.062652206420898438e+01 -2.314941957592964172e-02 3.731589317321777344e-01 1.050028502941131592e-01 6.219716276973485947e-03
4.330000000000000000e+02 1.016959095001220703e+01 -1.628092956542968750e+01 1.104122638702392578e+00 1.565882921218872070e+00 8.010016679763793945e-01 1.870265722274780273e+00
4.340000000000000000e+02 1.146957683563232422e+01 -1.614032936096191406e+01 -1.885319352149963379e+00 9.676918387413024902e-02 -5.365650653839111328e-01 7.760878205299377441e-01
4.350000000000000000e+02 1.282111072540283203e+01 -1.615195846557617188e+01 -4.357890129089355469e+00 -3.146839439868927002e-01 -1.401772260665893555e+00 1.103269338607788086e+00
4.360000000000000000e+02 1.620852470397949219e+01 -1.571742534637451172e+01 -3.217615842819213867e+00 -1.526484191417694092e-01 -1.011079311370849609e+00 9.057059288024902344e-01
4.370000000000000000e+02 1.857651519775390625e+01 -1.422503948211669922e+01 -1.888499498367309570e+00 7.101569175720214844e-01 -3.535027801990509033e-01 3.363127708435058594e-01
4.380000000000000000e+02 1.765640258789062500e+01 -1.424526214599609375e+00 8.530541419982910156e+00 8.887753486633300781e+00 5.225488185882568359e+00 -2.648273468017578125e+00
4.390000000000000000e+02 1.770209503173828125e+01 -2.089878082275390625e+00 6.358327388763427734e+00 9.013211250305175781e+00 4.611461639404296875e+00 -2.971728086471557617e+00
4.400000000000000000e+02 1.673902893066406250e+01 -2.704111576080322266e+00 3.478699207305908203e+00 1.136749267578125000e+01 4.453857421875000000e+00 -5.171776413917541504e-01
4.410000000000000000e+02 1.815117120742797852e+00 -1.050613784790039062e+01 -8.785012364387512207e-02 7.595452070236206055e-01 2.015085220336914062e-01 8.546143025159835815e-02
4.420000000000000000e+02 7.550055980682373047e+00 -1.834242630004882812e+01 3.426027774810791016e+00 9.058385848999023438e+00 3.745323896408081055e+00 4.853169918060302734e+00
4.430000000000000000e+02 5.725262761116027832e-01 -1.768302726745605469e+01 3.867862001061439514e-02 -1.136113166809082031e+00 -3.292303681373596191e-01 -1.637090593576431274e-01
4.440000000000000000e+02 8.285153388977050781e+00 -1.727450752258300781e+01 3.603859901428222656e+00 5.549940586090087891e+00 2.746140241622924805e+00 3.866043567657470703e+00
4.450000000000000000e+02 6.120944023132324219e+00 -2.202227020263671875e+01 9.849773645401000977e-01 1.208294200897216797e+01 3.920375823974609375e+00 2.235074043273925781e+00
4.460000000000000000e+02 6.525248050689697266e+00 -2.080796432495117188e+01 1.351368188858032227e+00 1.202672100067138672e+01 4.013426780700683594e+00 3.591306447982788086e+00
4.470000000000000000e+02 6.435433030128479004e-01 -2.465326690673828125e+01 4.852720722556114197e-02 1.672119736671447754e+00 5.161941051483154297e-01 7.118677496910095215e-01
4.480000000000000000e+02 5.300706863403320312e+00 -2.305795478820800781e+01 9.217550158500671387e-01 9.556531906127929688e+00 3.143486022949218750e+00 1.870132327079772949e+00
4.490000000000000000e+02 7.190514802932739258e-01 -2.897625541687011719e+01 -1.069601997733116150e-01 5.940768718719482422e+00 1.750142574310302734e+00 5.817213058471679688e-01
4.500000000000000000e+02 8.111047744750976562e+00 -2.907852935791015625e+01 -1.940445661544799805e+00 -4.686820507049560547e-01 -7.227383255958557129e-01 1.331556797027587891e+00
4.510000000000000000e+02 6.296238899230957031e+00 -2.693676948547363281e+01 -2.598263919353485107e-01 4.883104324340820312e+00 1.386983394622802734e+00 1.585224717855453491e-01
4.520000000000000000e+02 3.443486213684082031e+00 -2.908919334411621094e+01 -9.888440966606140137e-01 5.128017425537109375e+00 1.241752028465270996e+00 1.453290224075317383e+00
4.530000000000000000e+02 1.040050983428955078e+01 -3.074525642395019531e+01 -4.010265827178955078e+00 -9.122062325477600098e-01 -1.476741552352905273e+00 1.518540978431701660e+00
4.540000000000000000e+02 9.168121337890625000e+00 -3.000987434387207031e+01 -3.301057577133178711e+00 -1.351719617843627930e+00 -1.395833134651184082e+00 1.734549760818481445e+00
4.550000000000000000e+02 7.442028522491455078e+00 -3.029663467407226562e+01 -2.183491230010986328e+00 1.165757894515991211e+00 -3.053200244903564453e-01 4.551405310630798340e-01
4.560000000000000000e+02 3.033627271652221680e+00 -3.758351898193359375e+01 -1.073235943913459778e-01 5.176249027252197266e+00 1.520677566528320312e+00 -4.441927373409271240e-01
4.570000000000000000e+02 8.542137742042541504e-01 -3.723823165893554688e+01 -1.046043112874031067e-01 6.659721374511718750e+00 1.966535210609436035e+00 -2.416132688522338867e-01
4.580000000000000000e+02 5.862809419631958008e-01 -3.187849044799804688e+01 -9.225844591856002808e-02 7.346440315246582031e+00 2.176254510879516602e+00 1.285566389560699463e-01
4.590000000000000000e+02 7.839003086090087891e+00 -3.644989395141601562e+01 -7.037771493196487427e-02 1.621644854545593262e+00 4.653801321983337402e-01 -1.988727003335952759e-01
4.600000000000000000e+02 9.452301025390625000e+00 -3.707243347167968750e+01 -2.243005111813545227e-02 6.930745840072631836e-01 2.011933624744415283e-01 -4.206479713320732117e-02
4.610000000000000000e+02 1.607459640502929688e+01 -3.196945762634277344e+01 -2.677139043807983398e+00 -2.073823809623718262e-01 -8.653563857078552246e-01 4.425916373729705811e-01
4.620000000000000000e+02 8.596022605895996094e+00 -3.121604537963867188e+01 -2.259052753448486328e+00 2.253942489624023438e-01 -6.100975275039672852e-01 3.753559887409210205e-01
4.630000000000000000e+02 1.761536407470703125e+01 -3.871369171142578125e+01 -1.406797468662261963e-01 -5.439404249191284180e-01 -2.053860425949096680e-01 2.400175482034683228e-01
4.640000000000000000e+02 1.883060073852539062e+01 -3.191401481628417969e+01 -2.208200216293334961e+00 -5.216811597347259521e-02 -6.781104803085327148e-01 3.946041688323020935e-02
4.650000000000000000e+02 1.745886039733886719e+01 -3.196882820129394531e+01 -2.483714580535888672e+00 -1.135918647050857544e-01 -7.791919112205505371e-01 2.062266469001770020e-01
4.660000000000000000e+02 2.470604705810546875e+01 -3.784868621826171875e+01 -5.691298246383666992e-01 4.435268342494964600e-01 -3.768090531229972839e-02 2.982977926731109619e-01
4.670000000000000000e+02 2.468476104736328125e+01 -3.509550476074218750e+01 -8.181755542755126953e-01 2.000436484813690186e-01 -1.854395717382431030e-01 2.389213144779205322e-01
4.680000000000000000e+02 2.980580520629882812e+01 -3.097156333923339844e+01 4.350310191512107849e-02 7.555133700370788574e-01 2.397049367427825928e-01 8.484387397766113281e-01
4.690000000000000000e+02 2.419167518615722656e+01 -3.155020141601562500e+01 -1.743756651878356934e+00 -1.087232679128646851e-02 -5.263887047767639160e-01 -1.309051215648651123e-01
4.700000000000000000e+02 2.779475784301757812e+01 -3.906039810180664062e+01 -7.293837070465087891e-01 1.466404676437377930e+00 2.211062759160995483e-01 4.657302200794219971e-01
4.710000000000000000e+02 3.121228599548339844e+01 -3.690089416503906250e+01 -1.218850970268249512e+00 3.134755611419677734e+00 5.747714042663574219e-01 9.289581775665283203e-01
4.720000000000000000e+02 3.107160949707031250e+01 -3.031073188781738281e+01 1.253842830657958984e+00 2.190670013427734375e+00 1.033353924751281738e+00 1.631675720214843750e+00
4.730000000000000000e+02 2.719699668884277344e+01 -3.407445144653320312e+01 -6.867043972015380859e-01 6.592724919319152832e-01 -8.229585364460945129e-03 6.286352276802062988e-01
4.740000000000000000e+02 3.835313034057617188e+01 -3.571842193603515625e+01 -1.683314800262451172e+00 5.353556156158447266e+00 1.101072311401367188e+00 -3.921294510364532471e-01
4.750000000000000000e+02 4.526951980590820312e+01 -3.041919708251953125e+01 -1.087794732302427292e-02 3.350888729095458984e+00 1.002003192901611328e+00 -1.452506065368652344e+00
4.760000000000000000e+02 4.334980010986328125e+01 -2.061156845092773438e+01 6.657061576843261719e-01 4.648211479187011719e+00 1.594175219535827637e+00 -1.645275354385375977e+00
4.770000000000000000e+02 4.434869384765625000e+01 -1.998500442504882812e+01 9.779134988784790039e-01 2.391387224197387695e+00 1.010790228843688965e+00 -1.412529706954956055e+00
4.780000000000000000e+02 4.254516983032226562e+01 -1.771759223937988281e+01 1.691185712814331055e+00 9.404973030090332031e+00 3.328847646713256836e+00 -2.801136732101440430e+00
4.790000000000000000e+02 4.197733688354492188e+01 -1.634905815124511719e+01 1.015362977981567383e+00 1.290615749359130859e+01 4.176455974578857422e+00 -2.482926607131958008e+00
4.800000000000000000e+02 3.530152893066406250e+01 -2.164331245422363281e+01 7.060651183128356934e-01 1.663829803466796875e+01 5.203309059143066406e+00 -6.229529380798339844e-01
4.810000000000000000e+02 3.516288375854492188e+01 -2.035025215148925781e+01 1.461351752281188965e+00 1.453269481658935547e+01 4.798213958740234375e+00 -2.263955116271972656e+00
4.820000000000000000e+02 3.651911926269531250e+01 -2.172685813903808594e+01 1.385797619819641113e+00 1.289713573455810547e+01 4.284880161285400391e+00 -1.008213162422180176e-01
4.830000000000000000e+02 3.538309860229492188e+01 -2.428909492492675781e+01 1.766581058502197266e+00 1.686986160278320312e+01 5.590932846069335938e+00 2.221547842025756836e+00
4.840000000000000000e+02 3.487543869018554688e+01 -2.643057823181152344e+01 2.404706001281738281e+00 1.235665225982666016e+01 4.428407669067382812e+00 3.827178716659545898e+00
4.850000000000000000e+02 3.218851089477539062e+01 -2.943789482116699219e+01 2.011750698089599609e+00 3.629709005355834961e+00 1.692438006401062012e+00 2.694819927215576172e+00
4.860000000000000000e+02 3.408087539672851562e+01 -2.745287132263183594e+01 2.471253633499145508e+00 8.472080230712890625e+00 3.283000230789184570e+00 4.171581268310546875e+00
4.870000000000000000e+02 3.502701950073242188e+01 -3.099181365966796875e+01 -6.692421436309814453e-01 7.060895442962646484e+00 1.917496085166931152e+00 1.067657709121704102e+00
4.880000000000000000e+02 4.192380142211914062e+01 -4.101262664794921875e+01 -1.572558999061584473e+00 4.293745994567871094e+00 8.163561820983886719e-01 -1.692227572202682495e-01
4.890000000000000000e+02 4.616878890991210938e+01 -3.793032073974609375e+01 -9.196874499320983887e-01 3.270805358886718750e+00 7.053353786468505859e-01 -6.884317398071289062e-01
4.900000000000000000e+02 5.306212615966796875e+01 -2.885279464721679688e+01 -6.058534234762191772e-02 1.398391127586364746e-01 2.377613075077533722e-02 -3.993787616491317749e-02
4.910000000000000000e+02 5.305971908569335938e+01 -3.160464286804199219e+01 -5.857719182968139648e-01 7.216598987579345703e-01 4.076639562845230103e-02 -2.753499746322631836e-01
4.920000000000000000e+02 4.616624450683593750e+01 -2.386434364318847656e+01 6.954671740531921387e-01 1.672146320343017578e+00 7.102840542793273926e-01 -1.023368358612060547e+00
4.930000000000000000e+02 4.677941513061523438e+01 -4.088784790039062500e+01 -9.478722214698791504e-01 3.057850599288940430e+00 6.329935193061828613e-01 -2.372469902038574219e-01
4.940000000000000000e+02 4.887075042724609375e+01 -3.557707214355468750e+01 -5.478974580764770508e-01 2.298833847045898438e+00 5.252808928489685059e-01 -8.313159942626953125e-01
4.950000000000000000e+02 5.187073516845703125e+01 -2.955406951904296875e+01 -6.100376322865486145e-02 5.704253315925598145e-01 1.528264731168746948e-01 -2.883211374282836914e-01
4.960000000000000000e+02 5.870587921142578125e+01 -3.798069381713867188e+01 2.201441824436187744e-01 1.939899474382400513e-01 1.242402419447898865e-01 -2.962339222431182861e-01
4.970000000000000000e+02 5.666063690185546875e+01 -3.556483840942382812e+01 -4.244665205478668213e-01 1.610911041498184204e-01 -7.901262491941452026e-02 -5.846646428108215332e-01
4.980000000000000000e+02 5.799860382080078125e+01 -3.270202636718750000e+01 -2.251231908798217773e+00 -1.913434118032455444e-01 -7.327725887298583984e-01 2.099179923534393311e-01
4.990000000000000000e+02 5.665137863159179688e+01 -3.234977340698242188e+01 -1.483392715454101562e+00 -1.722051203250885010e-01 -4.966793656349182129e-01 2.981098890304565430e-01
5.000000000000000000e+02 5.946152114868164062e+01 -3.294804382324218750e+01 -2.762600660324096680e+00 -1.374463438987731934e-01 -8.700141310691833496e-01 -4.312862828373908997e-02
5.010000000000000000e+02 5.674865722656250000e+01 -3.411348342895507812e+01 -1.041786789894104004e+00 4.825285077095031738e-02 -2.980601787567138672e-01 -4.528074562549591064e-01
5.020000000000000000e+02 5.505905914306640625e+01 -3.257067871093750000e+01 -8.776845932006835938e-01 1.995923966169357300e-01 -2.034276574850082397e-01 -5.790563300251960754e-02
5.030000000000000000e+02 6.265502548217773438e+01 -4.099852752685546875e+01 5.051482915878295898e-01 1.591891527175903320e+00 6.291119456291198730e-01 1.503211408853530884e-01
5.040000000000000000e+02 6.709451293945312500e+01 -3.617106246948242188e+01 -5.688382983207702637e-01 4.797324180603027344e+00 1.268545866012573242e+00 7.320232391357421875e-01
5.050000000000000000e+02 6.362520217895507812e+01 -3.164457511901855469e+01 -1.504043698310852051e+00 3.764430433511734009e-02 -4.399197995662689209e-01 -3.510010242462158203e-01
5.060000000000000000e+02 6.240307998657226562e+01 -3.241284179687500000e+01 -2.115045547485351562e+00 -1.297412663698196411e-01 -6.734360456466674805e-01 -5.205043554306030273e-01
5.070000000000000000e+02 6.097422409057617188e+01 -3.290840148925781250e+01 -2.660178661346435547e+00 -3.150001168251037598e-01 -8.925536274909973145e-01 -2.968630194664001465e-01
5.080000000000000000e+02 6.756118011474609375e+01 -3.839701843261718750e+01 -2.628810107707977295e-01 4.519122600555419922e+00 1.276872396469116211e+00 5.251531600952148438e-01
5.090000000000000000e+02 7.178352355957031250e+01 -4.112098693847656250e+01 -2.615411281585693359e-01 7.297496795654296875e+00 2.110786676406860352e+00 -1.266646478325128555e-02
5.100000000000000000e+02 7.934963989257812500e+01 -3.331529998779296875e+01 -5.621684715151786804e-03 1.042593002319335938e+01 3.126092433929443359e+00 -1.969054043292999268e-01
5.110000000000000000e+02 7.814746856689453125e+01 -3.045557212829589844e+01 -1.071655899286270142e-01 9.280167579650878906e+00 2.751900672912597656e+00 -7.329115867614746094e-01
5.120000000000000000e+02 7.942431640625000000e+01 -2.650267982482910156e+01 -2.397746033966541290e-02 7.512453079223632812e+00 2.246542692184448242e+00 -2.717878520488739014e-01
5.130000000000000000e+02 7.831422424316406250e+01 -2.385221481323242188e+01 9.877010434865951538e-02 7.203217506408691406e+00 2.190596103668212891e+00 -5.546256303787231445e-01
5.140000000000000000e+02 7.943991088867187500e+01 -2.235560035705566406e+01 3.910399973392486572e-02 5.950435638427734375e+00 1.796861886978149414e+00 -1.625511646270751953e-01
5.150000000000000000e+02 6.863524627685546875e+01 -1.484231472015380859e+01 9.522228837013244629e-01 1.727696037292480469e+01 5.468754768371582031e+00 -2.232815504074096680e+00
5.160000000000000000e+02 6.881112670898437500e+01 -1.762200355529785156e+01 7.846489548683166504e-02 1.581104850769042969e+01 4.766853809356689453e+00 -3.575483858585357666e-01
5.170000000000000000e+02 6.889693450927734375e+01 -2.173932266235351562e+01 8.553753793239593506e-02 1.486128330230712891e+01 4.484046459197998047e+00 1.166561711579561234e-02
5.180000000000000000e+02 7.059352111816406250e+01 -2.391445732116699219e+01 1.219156742095947266e+00 1.181502914428710938e+01 3.910255670547485352e+00 1.653195619583129883e-01
5.190000000000000000e+02 6.842911529541015625e+01 -2.675996971130371094e+01 1.272341251373291016e+00 1.125811672210693359e+01 3.759137392044067383e+00 2.531373500823974609e+00
5.200000000000000000e+02 6.684929656982421875e+01 -2.901100158691406250e+01 1.137568950653076172e+00 5.027583599090576172e+00 1.849545717239379883e+00 2.145661830902099609e+00
5.210000000000000000e+02 6.734246826171875000e+01 -3.285488128662109375e+01 -1.174169063568115234e+00 5.001424789428710938e+00 1.148176670074462891e+00 9.175608754158020020e-01
5.220000000000000000e+02 6.475377655029296875e+01 -3.082532691955566406e+01 -6.271007657051086426e-01 9.349220991134643555e-01 9.234640747308731079e-02 1.596352159976959229e-01
5.230000000000000000e+02 7.793569946289062500e+01 -4.162488937377929688e+01 1.514601260423660278e-01 1.073431682586669922e+01 3.265733242034912109e+00 4.285974800586700439e-02
5.240000000000000000e+02 7.763626861572265625e+01 -3.685358810424804688e+01 -1.067507863044738770e-01 1.032848548889160156e+01 3.066520452499389648e+00 -2.311777621507644653e-01
5.250000000000000000e+02 7.824181365966796875e+01 -1.696954727172851562e+01 9.495934098958969116e-02 6.333254337310791016e+00 1.928464055061340332e+00 2.566949464380741119e-02
5.260000000000000000e+02 7.938687896728515625e+01 -1.262972354888916016e+01 2.058529667556285858e-02 5.873520851135253906e+00 1.768231868743896484e+00 1.686163991689682007e-01
5.270000000000000000e+02 6.745119476318359375e+01 -1.076215267181396484e+01 1.235014557838439941e+00 9.763134002685546875e+00 3.299444437026977539e+00 -3.295123815536499023e+00
5.280000000000000000e+02 7.815461730957031250e+01 -1.003818798065185547e+01 2.404182031750679016e-02 7.178997039794921875e+00 2.160911560058593750e+00 5.336757898330688477e-01
5.290000000000000000e+02 7.935771179199218750e+01 -5.663651466369628906e+00 -1.813713647425174713e-02 7.997102737426757812e+00 2.393689632415771484e+00 1.942684203386306763e-01
5.300000000000000000e+02 7.322676849365234375e+01 1.327724218368530273e+00 -5.265853404998779297e-01 7.462795734405517578e+00 2.080863237380981445e+00 -2.367533147335052490e-01
5.310000000000000000e+02 6.034617233276367188e+01 7.386085987091064453e+00 2.791716456413269043e-01 2.223721265792846680e+00 7.508678436279296875e-01 -9.646537303924560547e-01
5.320000000000000000e+02 5.316079330444335938e+01 1.659923934936523438e+01 1.603330850601196289e+00 3.107910871505737305e+00 1.413372516632080078e+00 1.067149758338928223e+00
5.330000000000000000e+02 4.816876602172851562e+01 2.404086685180664062e+01 5.450141429901123047e-01 4.347057819366455078e+00 1.467621564865112305e+00 1.069842338562011719e+00
5.340000000000000000e+02 4.154824447631835938e+01 2.828108406066894531e+01 2.597679793834686279e-01 4.686380386352539062e+00 1.483844518661499023e+00 -3.821580410003662109e-01
5.350000000000000000e+02 4.289712905883789062e+01 2.688781356811523438e+01 2.450116276741027832e-01 4.510145187377929688e+00 1.426547050476074219e+00 5.646838992834091187e-02
5.360000000000000000e+02 4.165101242065429688e+01 2.539459037780761719e+01 2.218499593436717987e-02 4.880613803863525391e+00 1.470839619636535645e+00 6.565678119659423828e-02
5.370000000000000000e+02 4.281081008911132812e+01 1.690799331665039062e+01 4.997164309024810791e-01 7.197899341583251953e+00 2.309284687042236328e+00 1.320999622344970703e+00
5.380000000000000000e+02 4.863472366333007812e+01 1.167570972442626953e+01 1.987969756126403809e+00 3.268884897232055664e+00 1.577056407928466797e+00 1.951759338378906250e+00
5.390000000000000000e+02 5.868610763549804688e+01 8.236629366874694824e-01 -2.105414628982543945e+00 3.339996039867401123e-01 -5.314245223999023438e-01 -2.745809257030487061e-01
5.400000000000000000e+02 6.052780532836914062e+01 -2.144498825073242188e+00 -2.814484834671020508e+00 -1.382343024015426636e-01 -8.858157396316528320e-01 6.827357411384582520e-01
5.410000000000000000e+02 6.416594696044921875e+01 -4.448577404022216797e+00 7.721248865127563477e-01 3.139415502548217773e+00 1.173462152481079102e+00 -1.639076232910156250e+00
5.420000000000000000e+02 6.504290008544921875e+01 -5.618073463439941406e+00 1.242455124855041504e+00 5.442970275878906250e+00 2.005627632141113281e+00 -2.271985769271850586e+00
5.430000000000000000e+02 6.570259094238281250e+01 -6.887893676757812500e+00 1.002851843833923340e+00 6.623880386352539062e+00 2.288019657135009766e+00 -2.325937509536743164e+00
5.440000000000000000e+02 6.688224792480468750e+01 -9.458083152770996094e+00 1.009163856506347656e+00 8.114388465881347656e+00 2.737065553665161133e+00 -2.874845504760742188e+00
5.450000000000000000e+02 7.807005310058593750e+01 -3.016638278961181641e+00 -6.459114700555801392e-02 8.374998092651367188e+00 2.493122100830078125e+00 3.221752941608428955e-01
5.460000000000000000e+02 7.935620117187500000e+01 2.722998380661010742e+00 -2.077169343829154968e-02 9.005228042602539062e+00 2.695337057113647461e+00 3.979841712862253189e-04
5.470000000000000000e+02 7.268572235107421875e+01 1.072441577911376953e+01 2.145435288548469543e-02 6.366075515747070312e+00 1.916258931159973145e+00 -7.573360204696655273e-01
5.480000000000000000e+02 6.589115142822265625e+01 1.722612571716308594e+01 6.671479940414428711e-01 4.529076099395751953e+00 1.558867216110229492e+00 -4.690847396850585938e-01
5.490000000000000000e+02 5.843954467773437500e+01 2.736404800415039062e+01 4.608880877494812012e-01 4.326210975646972656e+00 1.436129689216613770e+00 5.860915780067443848e-01
5.500000000000000000e+02 5.288939666748046875e+01 3.252225875854492188e+01 -3.084266781806945801e-01 4.236339569091796875e+00 1.178373813629150391e+00 7.483615279197692871e-01
5.510000000000000000e+02 4.066788482666015625e+01 3.112554740905761719e+01 2.425659261643886566e-02 2.319512367248535156e+00 7.031307220458984375e-01 -4.569628536701202393e-01
5.520000000000000000e+02 3.540394210815429688e+01 3.577025604248046875e+01 -2.378506422042846680e+00 -3.819811344146728516e-01 -8.281462192535400391e-01 8.623208999633789062e-01
5.530000000000000000e+02 3.894105148315429688e+01 3.340847396850585938e+01 -7.800709009170532227e-01 1.475400775671005249e-01 -1.897592395544052124e-01 3.163407444953918457e-01
5.540000000000000000e+02 7.807553863525390625e+01 4.016825675964355469e+00 -5.754124000668525696e-02 8.493265151977539062e+00 2.530717372894287109e+00 -1.080558225512504578e-01
5.550000000000000000e+02 7.935783386230468750e+01 8.299092292785644531e+00 -9.492114186286926270e-03 8.491501808166503906e+00 2.544602870941162109e+00 -7.576476037502288818e-02
5.560000000000000000e+02 7.284392547607421875e+01 1.729624748229980469e+01 1.968051493167877197e-01 6.089222431182861328e+00 1.885808229446411133e+00 -4.970722198486328125e-01
5.570000000000000000e+02 6.481118774414062500e+01 2.513566780090332031e+01 4.870596826076507568e-01 4.804441452026367188e+00 1.587450385093688965e+00 1.121800616383552551e-01
5.580000000000000000e+02 5.452210235595703125e+01 3.057114219665527344e+01 2.554764412343502045e-02 4.282165527343750000e+00 1.292314052581787109e+00 7.789186239242553711e-01
5.590000000000000000e+02 4.806969833374023438e+01 3.789103698730468750e+01 -1.178258419036865234e+00 3.768043279647827148e+00 7.769355177879333496e-01 3.592643737792968750e-01
5.600000000000000000e+02 3.996514892578125000e+01 3.976828384399414062e+01 -1.602616906166076660e+00 1.416270971298217773e+00 -5.590377748012542725e-02 6.940912920981645584e-03
5.610000000000000000e+02 4.190353012084960938e+01 3.734542083740234375e+01 -1.505431413650512695e+00 2.328521966934204102e+00 2.469271570444107056e-01 9.424933046102523804e-02
5.620000000000000000e+02 3.500212097167968750e+01 3.946172332763671875e+01 -1.829094052314758301e+00 -7.948384433984756470e-02 -5.725733637809753418e-01 2.147931307554244995e-01
5.630000000000000000e+02 3.890279006958007812e+01 3.538217926025390625e+01 -1.479175686836242676e+00 6.110587716102600098e-01 -2.604350745677947998e-01 2.089024484157562256e-01
5.640000000000000000e+02 3.412023925781250000e+01 3.626025009155273438e+01 -2.435390233993530273e+00 -2.987756729125976562e-01 -8.202497959136962891e-01 7.539728283882141113e-01
5.650000000000000000e+02 3.042618560791015625e+01 3.914228439331054688e+01 -2.256450653076171875e+00 -5.067249536514282227e-01 -8.289526700973510742e-01 1.273021250963211060e-01
5.660000000000000000e+02 2.985701942443847656e+01 3.746060943603515625e+01 -3.048367261886596680e+00 -2.782587110996246338e-01 -9.979878067970275879e-01 1.987802386283874512e-01
5.670000000000000000e+02 2.146681213378906250e+01 3.792428207397460938e+01 -1.814270377159118652e+00 -5.749857518821954727e-04 -5.444536209106445312e-01 -2.629480361938476562e-01
5.680000000000000000e+02 2.251459121704101562e+01 3.608083343505859375e+01 -2.116783142089843750e+00 -4.426852464675903320e-01 -7.678405046463012695e-01 -8.079797029495239258e-01
5.690000000000000000e+02 1.738375663757324219e+01 3.271461868286132812e+01 -7.356408238410949707e-01 1.718936085700988770e+00 2.949885725975036621e-01 -1.361372917890548706e-01
5.700000000000000000e+02 1.643177413940429688e+01 3.154547691345214844e+01 -6.379660367965698242e-01 2.473810672760009766e+00 5.507534146308898926e-01 -2.633087709546089172e-02
5.710000000000000000e+02 1.584670734405517578e+01 2.674113655090332031e+01 3.900186717510223389e-01 5.475442886352539062e+00 1.759638428688049316e+00 1.192135334014892578e+00
5.720000000000000000e+02 1.692115402221679688e+01 2.943142127990722656e+01 2.259068638086318970e-01 2.794219493865966797e+00 9.060379266738891602e-01 7.737845778465270996e-01
5.730000000000000000e+02 7.806666564941406250e+01 1.097490596771240234e+01 2.440745010972023010e-03 7.778892517089843750e+00 2.334399938583374023e+00 -2.569890320301055908e-01
5.740000000000000000e+02 7.935670471191406250e+01 1.664876747131347656e+01 4.384516505524516106e-04 7.350072383880615234e+00 2.205153226852416992e+00 -6.807262450456619263e-02
5.750000000000000000e+02 7.250775146484375000e+01 2.464402389526367188e+01 1.828566342592239380e-01 5.914205074310302734e+00 1.829118490219116211e+00 -1.607985198497772217e-01
5.760000000000000000e+02 6.207063674926757812e+01 2.854230499267578125e+01 3.314313888549804688e-01 4.674412727355957031e+00 1.501753211021423340e+00 3.639255166053771973e-01
5.770000000000000000e+02 5.197206497192382812e+01 3.701724624633789062e+01 -7.908199429512023926e-01 4.293004035949707031e+00 1.050655126571655273e+00 4.485440254211425781e-01
5.780000000000000000e+02 4.779275512695312500e+01 4.093912124633789062e+01 -1.322228789329528809e+00 3.708386898040771484e+00 7.158474326133728027e-01 1.182651221752166748e-01
5.790000000000000000e+02 7.805996704101562500e+01 1.928102874755859375e+01 2.246963605284690857e-02 6.921527385711669922e+00 2.083199024200439453e+00 -1.559027880430221558e-01
5.800000000000000000e+02 7.933056640625000000e+01 2.359999465942382812e+01 5.935717839747667313e-03 6.802580833435058594e+00 2.042554855346679688e+00 -2.566780708730220795e-02
5.810000000000000000e+02 7.251893615722656250e+01 3.163753509521484375e+01 5.841132998466491699e-02 5.963719844818115234e+00 1.806639432907104492e+00 3.617621213197708130e-02
5.820000000000000000e+02 6.289656829833984375e+01 4.057084274291992188e+01 -2.548577785491943359e-01 5.175780773162841797e+00 1.476276874542236328e+00 7.285502552986145020e-02
5.830000000000000000e+02 5.831154632568359375e+01 3.600883102416992188e+01 -3.126738071441650391e-01 4.742187500000000000e+00 1.328854084014892578e+00 3.675336539745330811e-01
5.840000000000000000e+02 7.668354034423828125e+01 2.321835517883300781e+01 5.060347542166709900e-02 6.531197547912597656e+00 1.974540233612060547e+00 -1.352371871471405029e-01
5.850000000000000000e+02 7.923678588867187500e+01 2.918828201293945312e+01 3.514661453664302826e-03 6.680773735046386719e+00 2.005286693572998047e+00 -5.977517575956881046e-04
5.860000000000000000e+02 6.819541931152343750e+01 3.807424163818359375e+01 -8.278165757656097412e-02 5.626027584075927734e+00 1.662973761558532715e+00 7.837071269750595093e-02
5.870000000000000000e+02 5.780644989013671875e+01 4.022673416137695312e+01 -5.240533351898193359e-01 4.796837806701660156e+00 1.281835317611694336e+00 1.558891236782073975e-01
5.880000000000000000e+02 7.920301055908203125e+01 3.201612472534179688e+01 -1.569962361827492714e-03 6.681866645812988281e+00 2.004088878631591797e+00 3.677707863971590996e-03
5.890000000000000000e+02 7.907321929931640625e+01 3.757157897949218750e+01 7.800088729709386826e-03 6.686515331268310547e+00 2.008294582366943359e+00 2.152317902073264122e-03
5.900000000000000000e+02 7.190525817871093750e+01 3.823375320434570312e+01 -2.922269515693187714e-02 6.001587867736816406e+00 1.791709542274475098e+00 3.811208903789520264e-02
5.910000000000000000e+02 7.642621612548828125e+01 3.869974899291992188e+01 -3.666718676686286926e-02 6.429988861083984375e+00 1.917996525764465332e+00 1.201808732002973557e-02
5.920000000000000000e+02 1.815286064147949219e+01 3.769760513305664062e+01 -1.567591547966003418e+00 1.300073266029357910e+00 -8.025547862052917480e-02 -1.261783987283706665e-01
5.930000000000000000e+02 1.242034339904785156e+01 4.124493789672851562e+01 -1.269183158874511719e+00 2.699353218078613281e+00 4.290509819984436035e-01 -9.913720190525054932e-02
5.940000000000000000e+02 2.055019617080688477e+00 3.707677841186523438e+01 -5.086551606655120850e-02 3.749758243560791016e+00 1.109667778015136719e+00 -2.960469126701354980e-01
5.950000000000000000e+02 7.416170239448547363e-01 3.326340103149414062e+01 -2.347321249544620514e-02 3.099978208541870117e+00 9.229514598846435547e-01 -2.143717706203460693e-01
5.960000000000000000e+02 2.174565553665161133e+00 3.018045043945312500e+01 -3.951856866478919983e-02 2.313299655914306641e+00 6.821343302726745605e-01 -7.038897871971130371e-01
5.970000000000000000e+02 6.510635018348693848e-01 2.752497100830078125e+01 8.640535175800323486e-03 1.165163516998291016e+00 3.521412312984466553e-01 -2.512325942516326904e-01
5.980000000000000000e+02 1.865112543106079102e+00 2.582458496093750000e+01 2.156403101980686188e-02 9.880650639533996582e-01 3.028887212276458740e-01 -6.470183730125427246e-01
5.990000000000000000e+02 1.301928997039794922e+01 1.653067779541015625e+01 1.016374588012695312e+00 6.865372657775878906e+00 2.364524126052856445e+00 -1.307162523269653320e+00
6.000000000000000000e+02 1.628563880920410156e+01 1.414003753662109375e+01 7.768875360488891602e-01 9.209896087646484375e+00 2.996035099029541016e+00 -2.573296308517456055e+00
6.010000000000000000e+02 1.533811759948730469e+01 1.828199005126953125e+01 4.850800335407257080e-01 1.052965927124023438e+01 3.304421663284301758e+00 -1.359880685806274414e+00
6.020000000000000000e+02 1.398737621307373047e+01 2.114075660705566406e+01 4.059332609176635742e-01 7.888194084167480469e+00 2.488238334655761719e+00 -7.773737907409667969e-01
6.030000000000000000e+02 1.529138183593750000e+01 2.393520927429199219e+01 2.606014311313629150e-01 8.325843811035156250e+00 2.575933456420898438e+00 3.594886958599090576e-01
6.040000000000000000e+02 1.226366901397705078e+01 2.911082077026367188e+01 -3.983068764209747314e-01 4.057917118072509766e+00 1.097883105278015137e+00 -1.066756129264831543e+00
6.050000000000000000e+02 1.339906501770019531e+01 2.731211090087890625e+01 6.952849216759204865e-03 4.848803520202636719e+00 1.456726908683776855e+00 -7.039724588394165039e-01
6.060000000000000000e+02 1.433561038970947266e+01 2.555508995056152344e+01 4.374284446239471436e-01 6.087894916534423828e+00 1.957597017288208008e+00 -1.550538539886474609e-01
6.070000000000000000e+02 2.015071153640747070e+00 4.162194824218750000e+01 -2.387220412492752075e-02 4.178190708160400391e+00 1.246295571327209473e+00 -6.823823787271976471e-03
6.080000000000000000e+02 6.100043058395385742e-01 2.048602104187011719e+01 1.290269475430250168e-02 -1.245049834251403809e+00 -3.696441352367401123e-01 -1.584658771753311157e-01
6.090000000000000000e+02 1.807151079177856445e+00 1.609521865844726562e+01 5.637225136160850525e-02 -1.125872611999511719e+00 -3.208501040935516357e-01 -1.748695075511932373e-01
6.100000000000000000e+02 5.302000522613525391e+00 1.158005523681640625e+01 3.559377193450927734e-01 6.890113949775695801e-01 3.134847283363342285e-01 6.102462764829397202e-03
6.110000000000000000e+02 1.934629440307617188e+01 6.291029930114746094e+00 6.194486618041992188e-01 5.815206050872802734e+00 1.930396437644958496e+00 -2.050952196121215820e+00
6.120000000000000000e+02 1.667915534973144531e+01 1.277061367034912109e+01 9.922249317169189453e-01 9.165498733520507812e+00 3.047317028045654297e+00 -2.755294322967529297e+00
6.130000000000000000e+02 5.888412594795227051e-01 1.485257339477539062e+01 9.085512720048427582e-03 -2.139534950256347656e+00 -6.391348242759704590e-01 -3.311245143413543701e-02
6.140000000000000000e+02 1.544113278388977051e+00 9.129343032836914062e+00 4.751123860478401184e-02 -1.258018612861633301e+00 -3.631522357463836670e-01 2.319723367691040039e-01
6.150000000000000000e+02 8.906710624694824219e+00 1.831493616104125977e+00 -8.245883584022521973e-01 1.003008484840393066e-01 -2.172862440347671509e-01 1.712667495012283325e-01
6.160000000000000000e+02 1.122856330871582031e+01 1.628085851669311523e+00 -3.862759470939636230e-01 4.737753272056579590e-01 2.624981664121150970e-02 -5.959520936012268066e-01
6.170000000000000000e+02 1.486292076110839844e+01 9.366370439529418945e-01 1.924322485923767090e+00 5.207387447357177734e+00 2.139513015747070312e+00 -4.401291370391845703e+00
6.180000000000000000e+02 2.067616844177246094e+01 3.796728134155273438e+00 -8.087926357984542847e-02 2.379272937774658203e+00 6.895180940628051758e-01 -4.436127543449401855e-01
6.190000000000000000e+02 2.346713256835937500e+01 -1.348112583160400391e+00 4.904893398284912109e+00 4.029260873794555664e-01 1.592345833778381348e+00 -1.994939208030700684e+00
6.200000000000000000e+02 2.140531539916992188e+01 2.576344966888427734e+00 5.659435316920280457e-02 7.772002816200256348e-01 2.501383721828460693e-01 1.440189220011234283e-02
6.210000000000000000e+02 2.879168033599853516e+00 4.012274742126464844e+00 -5.250684171915054321e-02 -2.808109819889068604e-01 -9.999534487724304199e-02 5.322881937026977539e-01
6.220000000000000000e+02 4.934941232204437256e-01 6.378725051879882812e+00 -1.362852752208709717e-03 -1.223442554473876953e+00 -3.674416244029998779e-01 1.203875243663787842e-01
6.230000000000000000e+02 1.725332641601562500e+01 3.692554831504821777e-01 4.628452301025390625e+00 1.174752235412597656e+01 4.912792682647705078e+00 1.035710215568542480e+00
6.240000000000000000e+02 1.795383453369140625e+01 2.690914273262023926e-02 6.121018886566162109e+00 8.821228027343750000e+00 4.482674121856689453e+00 5.103932619094848633e-01
6.250000000000000000e+02 1.152667903900146484e+01 -2.682415485382080078e+00 2.277805566787719727e+00 1.513497084379196167e-01 7.287465929985046387e-01 9.514113068580627441e-01
6.260000000000000000e+02 1.058423995971679688e+01 -1.372716712951660156e+01 -7.836029529571533203e-01 1.872575759887695312e+00 3.266918361186981201e-01 2.918746948242187500e+00
6.270000000000000000e+02 1.437985134124755859e+01 -1.425812816619873047e+01 -1.619467616081237793e+00 -1.543931812047958374e-01 -5.321581959724426270e-01 1.505703449249267578e+00
6.280000000000000000e+02 1.684683799743652344e+01 -1.743461418151855469e+01 -3.771166801452636719e+00 -4.496958553791046143e-01 -1.266258716583251953e+00 1.468199610710144043e+00
6.290000000000000000e+02 2.457695388793945312e+01 -1.852700614929199219e+01 -3.699489831924438477e+00 9.051131084561347961e-03 -1.107131600379943848e+00 -3.700737357139587402e-01
6.300000000000000000e+02 2.586197090148925781e+01 -1.723259735107421875e+01 -3.225280284881591797e+00 3.781278058886528015e-02 -9.562402963638305664e-01 -2.140869498252868652e-01
6.310000000000000000e+02 3.050286293029785156e+01 -1.692401695251464844e+01 -3.548175096511840820e+00 -4.660563766956329346e-01 -1.204269409179687500e+00 -4.548557996749877930e-01
6.320000000000000000e+02 3.276825332641601562e+01 -1.803772544860839844e+01 -2.436366081237792969e+00 3.324508368968963623e-01 -6.311745643615722656e-01 -1.185545474290847778e-01
6.330000000000000000e+02 3.698317337036132812e+01 -1.677380752563476562e+01 -9.713243246078491211e-01 1.008522605895996094e+01 2.734170675277709961e+00 -9.717078506946563721e-02
6.340000000000000000e+02 4.026434326171875000e+01 -1.220929622650146484e+01 4.170754551887512207e-01 1.346866035461425781e+01 4.165720939636230469e+00 -7.044889926910400391e-01
6.350000000000000000e+02 3.123795700073242188e+01 -1.781457185745239258e+00 9.366233944892883301e-01 -2.236798107624053955e-01 2.138830870389938354e-01 -5.884186029434204102e-01
6.360000000000000000e+02 2.669297599792480469e+01 -2.186834812164306641e+00 6.281339645385742188e+00 9.351852536201477051e-01 2.164957523345947266e+00 -1.490092277526855469e+00
6.370000000000000000e+02 2.529204177856445312e+01 -1.660789728164672852e+00 6.006572723388671875e+00 1.734414577484130859e+00 2.322296142578125000e+00 -2.359108448028564453e+00
6.380000000000000000e+02 2.106199264526367188e+01 -1.374668025970458984e+01 -1.289749622344970703e+00 8.524121046066284180e-01 -1.312012523412704468e-01 -1.357123702764511108e-01
6.390000000000000000e+02 2.393302345275878906e+01 -1.394732856750488281e+01 -9.932944774627685547e-01 4.992422163486480713e-01 -1.482156813144683838e-01 -3.766780495643615723e-01
6.400000000000000000e+02 2.960745048522949219e+01 -1.770239067077636719e+01 -4.950903892517089844e+00 -2.848074138164520264e-01 -1.570713520050048828e+00 -5.067225098609924316e-01
6.410000000000000000e+02 5.906742572784423828e+00 -2.554281997680664062e+01 9.026170521974563599e-02 7.711580753326416016e+00 2.340552806854248047e+00 3.691983819007873535e-01
6.420000000000000000e+02 4.121911621093750000e+01 2.973082351684570312e+01 1.851858943700790405e-01 3.518506288528442383e+00 1.111107587814331055e+00 -5.838519334793090820e-01
6.430000000000000000e+02 3.988982391357421875e+01 3.234160232543945312e+01 -2.211536616086959839e-01 1.205692052841186523e+00 2.953614890575408936e-01 -1.273603737354278564e-01
6.440000000000000000e+02 4.158411407470703125e+01 1.701263046264648438e+01 1.404583156108856201e-01 7.824419021606445312e+00 2.389463186264038086e+00 7.033449411392211914e-01
6.450000000000000000e+02 4.085940551757812500e+01 1.144487667083740234e+01 6.152805685997009277e-01 1.093877792358398438e+01 3.466217756271362305e+00 2.476154804229736328e+00
6.460000000000000000e+02 5.046320343017578125e+01 1.950300335884094238e+00 -3.410905838012695312e+00 3.937502205371856689e-02 -1.011459231376647949e+00 5.614673495292663574e-01
6.470000000000000000e+02 5.114586257934570312e+01 9.662922471761703491e-02 -3.947340011596679688e+00 -2.583425641059875488e-01 -1.261704802513122559e+00 1.247479319572448730e+00
6.480000000000000000e+02 5.243872451782226562e+01 -3.257686793804168701e-01 -3.699374914169311523e+00 8.111034519970417023e-03 -1.107379198074340820e+00 8.941647410392761230e-01
6.490000000000000000e+02 5.648820114135742188e+01 -1.033597350120544434e+00 -4.522289276123046875e+00 -1.738268733024597168e-01 -1.408834815025329590e+00 6.917068362236022949e-01
6.500000000000000000e+02 5.919874191284179688e+01 -1.680135488510131836e+00 -3.781480073928833008e+00 -2.450288683176040649e-01 -1.207952737808227539e+00 8.252114653587341309e-01
6.510000000000000000e+02 6.183629608154296875e+01 -2.721223831176757812e+00 -1.588883399963378906e+00 3.183131814002990723e-01 -3.811710476875305176e-01 1.736641228199005127e-01
6.520000000000000000e+02 4.112821578979492188e+01 1.282931613922119141e+01 5.289552807807922363e-01 1.003360366821289062e+01 3.168767690658569336e+00 2.121966123580932617e+00
6.530000000000000000e+02 3.974036407470703125e+01 7.370192527770996094e+00 1.979545235633850098e+00 1.323315238952636719e+01 4.563809394836425781e+00 4.622514247894287109e+00
6.540000000000000000e+02 4.250397109985351562e+01 -2.487750530242919922e+00 2.121562242507934570e+00 1.495906257629394531e+01 5.124187469482421875e+00 4.568530082702636719e+00
6.550000000000000000e+02 4.410417556762695312e+01 1.252707958221435547e+00 -7.177156209945678711e-01 6.057213783264160156e+00 1.601849436759948730e+00 2.645720481872558594e+00
6.560000000000000000e+02 4.012446594238281250e+01 5.678780078887939453e+00 1.465021252632141113e+00 1.077095890045166016e+01 3.670794248580932617e+00 3.563716888427734375e+00
6.570000000000000000e+02 3.920924758911132812e+01 6.063401699066162109e+00 2.143450021743774414e+00 1.211345958709716797e+01 4.277072906494140625e+00 4.907063961029052734e+00
6.580000000000000000e+02 3.861111450195312500e+01 4.772218704223632812e+00 2.063533544540405273e+00 1.009897041320800781e+01 3.648751258850097656e+00 4.402199268341064453e+00
6.590000000000000000e+02 3.703595352172851562e+01 2.339410305023193359e+00 9.711745977401733398e-01 4.632205963134765625e+00 1.681014180183410645e+00 2.234540224075317383e+00
6.600000000000000000e+02 3.375223922729492188e+01 -3.872925341129302979e-01 -1.026289224624633789e+00 -2.085194885730743408e-01 -3.704426288604736328e-01 -5.560866594314575195e-01
6.610000000000000000e+02 3.552112960815429688e+01 -4.349603950977325439e-01 -3.949422761797904968e-02 2.575212955474853516e+00 7.607156038284301758e-01 9.014613628387451172e-01
6.620000000000000000e+02 3.492577743530273438e+01 3.951612114906311035e-01 -6.532877087593078613e-01 7.132206559181213379e-01 1.797988079488277435e-02 -1.189397927373647690e-02
6.630000000000000000e+02 3.214382553100585938e+01 -2.921644926071166992e+00 2.306977510452270508e+00 -5.979845300316810608e-03 6.902993321418762207e-01 -7.016975283622741699e-01
6.640000000000000000e+02 1.878714752197265625e+01 1.351209998130798340e+00 2.016937017440795898e+00 7.127393722534179688e+00 2.743299245834350586e+00 -5.087208002805709839e-02
6.650000000000000000e+02 1.925571441650390625e+01 3.301296997070312500e+01 -5.511253476142883301e-01 2.059277892112731934e-01 -1.035592779517173767e-01 -2.893792092800140381e-01
6.660000000000000000e+02 2.012865638732910156e+01 3.416358184814453125e+01 -1.228133678436279297e+00 -2.950701415538787842e-01 -4.569611549377441406e-01 -6.424855589866638184e-01
6.670000000000000000e+02 2.121365928649902344e+01 3.518479919433593750e+01 -1.686808109283447266e+00 -4.279657304286956787e-01 -6.344321370124816895e-01 -7.802868485450744629e-01
6.680000000000000000e+02 2.824237442016601562e+01 3.750223541259765625e+01 -3.031374454498291016e+00 -2.353577762842178345e-01 -9.800196886062622070e-01 -1.486255675554275513e-01
6.690000000000000000e+02 4.560931015014648438e+01 1.298223495483398438e+00 -2.187579870223999023e+00 2.184968948364257812e+00 -7.832586416043341160e-04 1.782567381858825684e+00
6.700000000000000000e+02 4.018824768066406250e+01 8.709111213684082031e+00 1.377537846565246582e+00 1.310079669952392578e+01 4.343500137329101562e+00 3.910746812820434570e+00
6.710000000000000000e+02 4.172472000122070312e+01 -1.492880535125732422e+01 4.741886556148529053e-01 1.466654968261718750e+01 4.542221546173095703e+00 -1.821477293968200684e+00
6.720000000000000000e+02 4.133184814453125000e+01 -1.076346111297607422e+01 3.844785988330841064e-01 1.556770992279052734e+01 4.785656452178955078e+00 -6.152973175048828125e-01
6.730000000000000000e+02 4.018014907836914062e+01 -1.079173183441162109e+01 6.504634022712707520e-01 1.326845645904541016e+01 4.175675868988037109e+00 -2.534686326980590820e-01
6.740000000000000000e+02 4.183232498168945312e+01 -5.213902950286865234e+00 7.430690526962280273e-01 1.442787933349609375e+01 4.551284790039062500e+00 3.342773675918579102e+00
6.750000000000000000e+02 4.214479827880859375e+01 -3.852358818054199219e+00 1.030767560005187988e+00 1.464341259002685547e+01 4.702254295349121094e+00 3.544174432754516602e+00
6.760000000000000000e+02 2.996320533752441406e+01 -1.510339450836181641e+01 -7.729705572128295898e-01 -6.165389344096183777e-02 -2.503873407840728760e-01 -7.799934744834899902e-01
6.770000000000000000e+02 4.383817291259765625e+01 -2.880301666259765625e+01 2.865787744522094727e-01 4.068396091461181641e+00 1.306492447853088379e+00 -1.540870308876037598e+00
6.780000000000000000e+02 6.867089080810546875e+01 -2.922382164001464844e+01 -3.479030132293701172e-01 8.519812583923339844e+00 2.451572895050048828e+00 8.619698286056518555e-01
6.790000000000000000e+02 6.174000167846679688e+01 1.041788339614868164e+00 -1.399124622344970703e+00 1.872177243232727051e+00 1.419157832860946655e-01 -1.172575592994689941e+00
6.800000000000000000e+02 6.001620864868164062e+01 3.895160853862762451e-01 -1.966308832168579102e+00 6.820893883705139160e-01 -3.852658271789550781e-01 -5.542636513710021973e-01
6.810000000000000000e+02 5.824571228027343750e+01 -2.682956755161285400e-01 -3.049214363098144531e+00 -3.367090597748756409e-02 -9.248656034469604492e-01 2.190256565809249878e-01
6.820000000000000000e+02 7.304811096191406250e+01 5.271501064300537109e+00 -3.119283914566040039e-01 6.970621585845947266e+00 1.997608065605163574e+00 -6.175695061683654785e-01
6.830000000000000000e+02 5.417531585693359375e+01 1.006717586517333984e+01 1.405366539955139160e+00 1.690280199050903320e+00 9.286940097808837891e-01 3.936099708080291748e-01
6.840000000000000000e+02 5.915049362182617188e+01 7.966482639312744141e+00 5.120880007743835449e-01 1.918073654174804688e+00 7.290484905242919922e-01 -7.431824803352355957e-01
6.850000000000000000e+02 4.876181411743164062e+01 9.667457580566406250e+00 1.850775599479675293e+00 2.583274841308593750e+00 1.330215096473693848e+00 1.849584221839904785e+00
6.860000000000000000e+02 4.550299453735351562e+01 2.780786752700805664e+00 -1.706622123718261719e+00 3.384542942047119141e+00 5.033762454986572266e-01 3.383420467376708984e+00
6.870000000000000000e+02 7.265399169921875000e+01 1.210350131988525391e+01 8.121713995933532715e-02 6.285429000854492188e+00 1.909993886947631836e+00 -7.225268483161926270e-01
6.880000000000000000e+02 4.685376739501953125e+01 1.840639305114746094e+01 1.034219503402709961e+00 4.937561035156250000e+00 1.791534185409545898e+00 1.651448011398315430e+00
6.890000000000000000e+02 4.679941177368164062e+01 1.706807136535644531e+01 1.235779881477355957e+00 4.976457118988037109e+00 1.863671183586120605e+00 1.852591872215270996e+00
6.900000000000000000e+02 7.281903076171875000e+01 1.862010574340820312e+01 2.059945464134216309e-01 6.043833732604980469e+00 1.874948382377624512e+00 -4.340237379074096680e-01
6.910000000000000000e+02 6.494649505615234375e+01 1.948877906799316406e+01 7.229050397872924805e-01 4.466897964477539062e+00 1.556940913200378418e+00 -2.476176023483276367e-01
6.920000000000000000e+02 5.371932601928710938e+01 1.888767814636230469e+01 1.385048031806945801e+00 3.390621185302734375e+00 1.432700753211975098e+00 1.019674897193908691e+00
6.930000000000000000e+02 7.109841918945312500e+01 2.703552246093750000e+01 1.876471638679504395e-01 5.749083518981933594e+00 1.781019210815429688e+00 -5.189911276102066040e-02
6.940000000000000000e+02 6.522750091552734375e+01 2.868148612976074219e+01 2.740029096603393555e-01 5.052071571350097656e+00 1.597822308540344238e+00 1.865829229354858398e-01
6.950000000000000000e+02 5.560312271118164062e+01 2.761426353454589844e+01 3.879344463348388672e-01 4.191701889038085938e+00 1.373890995979309082e+00 7.949652671813964844e-01
6.960000000000000000e+02 4.623998260498046875e+01 2.501049995422363281e+01 3.495163023471832275e-01 4.470847606658935547e+00 1.446109175682067871e+00 7.949894070625305176e-01
6.970000000000000000e+02 7.088085937500000000e+01 3.115029144287109375e+01 8.789279311895370483e-02 5.779098987579345703e+00 1.760097622871398926e+00 4.705512151122093201e-02
6.980000000000000000e+02 5.626148986816406250e+01 3.211793899536132812e+01 -4.826464876532554626e-02 4.491755485534667969e+00 1.333047270774841309e+00 6.278904080390930176e-01
6.990000000000000000e+02 4.756681442260742188e+01 3.248705673217773438e+01 -5.767309665679931641e-01 3.879252195358276367e+00 9.907563924789428711e-01 7.390453219413757324e-01
7.000000000000000000e+02 1.433208560943603516e+01 1.671665382385253906e+01 9.665108919143676758e-01 8.410942077636718750e+00 2.813235998153686523e+00 -1.492499113082885742e+00
7.010000000000000000e+02 1.308213710784912109e+01 9.140676498413085938e+00 5.206513404846191406e-01 5.172523498535156250e+00 1.707952380180358887e+00 -1.382060885429382324e+00
7.020000000000000000e+02 2.418498229980468750e+01 -6.560138463973999023e-01 3.011616468429565430e+00 1.119827747344970703e+00 1.239433288574218750e+00 -2.050086021423339844e+00
7.030000000000000000e+02 4.530605316162109375e+01 -2.100724029541015625e+01 6.531445384025573730e-01 1.329274058341979980e+00 5.947255492210388184e-01 -9.217877388000488281e-01
7.040000000000000000e+02 9.448107719421386719e+00 -1.849076867103576660e+00 9.539110660552978516e-01 1.899994909763336182e-02 2.918733060359954834e-01 3.276935815811157227e-01
7.050000000000000000e+02 8.645265579223632812e+00 -1.853965163230895996e+00 7.522310018539428711e-01 9.299125522375106812e-03 2.284590303897857666e-01 2.858991324901580811e-01
7.060000000000000000e+02 7.831059455871582031e+00 -1.869010925292968750e+00 5.628386735916137695e-01 2.992973290383815765e-02 1.778305172920227051e-01 2.475913017988204956e-01
7.070000000000000000e+02 6.188488006591796875e+00 -1.912593841552734375e+00 3.092062175273895264e-01 5.862857028841972351e-02 1.103504374623298645e-01 1.741372942924499512e-01
7.080000000000000000e+02 4.541632652282714844e+00 -1.964730739593505859e+00 1.493601948022842407e-01 5.724240839481353760e-02 6.198078021407127380e-02 8.236544579267501831e-02
7.090000000000000000e+02 2.893223285675048828e+00 -2.033495426177978516e+00 5.065118893980979919e-02 4.271548241376876831e-02 2.801000140607357025e-02 2.193789929151535034e-03
7.100000000000000000e+02 2.954678058624267578e+00 -3.081470727920532227e+00 1.103705391287803650e-01 1.068962663412094116e-01 6.518004089593887329e-02 6.675717979669570923e-02
7.110000000000000000e+02 2.065231561660766602e+00 -2.086001873016357422e+00 2.244038879871368408e-02 2.177481167018413544e-02 1.326456014066934586e-02 -2.679682336747646332e-02
7.120000000000000000e+02 1.238829970359802246e+00 -2.141928672790527344e+00 6.512432359158992767e-03 -1.808591187000274658e-02 -3.472043666988611221e-03 -3.059870749711990356e-02
7.130000000000000000e+02 4.128662049770355225e-01 -2.187544822692871094e+00 7.879298180341720581e-03 -6.446734815835952759e-02 -1.697641424834728241e-02 -1.547499094158411026e-02
7.140000000000000000e+02 2.090102434158325195e+00 -4.160639953613281250e+01 3.926627933979034424e-01 5.759789466857910156e+00 1.845735669136047363e+00 -1.119127944111824036e-01
7.150000000000000000e+02 1.106402635574340820e+00 -3.857446289062500000e+01 2.156556583940982819e-02 6.277905464172363281e+00 1.889841318130493164e+00 -2.550816833972930908e-01
7.160000000000000000e+02 5.412425398826599121e-01 -3.460429000854492188e+01 -7.573670893907546997e-02 7.347251892089843750e+00 2.181454658508300781e+00 -8.584428578615188599e-02
7.170000000000000000e+02 5.286240577697753906e-01 -3.326339340209960938e+01 7.709919940680265427e-03 7.488234519958496094e+00 2.248783349990844727e+00 2.409631758928298950e-02
7.180000000000000000e+02 3.980558395385742188e+00 -3.100879478454589844e+01 -1.152145504951477051e+00 4.682155132293701172e+00 1.059002876281738281e+00 6.452566981315612793e-01
7.190000000000000000e+02 2.154194593429565430e+00 -2.722790908813476562e+01 -1.990562528371810913e-01 4.700279712677001953e+00 1.350367069244384766e+00 1.769136071205139160e+00
7.200000000000000000e+02 6.746070384979248047e-01 -2.607511901855468750e+01 1.644041389226913452e-02 3.260481834411621094e+00 9.830766916275024414e-01 7.669462561607360840e-01
7.210000000000000000e+02 5.781372547149658203e+00 -2.413691329956054688e+01 3.550299704074859619e-01 9.961973190307617188e+00 3.095100879669189453e+00 9.901167750358581543e-01
7.220000000000000000e+02 1.630094647407531738e+00 -2.153533744812011719e+01 2.924698293209075928e-01 1.285898327827453613e+00 4.735104441642761230e-01 7.029681205749511719e-01
7.230000000000000000e+02 6.987195968627929688e+00 -1.956597518920898438e+01 2.130353212356567383e+00 1.099248504638671875e+01 3.936851501464843750e+00 4.253283500671386719e+00
7.240000000000000000e+02 5.517422556877136230e-01 -2.184976959228515625e+01 6.413698941469192505e-02 -8.346974849700927734e-01 -2.311681509017944336e-01 2.742736637592315674e-01
7.250000000000000000e+02 6.020219922065734863e-01 -1.628307723999023438e+01 -1.187875960022211075e-02 -6.983404159545898438e-01 -2.130657583475112915e-01 -2.011471241712570190e-01
7.260000000000000000e+02 6.254433393478393555e-01 -1.487326717376708984e+01 -3.176968079060316086e-03 -2.556534111499786377e-01 -7.764910906553268433e-02 -1.818019747734069824e-01
7.270000000000000000e+02 6.340469717979431152e-01 -1.345806407928466797e+01 -4.272472113370895386e-02 1.012357249855995178e-01 1.755330152809619904e-02 -1.339034140110015869e-01
7.280000000000000000e+02 1.898696184158325195e+00 -1.335358238220214844e+01 -1.506483405828475952e-01 9.823559522628784180e-01 2.495122849941253662e-01 -2.392324060201644897e-01
7.290000000000000000e+02 5.927821993827819824e-01 -9.212177276611328125e+00 -1.158775854855775833e-02 3.101614713668823242e-01 8.957210928201675415e-02 4.858300089836120605e-02
7.300000000000000000e+02 5.777963399887084961e-01 -7.797359466552734375e+00 5.681586451828479767e-03 1.824636310338973999e-01 5.644356831908226013e-02 5.690078437328338623e-02
7.310000000000000000e+02 3.774798393249511719e+00 -2.980344533920288086e+00 1.803292334079742432e-01 1.129547357559204102e-01 8.798519521951675415e-02 1.203388869762420654e-01
7.320000000000000000e+02 3.864226818084716797e+00 -3.982233285903930664e+00 2.136221677064895630e-01 1.992907375097274780e-01 1.238738670945167542e-01 2.075704336166381836e-01
7.330000000000000000e+02 7.071775054931640625e+01 -3.838700103759765625e+01 -4.722742140293121338e-01 6.752167224884033203e+00 1.883967995643615723e+00 2.768387272953987122e-02
7.340000000000000000e+02 5.445389938354492188e+01 -3.950861740112304688e+01 8.277805894613265991e-02 6.718118190765380859e-01 2.263769656419754028e-01 -3.475651144981384277e-01
7.350000000000000000e+02 3.622521972656250000e+01 -3.877577209472656250e+01 -1.848943710327148438e+00 4.736433506011962891e+00 8.662469983100891113e-01 1.701624989509582520e-01
7.360000000000000000e+02 9.103021621704101562e+00 -3.896730804443359375e+01 3.786284029483795166e-01 1.157197117805480957e+00 4.607476592063903809e-01 -1.199561879038810730e-01
7.370000000000000000e+02 7.601512908935546875e+01 4.062407302856445312e+01 -3.344184719026088715e-03 6.473491668701171875e+00 1.941044211387634277e+00 4.569601640105247498e-02
7.380000000000000000e+02 7.809875488281250000e+01 4.176588058471679688e+01 5.853858217597007751e-02 6.603111743927001953e+00 1.998495101928710938e+00 -1.636515371501445770e-02
7.390000000000000000e+02 7.883051300048828125e+01 3.896994018554687500e+01 -3.631066903471946716e-02 6.672504425048828125e+00 1.990858197212219238e+00 -1.962333358824253082e-02
7.400000000000000000e+02 7.738581848144531250e+01 3.729980087280273438e+01 -1.054249145090579987e-02 6.502001762390136719e+00 1.947437882423400879e+00 3.658718895167112350e-03
7.410000000000000000e+02 7.922129058837890625e+01 3.481564712524414062e+01 -5.146702751517295837e-04 6.687888145446777344e+00 2.006211996078491211e+00 4.076287150382995605e-03
7.420000000000000000e+02 7.758366394042968750e+01 3.342218780517578125e+01 -2.923306543380022049e-03 6.534737586975097656e+00 1.959544301033020020e+00 1.097134780138731003e-02
7.430000000000000000e+02 7.920544433593750000e+01 3.342365264892578125e+01 1.236711395904421806e-03 6.684412956237792969e+00 2.005694866180419922e+00 3.411415265873074532e-03
7.440000000000000000e+02 7.921577453613281250e+01 3.060134124755859375e+01 1.589075895026326180e-03 6.679347038269042969e+00 2.004280805587768555e+00 3.785555716603994370e-03
7.450000000000000000e+02 7.619618225097656250e+01 2.881470108032226562e+01 3.606024757027626038e-02 6.374883174896240234e+00 1.923283100128173828e+00 -1.971188001334667206e-02
7.460000000000000000e+02 7.929016113281250000e+01 2.638588333129882812e+01 5.513659678399562836e-03 6.713231563568115234e+00 2.015623569488525391e+00 -1.187014859169721603e-02
7.470000000000000000e+02 7.649979400634765625e+01 2.596133041381835938e+01 4.584025219082832336e-02 6.438818454742431641e+00 1.945397615432739258e+00 -7.149140536785125732e-02
7.480000000000000000e+02 7.931318664550781250e+01 2.499118232727050781e+01 1.069294521585106850e-03 6.749908924102783203e+00 2.025293588638305664e+00 -1.913677528500556946e-02
7.490000000000000000e+02 7.934902191162109375e+01 2.082240676879882812e+01 6.336625199764966965e-03 6.961973190307617188e+00 2.090492963790893555e+00 -4.209214076399803162e-02
7.500000000000000000e+02 7.935298156738281250e+01 1.943229103088378906e+01 1.787077751941978931e-03 7.071081161499023438e+00 2.121860504150390625e+00 -5.155923590064048767e-02
7.510000000000000000e+02 7.804578399658203125e+01 2.066286087036132812e+01 1.843121647834777832e-02 6.825345039367675781e+00 2.053132772445678711e+00 -1.314029246568679810e-01
7.520000000000000000e+02 7.935535430908203125e+01 1.804048156738281250e+01 6.343181710690259933e-03 7.201006889343261719e+00 2.162204980850219727e+00 -5.980846285820007324e-02
7.530000000000000000e+02 7.935629272460937500e+01 1.386683082580566406e+01 -1.887316349893808365e-03 7.699742317199707031e+00 2.309356451034545898e+00 -8.102607727050781250e-02
7.540000000000000000e+02 7.935591888427734375e+01 1.247636032104492188e+01 5.350792314857244492e-03 7.894426345825195312e+00 2.369933128356933594e+00 -8.408103883266448975e-02
7.550000000000000000e+02 7.935588836669921875e+01 1.108423233032226562e+01 -5.563860759139060974e-03 8.095569610595703125e+00 2.427001714706420898e+00 -8.529399335384368896e-02
7.560000000000000000e+02 7.935856628417968750e+01 6.904909133911132812e+00 -1.193509669974446297e-03 8.670413970947265625e+00 2.600765943527221680e+00 -6.332881003618240356e-02
7.570000000000000000e+02 7.935853576660156250e+01 5.511821269989013672e+00 -1.436248328536748886e-02 8.822580337524414062e+00 2.642465353012084961e+00 -4.807361960411071777e-02
7.580000000000000000e+02 7.807767486572265625e+01 5.410222053527832031e+00 -3.436466306447982788e-02 8.391660690307617188e+00 2.507188558578491211e+00 -1.633591353893280029e-01
7.590000000000000000e+02 7.935753631591796875e+01 4.118282794952392578e+00 -5.112219601869583130e-03 8.938525199890136719e+00 2.680023908615112305e+00 -2.588410675525665283e-02
7.600000000000000000e+02 7.935723876953125000e+01 -7.357056438922882080e-02 -2.583650499582290649e-02 8.955997467041015625e+00 2.679048061370849609e+00 6.474094092845916748e-02
7.610000000000000000e+02 7.935768127441406250e+01 -1.470244169235229492e+00 -5.998230539262294769e-03 8.825045585632324219e+00 2.645714282989501953e+00 1.023596450686454773e-01
7.620000000000000000e+02 7.935544586181640625e+01 -4.267435073852539062e+00 -4.640651401132345200e-03 8.341879844665527344e+00 2.501171827316284180e+00 1.708917915821075439e-01
7.630000000000000000e+02 7.937484741210937500e+01 -8.453663825988769531e+00 -6.584397982805967331e-03 7.155595779418945312e+00 2.144703388214111328e+00 2.222254276275634766e-01
7.640000000000000000e+02 7.938352966308593750e+01 -1.123883628845214844e+01 6.759595125913619995e-03 6.260964870452880859e+00 1.880317330360412598e+00 1.962905675172805786e-01
7.650000000000000000e+02 7.940122985839843750e+01 -1.541417694091796875e+01 1.950859278440475464e-02 5.340003967285156250e+00 1.607853770256042480e+00 7.728791981935501099e-02
7.660000000000000000e+02 7.942292022705078125e+01 -1.819040298461914062e+01 7.414009422063827515e-03 5.245554924011230469e+00 1.575890660285949707e+00 -3.020809777081012726e-02
7.670000000000000000e+02 7.943518829345703125e+01 -2.374614715576171875e+01 -7.136863190680742264e-03 6.389362335205078125e+00 1.914667725563049316e+00 -2.066264450550079346e-01
7.680000000000000000e+02 7.942837524414062500e+01 -2.512901115417480469e+01 4.300274699926376343e-02 6.914924144744873047e+00 2.087378025054931641e+00 -2.450903207063674927e-01
7.690000000000000000e+02 7.940177154541015625e+01 -2.923242378234863281e+01 -4.528651759028434753e-02 8.823897361755371094e+00 2.633583068847656250e+00 -2.975637316703796387e-01
7.700000000000000000e+02 7.937663269042968750e+01 -3.195327186584472656e+01 -4.219929873943328857e-02 9.986638069152832031e+00 2.983331680297851562e+00 -2.448350042104721069e-01
7.710000000000000000e+02 7.924745178222656250e+01 -3.603210449218750000e+01 1.970438100397586823e-02 1.089157676696777344e+01 3.273384332656860352e+00 -1.031617000699043274e-01
7.720000000000000000e+02 7.916316986083984375e+01 -3.737745285034179688e+01 -9.185501933097839355e-02 1.094374275207519531e+01 3.255566358566284180e+00 -7.997263222932815552e-03
7.730000000000000000e+02 7.896916198730468750e+01 -3.870019149780273438e+01 1.827091723680496216e-02 1.091106510162353516e+01 3.278800964355468750e+00 1.726640388369560242e-02
7.740000000000000000e+02 7.860008239746093750e+01 -4.005055236816406250e+01 -1.155343949794769287e-01 1.079402351379394531e+01 3.203546762466430664e+00 1.156316399574279785e-01
7.750000000000000000e+02 4.957379817962646484e+00 4.025833129882812500e+01 -3.015309274196624756e-01 3.614737272262573242e+00 9.939618706703186035e-01 -3.023673892021179199e-01
7.760000000000000000e+02 2.549164962768554688e+01 3.691234207153320312e+01 -2.697993755340576172e+00 -1.761313974857330322e-01 -8.622375726699829102e-01 -6.006874442100524902e-01
7.770000000000000000e+02 3.834507167339324951e-01 2.180181264877319336e+00 -9.655212052166461945e-03 -1.687405556440353394e-01 -5.351873114705085754e-02 5.861552432179450989e-02
7.780000000000000000e+02 2.725137472152709961e+00 2.992642402648925781e+00 -1.534508913755416870e-01 -2.220351547002792358e-01 -1.126458123326301575e-01 4.718954861164093018e-01
7.790000000000000000e+02 2.503618001937866211e+00 7.680087089538574219e+00 7.490751147270202637e-02 -7.140048146247863770e-01 -1.917291879653930664e-01 3.905855715274810791e-01
7.800000000000000000e+02 1.505695104598999023e+00 7.718241691589355469e+00 3.813952952623367310e-02 -1.099328041076660156e+00 -3.183565437793731689e-01 2.910421192646026611e-01
7.810000000000000000e+02 5.162268877029418945e-01 9.224654197692871094e+00 9.908108972012996674e-03 -1.831473350524902344e+00 -5.464695692062377930e-01 8.131541311740875244e-02
7.820000000000000000e+02 5.550718903541564941e-01 1.203810501098632812e+01 1.166853867471218109e-02 -2.144720315933227539e+00 -6.399155259132385254e-01 2.694287337362766266e-02
7.830000000000000000e+02 1.677335739135742188e+00 1.190364265441894531e+01 5.508115887641906738e-02 -1.364810466766357422e+00 -3.929187655448913574e-01 8.468904346227645874e-02
7.840000000000000000e+02 5.990713834762573242e-01 1.626015663146972656e+01 1.673281751573085785e-02 -2.026722192764282227e+00 -6.029967665672302246e-01 -6.517429649829864502e-02
7.850000000000000000e+02 1.820519804954528809e+00 1.749396324157714844e+01 6.636694073677062988e-02 -9.632146358489990234e-01 -2.690542936325073242e-01 -2.576752007007598877e-01
7.860000000000000000e+02 6.055056452751159668e-01 1.766849708557128906e+01 1.049169246107339859e-02 -1.838976979255676270e+00 -5.485455989837646484e-01 -9.621685743331909180e-02
7.870000000000000000e+02 6.112998127937316895e-01 2.189232254028320312e+01 9.185175411403179169e-03 -8.467665314674377441e-01 -2.512744069099426270e-01 -1.835896372795104980e-01
7.880000000000000000e+02 6.133987903594970703e-01 2.329470062255859375e+01 8.084247820079326630e-03 -3.955894112586975098e-01 -1.162515506148338318e-01 -2.032357901334762573e-01
7.890000000000000000e+02 1.827482461929321289e+00 2.305553436279296875e+01 4.086813330650329590e-02 1.906687021255493164e-01 6.946105509996414185e-02 -5.663217902183532715e-01
7.900000000000000000e+02 6.192535758018493652e-01 2.469780731201171875e+01 9.095250628888607025e-03 9.749410301446914673e-02 3.197680413722991943e-02 -2.231671363115310669e-01
7.910000000000000000e+02 6.863474845886230469e-01 2.895486640930175781e+01 6.606575916521251202e-04 1.707143545150756836e+00 5.123412609100341797e-01 -2.591635584831237793e-01
7.920000000000000000e+02 7.293638586997985840e-01 3.039574623107910156e+01 -4.462295677512884140e-03 2.216624021530151367e+00 6.636484861373901367e-01 -2.543154954910278320e-01
7.930000000000000000e+02 3.296532154083251953e+00 2.832661819458007812e+01 -1.865023933351039886e-02 2.056563615798950195e+00 6.113740205764770508e-01 -1.015121579170227051e+00
7.940000000000000000e+02 7.564543485641479492e-01 3.183673286437988281e+01 -6.385991349816322327e-03 2.680810451507568359e+00 8.023273944854736328e-01 -2.434582412242889404e-01
7.950000000000000000e+02 6.891445517539978027e-01 3.604707717895507812e+01 -9.803604334592819214e-03 3.751433134078979492e+00 1.122488856315612793e+00 -1.255110502243041992e-01
7.960000000000000000e+02 7.346685528755187988e-01 3.740300369262695312e+01 -2.143979258835315704e-02 3.963367938995361328e+00 1.182578444480895996e+00 -9.145347028970718384e-02
7.970000000000000000e+02 9.133768081665039062e-01 3.872254562377929688e+01 -1.326518016867339611e-03 4.107657432556152344e+00 1.231899261474609375e+00 -7.548549026250839233e-02
7.980000000000000000e+02 1.290206074714660645e+00 4.005695343017578125e+01 -4.316139966249465942e-02 4.167430877685546875e+00 1.237280845642089844e+00 -3.345828875899314880e-02
7.990000000000000000e+02 9.689854621887207031e+00 1.808523535728454590e+00 -7.515537142753601074e-01 1.674503535032272339e-01 -1.752310097217559814e-01 -2.067267522215843201e-02
8.000000000000000000e+02 8.127837181091308594e+00 1.846657991409301758e+00 -8.324843049049377441e-01 8.857201039791107178e-02 -2.231736928224563599e-01 3.172239065170288086e-01
8.010000000000000000e+02 5.724567890167236328e+00 3.346555233001708984e+00 -2.334556877613067627e-01 6.508097052574157715e-02 -5.051241442561149597e-02 5.672633051872253418e-01
8.020000000000000000e+02 6.576402187347412109e+00 1.864869475364685059e+00 -7.604196071624755859e-01 4.405720531940460205e-02 -2.149087190628051758e-01 4.357972443103790283e-01
8.030000000000000000e+02 4.249455928802490234e+00 1.909757375717163086e+00 -4.597612619400024414e-01 -4.840001091361045837e-02 -1.524483859539031982e-01 4.633583128452301025e-01
8.040000000000000000e+02 3.477309703826904297e+00 1.944561362266540527e+00 -3.529706299304962158e-01 -7.999073714017868042e-02 -1.298884153366088867e-01 4.207179546356201172e-01
8.050000000000000000e+02 1.928077101707458496e+00 2.055289506912231445e+00 -1.356448978185653687e-01 -1.768776178359985352e-01 -9.375675767660140991e-02 2.829926311969757080e-01
8.060000000000000000e+02 1.153034687042236328e+00 2.121702909469604492e+00 -6.092468276619911194e-02 -1.986660212278366089e-01 -7.787720859050750732e-02 1.825030893087387085e-01
8.070000000000000000e+02 1.198334980010986328e+01 1.515826582908630371e+00 -5.674644559621810913e-02 7.596230506896972656e-01 2.108629792928695679e-01 -9.834798574447631836e-01
8.080000000000000000e+02 1.272044086456298828e+01 1.409322381019592285e+00 3.610476255416870117e-01 1.191940069198608398e+00 4.658963084220886230e-01 -1.508915781974792480e+00
8.090000000000000000e+02 1.345726490020751953e+01 1.190036177635192871e+00 1.078293681144714355e+00 1.773801803588867188e+00 8.556286096572875977e-01 -2.262837409973144531e+00
8.100000000000000000e+02 1.503369998931884766e+01 -2.407457113265991211e+00 4.984680175781250000e+00 4.968647956848144531e+00 2.985998392105102539e+00 4.105766296386718750e+00
8.110000000000000000e+02 1.402052783966064453e+01 -2.267039775848388672e+00 4.624506950378417969e+00 1.168206810951232910e+00 1.737814068794250488e+00 2.162120580673217773e+00
8.120000000000000000e+02 1.344966602325439453e+01 -2.734463691711425781e+00 3.766485691070556641e+00 1.001820564270019531e+00 1.430491805076599121e+00 1.991928935050964355e+00
8.130000000000000000e+02 1.284359264373779297e+01 -2.358305931091308594e+00 3.188319921493530273e+00 3.126457631587982178e-01 1.050289630889892578e+00 1.147091150283813477e+00
8.140000000000000000e+02 1.235028648376464844e+01 -2.133110046386718750e+00 2.551451444625854492e+00 1.304745525121688843e-01 8.045778274536132812e-01 7.692208886146545410e-01
8.150000000000000000e+02 1.247758769989013672e+01 -2.543294668197631836e+00 2.863473653793334961e+00 2.791773974895477295e-01 9.427953362464904785e-01 1.156281590461730957e+00
8.160000000000000000e+02 1.164467620849609375e+01 -2.087402343750000000e+00 2.051800966262817383e+00 8.115407079458236694e-03 6.179748773574829102e-01 5.897151827812194824e-01
8.170000000000000000e+02 1.421465873718261719e+01 -1.637001609802246094e+01 -5.000602722167968750e+00 -6.955030560493469238e-01 -1.708831787109375000e+00 1.556719660758972168e+00
8.180000000000000000e+02 1.972446060180664062e+01 -1.717014122009277344e+01 -3.108656883239746094e+00 3.649733066558837891e-01 -8.231050372123718262e-01 5.396918058395385742e-01
8.190000000000000000e+02 1.933675765991210938e+01 -1.833210945129394531e+01 -3.316160440444946289e+00 -4.861873015761375427e-02 -1.009433746337890625e+00 7.667294144630432129e-01
8.200000000000000000e+02 2.194175910949707031e+01 -1.867011642456054688e+01 -3.309184551239013672e+00 1.220396012067794800e-01 -9.561434388160705566e-01 9.493366628885269165e-02
8.210000000000000000e+02 2.467350387573242188e+01 -1.722922515869140625e+01 -3.109804153442382812e+00 2.512715458869934082e-01 -8.575598001480102539e-01 -1.930741816759109497e-01
8.220000000000000000e+02 2.108337783813476562e+01 -1.636209487915039062e+01 -2.723460912704467773e+00 5.572289824485778809e-01 -6.498696208000183105e-01 2.432836741209030151e-01
8.230000000000000000e+02 2.842243194580078125e+01 -1.798472976684570312e+01 -4.484685897827148438e+00 3.867779672145843506e-02 -1.333802342414855957e+00 -7.133520841598510742e-01
8.240000000000000000e+02 3.518821716308593750e+01 -1.907600021362304688e+01 5.105646848678588867e-01 1.066744232177734375e+01 3.353401899337768555e+00 -1.429872274398803711e+00
8.250000000000000000e+02 3.599731826782226562e+01 -2.573610115051269531e+01 2.272758960723876953e+00 1.309152507781982422e+01 4.609285354614257812e+00 1.754180073738098145e+00
8.260000000000000000e+02 2.695360946655273438e+01 -3.142617797851562500e+01 -1.456115245819091797e+00 8.227448910474777222e-02 -4.121522307395935059e-01 7.583619654178619385e-02
8.270000000000000000e+02 2.286005020141601562e+01 -3.163483619689941406e+01 -1.860911369323730469e+00 -2.154251001775264740e-02 -5.647361874580383301e-01 -1.228450015187263489e-01
8.280000000000000000e+02 2.425358581542968750e+01 -3.285729598999023438e+01 -1.342255949974060059e+00 6.454766541719436646e-02 -3.833124935626983643e-01 2.422671765089035034e-02
8.290000000000000000e+02 2.153190040588378906e+01 -3.175589561462402344e+01 -1.953913569450378418e+00 -4.575659707188606262e-02 -5.999010801315307617e-01 -5.585122108459472656e-02
8.300000000000000000e+02 2.052619171142578125e+01 -3.322733306884765625e+01 -1.662509083747863770e+00 -8.539400249719619751e-02 -5.243709683418273926e-01 1.080512031912803650e-01
8.310000000000000000e+02 1.780664062500000000e+01 -3.342632675170898438e+01 -1.797826528549194336e+00 -2.696813642978668213e-01 -6.202523708343505859e-01 3.613987267017364502e-01
8.320000000000000000e+02 1.179843902587890625e+01 -3.125876426696777344e+01 -3.493887662887573242e+00 -4.119766056537628174e-01 -1.171759366989135742e+00 1.051228880882263184e+00
8.330000000000000000e+02 7.114031314849853516e+00 -2.807794952392578125e+01 -1.233637928962707520e+00 9.150483012199401855e-01 -9.557688981294631958e-02 3.649514615535736084e-01
8.340000000000000000e+02 3.135499763488769531e+01 3.715553283691406250e+01 -2.782499551773071289e+00 -2.110591232776641846e-01 -8.980675935745239258e-01 5.395053029060363770e-01
8.350000000000000000e+02 3.788896560668945312e+01 3.439073562622070312e+01 -1.461055278778076172e+00 -2.779624760150909424e-01 -5.217053294181823730e-01 6.792413592338562012e-01
8.360000000000000000e+02 4.164853286743164062e+01 2.682501411437988281e+01 9.689754992723464966e-02 4.904159069061279297e+00 1.500316977500915527e+00 -6.269738078117370605e-02
8.370000000000000000e+02 4.163843536376953125e+01 2.118799781799316406e+01 3.382353857159614563e-02 5.732317447662353516e+00 1.729842305183410645e+00 2.098871767520904541e-01
8.380000000000000000e+02 4.163890075683593750e+01 1.979838943481445312e+01 2.329957112669944763e-02 6.245498657226562500e+00 1.880639553070068359e+00 2.737269103527069092e-01
8.390000000000000000e+02 4.163112640380859375e+01 1.840641403198242188e+01 1.309398561716079712e-01 7.056240081787109375e+00 2.156153917312622070e+00 4.387801587581634521e-01
8.400000000000000000e+02 4.150417709350585938e+01 1.561697292327880859e+01 3.182218670845031738e-01 8.859943389892578125e+00 2.753449678421020508e+00 1.105143785476684570e+00
8.410000000000000000e+02 4.055665969848632812e+01 1.006967258453369141e+01 1.035784006118774414e+00 1.220481395721435547e+01 3.972179412841796875e+00 3.089714050292968750e+00
8.420000000000000000e+02 4.534503173828125000e+01 4.137556552886962891e+00 -2.702743113040924072e-01 3.751450300216674805e+00 1.044352769851684570e+00 2.930033922195434570e+00
8.430000000000000000e+02 3.790071487426757812e+01 3.516378164291381836e+00 1.706658601760864258e+00 7.482471942901611328e+00 2.756739139556884766e+00 3.470749139785766602e+00
8.440000000000000000e+02 3.604111480712890625e+01 1.284768819808959961e+00 1.496615111827850342e-01 2.496498346328735352e+00 7.938479185104370117e-01 1.067114114761352539e+00
8.450000000000000000e+02 3.254511260986328125e+01 -1.116892218589782715e+00 -5.436636209487915039e-01 -3.252590596675872803e-01 -2.606768012046813965e-01 -6.321243643760681152e-01
8.460000000000000000e+02 2.975292587280273438e+01 -2.145265817642211914e+00 2.512238025665283203e+00 -7.595878094434738159e-02 7.308837771415710449e-01 -5.985965132713317871e-01
8.470000000000000000e+02 2.320357322692871094e+01 3.750109076499938965e-01 1.588956832885742188e+00 3.526804745197296143e-01 5.824912190437316895e-01 -7.835481762886047363e-01
8.480000000000000000e+02 1.832064247131347656e+01 5.838386535644531250e+00 -2.317610383033752441e-01 6.766088485717773438e+00 1.960298299789428711e+00 -1.541059136390686035e+00
8.490000000000000000e+02 1.878340339660644531e+01 7.574304103851318359e+00 9.438768029212951660e-01 7.067018985748291016e+00 2.403268814086914062e+00 -2.618579387664794922e+00
8.500000000000000000e+02 1.769828224182128906e+01 1.013203239440917969e+01 1.109101414680480957e+00 8.261301994323730469e+00 2.811120986938476562e+00 -2.966310977935791016e+00
8.510000000000000000e+02 1.715274047851562500e+01 1.143022346496582031e+01 1.119779825210571289e+00 8.858953475952148438e+00 2.993619918823242188e+00 -2.956557512283325195e+00
8.520000000000000000e+02 1.556350898742675781e+01 1.688291549682617188e+01 7.645643949508666992e-01 1.050912761688232422e+01 3.382107734680175781e+00 -2.081321954727172852e+00
8.530000000000000000e+02 1.520176029205322266e+01 2.111086463928222656e+01 1.391129046678543091e-01 9.184120178222656250e+00 2.796969890594482422e+00 -3.313648104667663574e-01
8.540000000000000000e+02 1.522167873382568359e+01 2.252063369750976562e+01 1.059467121958732605e-01 8.601311683654785156e+00 2.612177371978759766e+00 -4.589745402336120605e-02
8.550000000000000000e+02 1.548275470733642578e+01 2.535053443908691406e+01 4.605754017829895020e-01 7.354626655578613281e+00 2.344560623168945312e+00 9.494839906692504883e-01
8.560000000000000000e+02 1.763379669189453125e+01 3.070236206054687500e+01 7.280211895704269409e-02 1.735084891319274902e+00 5.423660874366760254e-01 4.777642488479614258e-01
8.570000000000000000e+02 2.402920913696289062e+01 3.671825408935546875e+01 -2.558651924133300781e+00 -4.295944571495056152e-01 -8.964739441871643066e-01 -7.403846383094787598e-01
8.580000000000000000e+02 2.675016975402832031e+01 3.715124511718750000e+01 -2.771545648574829102e+00 -1.851875633001327515e-01 -8.870199918746948242e-01 -4.247069656848907471e-01
8.590000000000000000e+02 4.849935913085937500e+01 1.228000044822692871e+00 -5.255364894866943359e+00 -6.414801478385925293e-01 -1.769053578376770020e+00 1.475947380065917969e+00
8.600000000000000000e+02 5.377089309692382812e+01 -5.961419939994812012e-01 -4.058619499206542969e+00 -2.403549663722515106e-02 -1.224796414375305176e+00 6.357415914535522461e-01
8.610000000000000000e+02 5.512555313110351562e+01 -8.050041198730468750e-01 -4.431753635406494141e+00 -9.816963970661163330e-02 -1.358976960182189941e+00 5.996825098991394043e-01
8.620000000000000000e+02 5.784708404541015625e+01 -1.323517918586730957e+00 -4.257438182830810547e+00 -1.931222826242446899e-01 -1.335168123245239258e+00 7.907611131668090820e-01
8.630000000000000000e+02 6.308082580566406250e+01 -3.462521314620971680e+00 -2.785055339336395264e-01 1.445238709449768066e+00 3.500199615955352783e-01 -6.870697140693664551e-01
8.640000000000000000e+02 6.627841949462890625e+01 -8.179723739624023438e+00 8.063114881515502930e-01 7.039065837860107422e+00 2.353613138198852539e+00 -2.461785793304443359e+00
8.650000000000000000e+02 6.794387817382812500e+01 -1.210064220428466797e+01 1.350392341613769531e+00 1.210437297821044922e+01 4.036429405212402344e+00 -3.623637676239013672e+00
8.660000000000000000e+02 6.835557556152343750e+01 -1.345815086364746094e+01 1.330487251281738281e+00 1.515962600708007812e+01 4.947033882141113281e+00 -3.407117366790771484e+00
8.670000000000000000e+02 7.001514434814453125e+01 -1.870057678222656250e+01 1.983080059289932251e-01 1.417923831939697266e+01 4.313263893127441406e+00 -4.813163578510284424e-01
8.680000000000000000e+02 6.885945892333984375e+01 -2.036962699890136719e+01 -1.111028995364904404e-02 1.494327926635742188e+01 4.479650974273681641e+00 -9.704863280057907104e-02
8.690000000000000000e+02 6.896817016601562500e+01 -2.310768699645996094e+01 1.892405897378921509e-01 1.550987052917480469e+01 4.709733486175537109e+00 3.322078287601470947e-01
8.700000000000000000e+02 6.902437591552734375e+01 -2.444060516357421875e+01 1.061246633529663086e+00 1.519346523284912109e+01 4.876413345336914062e+00 1.481016635894775391e+00
8.710000000000000000e+02 6.769499206542968750e+01 -2.789929008483886719e+01 1.252796411514282227e+00 7.761919975280761719e+00 2.704415082931518555e+00 2.757907629013061523e+00
8.720000000000000000e+02 5.472916030883789062e+01 -3.091236114501953125e+01 -6.205970644950866699e-01 -3.996608033776283264e-02 -1.981689482927322388e-01 1.768601983785629272e-01
8.730000000000000000e+02 5.113899230957031250e+01 -2.691872596740722656e+01 1.566179096698760986e-01 3.038052916526794434e-01 1.381269544363021851e-01 -2.131140083074569702e-01
8.740000000000000000e+02 5.017399597167968750e+01 -2.594338989257812500e+01 1.997907906770706177e-01 3.480130732059478760e-01 1.643411666154861450e-01 -2.945975363254547119e-01
8.750000000000000000e+02 4.726185607910156250e+01 -2.301044845581054688e+01 4.239559769630432129e-01 6.385080218315124512e-01 3.187392055988311768e-01 -4.864952564239501953e-01
8.760000000000000000e+02 4.342453002929687500e+01 -1.891491889953613281e+01 1.367511510848999023e+00 4.520408630371093750e+00 1.766376018524169922e+00 -2.361104965209960938e+00
8.770000000000000000e+02 4.154827499389648438e+01 -1.354271411895751953e+01 3.425149321556091309e-01 1.491691684722900391e+01 4.577829360961914062e+00 -1.268046617507934570e+00
8.780000000000000000e+02 4.040239334106445312e+01 -1.360373306274414062e+01 4.584465324878692627e-01 1.305673694610595703e+01 4.054554939270019531e+00 -1.049995183944702148e+00
8.790000000000000000e+02 4.134789657592773438e+01 -7.961865425109863281e+00 7.334469556808471680e-01 1.702678489685058594e+01 5.328069686889648438e+00 1.219012022018432617e+00
8.800000000000000000e+02 4.152505874633789062e+01 -6.573986053466796875e+00 1.220163464546203613e+00 1.649755287170410156e+01 5.315315246582031250e+00 2.835438013076782227e+00
8.810000000000000000e+02 4.370218276977539062e+01 -4.501600936055183411e-02 1.388706803321838379e+00 7.438241958618164062e+00 2.648084640502929688e+00 3.666849613189697266e+00
8.820000000000000000e+02 1.367202091217041016e+01 1.167473554611206055e+00 1.169010877609252930e+00 1.844112038612365723e+00 9.039368629455566406e-01 -2.379754066467285156e+00
8.830000000000000000e+02 1.388492965698242188e+01 1.118757247924804688e+00 1.274061679840087891e+00 2.362552404403686523e+00 1.090984225273132324e+00 -2.678305864334106445e+00
8.840000000000000000e+02 1.370552349090576172e+01 1.620208740234375000e+00 9.162257909774780273e-01 2.704725265502929688e+00 1.086285352706909180e+00 -2.697645902633666992e+00
8.850000000000000000e+02 1.554879379272460938e+01 9.298593997955322266e-01 1.289777874946594238e+00 9.135674476623535156e+00 3.127635478973388672e+00 -4.679166793823242188e+00
8.860000000000000000e+02 1.574337863922119141e+01 8.584475517272949219e-01 1.193347096443176270e+00 1.064921092987060547e+01 3.552767276763916016e+00 -4.481925010681152344e+00
8.870000000000000000e+02 1.529511260986328125e+01 9.471178650856018066e-01 1.600092411041259766e+00 7.489842414855957031e+00 2.726980447769165039e+00 -4.748600482940673828e+00
8.880000000000000000e+02 1.659999656677246094e+01 7.102731466293334961e-01 1.437054276466369629e+00 1.321598720550537109e+01 4.395912170410156250e+00 -1.298028349876403809e+00
8.890000000000000000e+02 1.506587505340576172e+01 9.491290450096130371e-01 1.768829345703125000e+00 6.173806190490722656e+00 2.382790803909301758e+00 -4.677898406982421875e+00
8.900000000000000000e+02 1.321692180633544922e+01 1.272848606109619141e+00 7.553514242172241211e-01 1.597036957740783691e+00 7.057164907455444336e-01 -1.983740091323852539e+00
8.910000000000000000e+02 1.462541484832763672e+01 -2.404842376708984375e+00 5.028447628021240234e+00 2.981689691543579102e+00 2.403041124343872070e+00 3.397023677825927734e+00
8.920000000000000000e+02 1.441373920440673828e+01 -2.346187114715576172e+00 4.965870380401611328e+00 2.121462106704711914e+00 2.126199722290039062e+00 2.911091566085815430e+00
8.930000000000000000e+02 1.382189750671386719e+01 -2.279682636260986328e+00 4.285449504852294922e+00 9.371368885040283203e-01 1.566775918006896973e+00 1.910593152046203613e+00
8.940000000000000000e+02 1.280799961090087891e+01 -2.107485294342041016e+00 3.073601722717285156e+00 1.945371180772781372e-01 9.804416894912719727e-01 9.151689410209655762e-01
8.950000000000000000e+02 1.357839870452880859e+01 -2.293432235717773438e+00 3.994990825653076172e+00 7.239412665367126465e-01 1.415679574012756348e+00 1.623010039329528809e+00
8.960000000000000000e+02 1.666898727416992188e+01 -3.179069995880126953e+00 2.740181922912597656e+00 9.372943878173828125e+00 3.633937597274780273e+00 5.033779144287109375e-01
8.970000000000000000e+02 1.335746860504150391e+01 -2.214803695678710938e+00 3.626529932022094727e+00 4.961324632167816162e-01 1.236798763275146484e+00 1.346900224685668945e+00
8.980000000000000000e+02 1.522937679290771484e+01 -2.441782474517822266e+00 4.830079555511474609e+00 6.329390525817871094e+00 3.347841024398803711e+00 4.366978645324707031e+00
8.990000000000000000e+02 1.493571567535400391e+01 -2.713092803955078125e+00 4.423575401306152344e+00 4.849830150604248047e+00 2.782021760940551758e+00 3.794692039489746094e+00
9.000000000000000000e+02 1.411881637573242188e+01 -2.613633632659912109e+00 4.448069572448730469e+00 1.910229086875915527e+00 1.907489538192749023e+00 2.696575880050659180e+00
9.010000000000000000e+02 1.319627761840820312e+01 -2.123614311218261719e+00 3.380057334899902344e+00 2.025479227304458618e-01 1.074781537055969238e+00 1.056509494781494141e+00
9.020000000000000000e+02 1.020383262634277344e+01 -1.890879154205322266e+00 1.220883250236511230e+00 -1.654549315571784973e-02 3.613013327121734619e-01 3.553625345230102539e-01
9.030000000000000000e+02 1.084824275970458984e+01 -2.589051246643066406e+00 1.832578778266906738e+00 5.284169688820838928e-02 5.656261444091796875e-01 7.260995507240295410e-01
9.040000000000000000e+02 1.014731216430664062e+01 -3.175508260726928711e+00 1.668199300765991211e+00 1.337621808052062988e-01 5.405884385108947754e-01 8.906072378158569336e-01
9.050000000000000000e+02 9.429464340209960938e+00 -2.534826517105102539e+00 1.212992191314697266e+00 4.375480115413665771e-02 3.770240843296051025e-01 5.352119803428649902e-01
9.060000000000000000e+02 8.044836997985839844e+00 2.545746088027954102e+00 -4.773562550544738770e-01 1.973613500595092773e-01 -8.399846404790878296e-02 2.952682673931121826e-01
9.070000000000000000e+02 1.046582412719726562e+01 1.740299463272094727e+00 -5.499783158302307129e-01 3.139670193195343018e-01 -7.080339640378952026e-02 -2.737312614917755127e-01
9.080000000000000000e+02 1.114234733581542969e+01 2.274860858917236328e+00 -3.850206034258008003e-03 8.081316351890563965e-01 2.412844151258468628e-01 -7.835039496421813965e-01
9.090000000000000000e+02 1.997642326354980469e+01 5.028696537017822266e+00 2.261852771043777466e-01 4.264764308929443359e+00 1.347284913063049316e+00 -1.291480183601379395e+00
9.100000000000000000e+02 1.708366394042968750e+01 -2.311136007308959961e+00 5.075881958007812500e+00 1.120516204833984375e+01 4.884313106536865234e+00 -2.138791799545288086e+00
9.110000000000000000e+02 1.619450378417968750e+01 -2.546069860458374023e+00 3.403645992279052734e+00 1.121022796630859375e+01 4.384161949157714844e+00 1.506159067153930664e+00
9.120000000000000000e+02 1.922872543334960938e+01 -1.285187602043151855e+00 6.407956600189208984e+00 4.481050014495849609e+00 3.266701936721801758e+00 -2.140923976898193359e+00
9.130000000000000000e+02 1.777175331115722656e+01 -7.270345091819763184e-01 8.837807655334472656e+00 8.457949638366699219e+00 5.188726902008056641e+00 -6.480737328529357910e-01
9.140000000000000000e+02 1.981944084167480469e+01 3.275073051452636719e+00 -2.974107563495635986e-01 4.904567718505859375e+00 1.382147073745727539e+00 -4.683494269847869873e-01
9.150000000000000000e+02 5.025907993316650391e+00 1.887134552001953125e+00 -5.664708018302917480e-01 -1.685255579650402069e-02 -1.749970018863677979e-01 4.783017337322235107e-01
9.160000000000000000e+02 5.801807880401611328e+00 1.873866558074951172e+00 -6.770744919776916504e-01 5.376971326768398285e-03 -2.015092521905899048e-01 4.751155376434326172e-01
9.170000000000000000e+02 7.351808547973632812e+00 1.856613516807556152e+00 -8.479675650596618652e-01 6.878209114074707031e-02 -2.337556481361389160e-01 4.009836912155151367e-01
9.180000000000000000e+02 5.747795581817626953e+00 2.615833044052124023e+00 -4.225195646286010742e-01 2.982590720057487488e-02 -1.178080961108207703e-01 5.357250571250915527e-01
9.190000000000000000e+02 5.005022048950195312e+00 3.392005205154418945e+00 -2.002385705709457397e-01 -2.005836740136146545e-02 -6.608907878398895264e-02 5.871078372001647949e-01
9.200000000000000000e+02 1.182448267936706543e+00 3.393100738525390625e+00 -2.867979928851127625e-02 -4.097136855125427246e-01 -1.315180510282516479e-01 2.656277120113372803e-01
9.210000000000000000e+02 2.704620838165283203e+00 1.992974281311035156e+00 -2.248501181602478027e-01 -1.317173093557357788e-01 -1.069702282547950745e-01 3.561617136001586914e-01
9.220000000000000000e+02 1.960461974143981934e+00 3.184493541717529297e+00 -7.345916330814361572e-02 -3.296122550964355469e-01 -1.209214255213737488e-01 3.824133872985839844e-01
9.230000000000000000e+02 8.824123382568359375e+00 2.504792451858520508e+00 -4.133180975914001465e-01 2.644447088241577148e-01 -4.466201364994049072e-02 1.272041499614715576e-01
9.240000000000000000e+02 7.273544311523437500e+00 2.573145389556884766e+00 -4.743506610393524170e-01 1.362671256065368652e-01 -1.014250591397285461e-01 4.112247526645660400e-01
9.250000000000000000e+02 1.038625431060791016e+01 2.370543479919433594e+00 -2.114306986331939697e-01 5.527951717376708984e-01 1.024093478918075562e-01 -4.305799603462219238e-01
9.260000000000000000e+02 9.609482765197753906e+00 2.448704004287719727e+00 -3.170440495014190674e-01 3.706942200660705566e-01 1.609505526721477509e-02 -1.269829422235488892e-01
9.270000000000000000e+02 8.662868499755859375e+00 -2.559318065643310547e+00 9.629914164543151855e-01 7.179619371891021729e-02 3.104362785816192627e-01 4.849959611892700195e-01
9.280000000000000000e+02 6.239862442016601562e+00 -2.741852521896362305e+00 4.442802071571350098e-01 1.159965544939041138e-01 1.680830270051956177e-01 2.894110083580017090e-01
9.290000000000000000e+02 7.011310100555419922e+00 -1.889020800590515137e+00 4.129299819469451904e-01 4.770055040717124939e-02 1.381891518831253052e-01 2.058463841676712036e-01
9.300000000000000000e+02 7.869202136993408203e+00 -2.607039690017700195e+00 7.649037837982177734e-01 7.558998465538024902e-02 2.521481513977050781e-01 4.170979261398315430e-01
9.310000000000000000e+02 7.059406757354736328e+00 -2.668627738952636719e+00 5.909867286682128906e-01 1.065513864159584045e-01 2.092614322900772095e-01 3.623709082603454590e-01
9.320000000000000000e+02 5.364741802215576172e+00 -1.938822984695434570e+00 2.102009803056716919e-01 5.553537234663963318e-02 7.972090691328048706e-02 1.163535714149475098e-01
9.330000000000000000e+02 4.591806411743164062e+00 -2.902330160140991211e+00 2.404437065124511719e-01 1.196084618568420410e-01 1.080156490206718445e-01 1.621764004230499268e-01
9.340000000000000000e+02 1.768869757652282715e+00 -9.094951629638671875e+00 -4.298290982842445374e-02 5.906220674514770508e-01 1.642917394638061523e-01 1.570615172386169434e-01
9.350000000000000000e+02 5.534895658493041992e-01 -6.377045154571533203e+00 1.700956374406814575e-03 5.081559717655181885e-02 1.575496606528759003e-02 4.720946401357650757e-02
9.360000000000000000e+02 3.079932212829589844e+00 -4.062174797058105469e+00 1.581327319145202637e-01 1.791387349367141724e-01 1.011814400553703308e-01 1.595389395952224731e-01
9.370000000000000000e+02 4.351403117179870605e-01 -3.568024158477783203e+00 9.922111639752984047e-04 -9.208748489618301392e-02 -2.732858061790466309e-02 -7.052114233374595642e-04
9.380000000000000000e+02 1.730519056320190430e+00 -3.190725898742675781e+01 -1.974121183156967163e-01 6.239892482757568359e+00 1.812744140625000000e+00 2.728519141674041748e-01
9.390000000000000000e+02 3.155995368957519531e+01 -1.758777809143066406e+01 -4.464596271514892578e+00 -2.678906545042991638e-02 -1.347415566444396973e+00 2.232278883457183838e-02
9.400000000000000000e+02 3.393577957153320312e+01 -1.863666725158691406e+01 1.606476604938507080e-01 5.175498962402343750e+00 1.600843906402587891e+00 -2.132470607757568359e+00
9.410000000000000000e+02 4.159951400756835938e+01 -1.832415008544921875e+01 5.735457539558410645e-01 9.750178337097167969e+00 3.097117185592651367e+00 -8.186128139495849609e-01
9.420000000000000000e+02 3.943317031860351562e+01 -1.501724529266357422e+01 4.922732114791870117e-01 1.141243171691894531e+01 3.571411371231079102e+00 -5.284420251846313477e-01
9.430000000000000000e+02 2.445191764831542969e+01 -2.500751256942749023e+00 5.281378269195556641e+00 8.847683668136596680e-01 1.849843978881835938e+00 -1.493554353713989258e+00
9.440000000000000000e+02 2.821980094909667969e+01 -2.212326049804687500e+00 4.340516090393066406e+00 2.439885633066296577e-03 1.302886724472045898e+00 -6.473951935768127441e-01
9.450000000000000000e+02 7.571591377258300781e+00 -1.556874370574951172e+01 -7.452687621116638184e-02 5.356690883636474609e+00 1.584649205207824707e+00 2.097312927246093750e+00
9.460000000000000000e+02 3.434001159667968750e+01 -1.739924812316894531e+01 -1.938485980033874512e+00 7.084083557128906250e+00 1.543679237365722656e+00 -1.786173224449157715e+00
9.470000000000000000e+02 3.785557556152343750e+01 -2.306637763977050781e+01 1.926630616188049316e+00 1.007477760314941406e+01 3.600422382354736328e+00 2.260868698358535767e-01
9.480000000000000000e+02 3.534268569946289062e+01 -2.297868347167968750e+01 2.175022065639495850e-01 1.649650764465332031e+01 5.014202594757080078e+00 4.593167603015899658e-01
9.490000000000000000e+02 1.081525802612304688e+01 -3.438346862792968750e+01 -8.834963440895080566e-01 -2.651731371879577637e-01 -3.446008563041687012e-01 3.396287262439727783e-01
9.500000000000000000e+02 3.389798641204833984e+00 -1.994886779785156250e+01 8.917621970176696777e-01 3.772932529449462891e+00 1.399408459663391113e+00 6.860800385475158691e-01
9.510000000000000000e+02 1.633342146873474121e+00 -1.889772987365722656e+01 1.955364346504211426e-01 5.960175991058349609e-01 2.374662160873413086e-01 -1.165989860892295837e-01
9.520000000000000000e+02 1.557602405548095703e+01 -1.682877540588378906e+01 -4.502864837646484375e+00 -7.268762588500976562e-01 -1.568922281265258789e+00 1.688335180282592773e+00
9.530000000000000000e+02 1.294116973876953125e+01 -1.513028907775878906e+01 -2.276883840560913086e+00 -5.324801802635192871e-01 -8.428092002868652344e-01 1.765388846397399902e+00
9.540000000000000000e+02 2.840481567382812500e+01 -3.131650924682617188e+01 -9.691725373268127441e-01 2.934466004371643066e-01 -2.027177661657333374e-01 3.452661335468292236e-01
9.550000000000000000e+02 3.044816017150878906e+01 -3.242777252197265625e+01 -4.163801074028015137e-01 2.289736747741699219e+00 5.620070099830627441e-01 1.525816202163696289e+00
9.560000000000000000e+02 1.325052261352539062e+01 -3.166022109985351562e+01 -3.094546318054199219e+00 -3.007742762565612793e-01 -1.018596172332763672e+00 8.144579529762268066e-01
9.570000000000000000e+02 2.872361898422241211e+00 -1.752771568298339844e+01 2.338838875293731689e-01 2.246187686920166016e+00 7.440214753150939941e-01 -2.518664598464965820e-01
9.580000000000000000e+02 3.510851287841796875e+01 -2.880810737609863281e+01 4.344978928565979004e-01 8.920293807983398438e+00 2.806437492370605469e+00 1.739187479019165039e+00
9.590000000000000000e+02 2.213919258117675781e+01 -1.739728736877441406e+01 -3.014799118041992188e+00 4.060334861278533936e-01 -7.826296687126159668e-01 1.550052016973495483e-01
9.600000000000000000e+02 3.717077636718750000e+01 -2.728523826599121094e+01 1.035385966300964355e+00 8.808645248413085938e+00 2.953209400177001953e+00 -8.252710849046707153e-02
9.610000000000000000e+02 1.181608200073242188e+01 -1.389296245574951172e+01 -9.631295204162597656e-01 8.985487818717956543e-01 -1.937421783804893494e-02 2.891169309616088867e+00
9.620000000000000000e+02 1.035036849975585938e+01 -1.491290092468261719e+01 -8.502748012542724609e-01 2.253468751907348633e+00 4.209581613540649414e-01 3.077723503112792969e+00
9.630000000000000000e+02 1.741526985168457031e+01 -1.631340217590332031e+01 -3.428814888000488281e+00 1.307768076658248901e-01 -9.894114136695861816e-01 8.586218953132629395e-01
9.640000000000000000e+02 3.319048690795898438e+01 -2.847114944458007812e+01 2.557328224182128906e+00 6.156004905700683594e+00 2.614000082015991211e+00 3.484770059585571289e+00
9.650000000000000000e+02 7.181752920150756836e-01 -2.751301574707031250e+01 -3.347287699580192566e-02 4.749827861785888672e+00 1.414906382560729980e+00 7.333686351776123047e-01
9.660000000000000000e+02 9.119348526000976562e+00 -1.466426753997802734e+01 -7.984977960586547852e-01 3.376770019531250000e+00 7.734816670417785645e-01 2.579325914382934570e+00
9.670000000000000000e+02 8.850763320922851562e+00 -1.606686210632324219e+01 1.282905340194702148e+00 3.860149621963500977e+00 1.542916536331176758e+00 2.791058063507080078e+00
9.680000000000000000e+02 1.580312609672546387e+00 -2.020922660827636719e+01 3.083026409149169922e-01 7.130822539329528809e-01 3.064154684543609619e-01 2.555215358734130859e-01
9.690000000000000000e+02 1.808238410949707031e+01 -1.794411277770996094e+01 -3.432296514511108398e+00 -1.899142712354660034e-01 -1.086663246154785156e+00 1.097255587577819824e+00
9.700000000000000000e+02 3.409571456909179688e+01 -2.969563865661621094e+01 3.849532008171081543e-01 6.729503631591796875e+00 2.134337186813354492e+00 2.090331554412841797e+00
9.710000000000000000e+02 3.301376342773437500e+01 -3.062837600708007812e+01 2.511498332023620605e-01 5.302560329437255859e+00 1.666113138198852539e+00 1.975630760192871094e+00
9.720000000000000000e+02 1.580081462860107422e+01 -3.586183547973632812e+01 -7.936747074127197266e-01 -5.143283605575561523e-01 -3.924009203910827637e-01 4.477650821208953857e-01
9.730000000000000000e+02 1.858520698547363281e+01 -1.678773307800292969e+01 -3.223559856414794922e+00 2.237891107797622681e-01 -8.999312520027160645e-01 7.604530453681945801e-01
9.740000000000000000e+02 2.062586402893066406e+01 -1.858554077148437500e+01 -3.216473579406738281e+00 1.335840672254562378e-01 -9.248669147491455078e-01 4.353129863739013672e-01
9.750000000000000000e+02 2.019143676757812500e+01 -3.183962249755859375e+01 -1.993345260620117188e+00 2.337238984182476997e-03 -5.973024368286132812e-01 -2.563267573714256287e-02
9.760000000000000000e+02 2.307107162475585938e+01 -3.281540298461914062e+01 -1.519510626792907715e+00 -5.994508415460586548e-02 -4.738366901874542236e-01 -1.352338120341300964e-02
9.770000000000000000e+02 2.089836311340332031e+01 -1.738590431213378906e+01 -3.065561771392822266e+00 3.655610680580139160e-01 -8.100002408027648926e-01 3.140214681625366211e-01
9.780000000000000000e+02 2.586882209777832031e+01 -1.837836837768554688e+01 -4.057024002075195312e+00 2.804534509778022766e-02 -1.208693623542785645e+00 -5.935871601104736328e-01
9.790000000000000000e+02 2.349570274353027344e+01 -1.594036579132080078e+01 -2.253143310546875000e+00 4.800158441066741943e-01 -5.319382548332214355e-01 -9.509375691413879395e-02
9.800000000000000000e+02 2.811871528625488281e+01 -1.699385643005371094e+01 -3.536019086837768555e+00 -1.247076392173767090e-01 -1.098217964172363281e+00 -3.115582466125488281e-01
9.810000000000000000e+02 2.880488014221191406e+01 -3.281614685058593750e+01 -5.277829170227050781e-01 9.804621338844299316e-01 1.358037590980529785e-01 1.019392728805541992e+00
9.820000000000000000e+02 2.713025093078613281e+01 -3.282348251342773438e+01 -8.967279791831970215e-01 4.075877666473388672e-01 -1.467420607805252075e-01 3.792430460453033447e-01
9.830000000000000000e+02 2.554647636413574219e+01 -3.149377059936523438e+01 -1.637749195098876953e+00 6.662129610776901245e-02 -4.713383913040161133e-01 -6.620173156261444092e-02
9.840000000000000000e+02 1.424780845642089844e+01 -1.528687477111816406e+01 -2.811196088790893555e+00 -6.012113690376281738e-01 -1.023722290992736816e+00 1.396309852600097656e+00
9.850000000000000000e+02 3.211134719848632812e+01 -1.638386917114257812e+01 -1.013155460357666016e+00 8.420140147209167480e-01 -5.134243518114089966e-02 -1.612125515937805176e+00
9.860000000000000000e+02 2.904599571228027344e+01 -1.672763061523437500e+01 -2.756696701049804688e+00 -8.018272370100021362e-02 -8.510637879371643066e-01 -1.280230432748794556e-01
9.870000000000000000e+02 2.715692520141601562e+01 -1.818881416320800781e+01 -4.533670902252197266e+00 -2.107555568218231201e-01 -1.423327922821044922e+00 -6.300445199012756348e-01
9.880000000000000000e+02 3.320759201049804688e+01 -1.691382026672363281e+01 -1.507024645805358887e+00 3.508642435073852539e+00 6.004853248596191406e-01 -2.420401096343994141e+00
9.890000000000000000e+02 2.326657867431640625e+01 -1.862697601318359375e+01 -3.505086660385131836e+00 1.205731630325317383e-01 -1.015354037284851074e+00 -1.629649996757507324e-01
9.900000000000000000e+02 4.095106601715087891e+00 -1.620206260681152344e+01 1.465512961149215698e-01 3.502102851867675781e+00 1.094596266746520996e+00 -7.822004705667495728e-02
9.910000000000000000e+02 1.468085289001464844e+01 -3.189600372314453125e+01 -2.865619897842407227e+00 -2.363162636756896973e-01 -9.305807948112487793e-01 6.413156986236572266e-01
9.920000000000000000e+02 1.641662597656250000e+01 -3.365476226806640625e+01 -1.718334913253784180e+00 -3.748820126056671143e-01 -6.279650926589965820e-01 4.786621630191802979e-01
9.930000000000000000e+02 1.489636993408203125e+01 -3.396460723876953125e+01 -1.515971064567565918e+00 -4.553968310356140137e-01 -5.914103984832763672e-01 6.103099584579467773e-01
9.940000000000000000e+02 1.142573928833007812e+01 -3.291884994506835938e+01 -1.769911646842956543e+00 -5.150069594383239746e-01 -6.854755878448486328e-01 7.936463952064514160e-01
9.950000000000000000e+02 1.316172790527343750e+01 -3.373857498168945312e+01 -1.532357931137084961e+00 -4.647865295410156250e-01 -5.991433262825012207e-01 7.139254808425903320e-01
9.960000000000000000e+02 3.659585952758789062e+01 -2.298794174194335938e+01 1.557073473930358887e+00 1.371596145629882812e+01 4.581910610198974609e+00 1.024523138999938965e+00
9.970000000000000000e+02 3.671277999877929688e+01 -2.416598320007324219e+01 2.352201461791992188e+00 1.159669971466064453e+01 4.184670448303222656e+00 1.067787289619445801e+00
9.980000000000000000e+02 1.816466808319091797e+00 -2.287855911254882812e+01 4.303780496120452881e-01 2.263879776000976562e+00 8.082773685455322266e-01 1.266453742980957031e+00
9.990000000000000000e+02 2.186136627197265625e+01 -3.307027435302734375e+01 -1.546691179275512695e+00 -7.279321551322937012e-02 -4.858453273773193359e-01 1.585682295262813568e-02
1.000000000000000000e+03 2.367197227478027344e+01 -3.388988494873046875e+01 -1.102123856544494629e+00 2.690925449132919312e-02 -3.225643932819366455e-01 1.024615988135337830e-01
1.001000000000000000e+03 4.702896118164062500e+01 1.523243904113769531e+00 -5.228706359863281250e+00 -5.506486892700195312e-01 -1.733806490898132324e+00 1.064100742340087891e+00
1.002000000000000000e+03 4.985813522338867188e+01 6.365767121315002441e-01 -4.626532554626464844e+00 -5.037152171134948730e-01 -1.539074420928955078e+00 1.541635632514953613e+00
1.003000000000000000e+03 4.067316818237304688e+01 6.998619556427001953e+00 1.782790422439575195e+00 1.089375400543212891e+01 3.802963256835937500e+00 3.715221166610717773e+00
1.004000000000000000e+03 7.408454132080078125e+01 -2.464795875549316406e+01 5.344866514205932617e-01 9.627365112304687500e+00 3.048555374145507812e+00 -9.605143666267395020e-01
1.005000000000000000e+03 2.773106956481933594e+01 4.144112777709960938e+01 -2.008595943450927734e+00 -6.185522079467773438e-01 -7.881444096565246582e-01 -4.414472356438636780e-02
1.006000000000000000e+03 4.195584106445312500e+01 3.195507812500000000e+01 -6.106925010681152344e-01 2.869297742843627930e+00 6.775816082954406738e-01 1.795839518308639526e-01
1.007000000000000000e+03 4.093479537963867188e+01 3.323868942260742188e+01 -9.102769494056701660e-01 2.078948497772216797e+00 3.506014943122863770e-01 1.364304721355438232e-01
1.008000000000000000e+03 6.854243469238281250e+01 -6.626854896545410156e+00 4.168776050209999084e-02 7.837292194366455078e+00 2.363693952560424805e+00 -1.098092436790466309e+00
1.009000000000000000e+03 1.295126914978027344e+01 2.422297286987304688e+01 4.901886582374572754e-01 5.894810199737548828e+00 1.915499687194824219e+00 -7.585980892181396484e-01
1.010000000000000000e+03 2.224915313720703125e+01 1.427207946777343750e+00 4.660265743732452393e-01 6.444115191698074341e-02 1.591403186321258545e-01 -1.930911540985107422e-01
1.011000000000000000e+03 6.233596420288085938e+01 -1.715233564376831055e+00 -1.606945633888244629e+00 1.500933766365051270e+00 -3.180356696248054504e-02 -7.191406488418579102e-01
1.012000000000000000e+03 1.990872383117675781e+01 3.654661941528320312e+01 -1.600563049316406250e+00 4.194756746292114258e-01 -3.543262183666229248e-01 -3.024259209632873535e-01
1.013000000000000000e+03 3.129022598266601562e+01 -4.003215312957763672e+00 3.147972583770751953e+00 1.802728325128555298e-01 9.984736442565917969e-01 -1.255485892295837402e+00
1.014000000000000000e+03 3.668871688842773438e+01 3.518372726440429688e+01 -2.034699201583862305e+00 -4.148073196411132812e-01 -7.348519563674926758e-01 8.475219011306762695e-01
1.015000000000000000e+03 3.279896163940429688e+01 3.675162887573242188e+01 -2.575381755828857422e+00 -2.463361173868179321e-01 -8.465154170989990234e-01 6.553817391395568848e-01
1.016000000000000000e+03 4.076668548583984375e+01 -1.631107711791992188e+01 8.303092122077941895e-01 1.178794765472412109e+01 3.785477161407470703e+00 -8.421289920806884766e-01
1.017000000000000000e+03 6.876513671875000000e+01 -1.623688316345214844e+01 4.276882112026214600e-01 1.689378738403320312e+01 5.196443080902099609e+00 -9.051514863967895508e-01
1.018000000000000000e+03 7.035942840576171875e+01 -1.138657855987548828e+01 5.726242065429687500e-01 1.092363929748535156e+01 3.448879003524780273e+00 -6.185234785079956055e-01
1.019000000000000000e+03 4.254202651977539062e+01 3.017970275878906250e+01 -7.605966180562973022e-02 3.565936326980590820e+00 1.046962976455688477e+00 2.285991907119750977e-01
1.020000000000000000e+03 4.212115478515625000e+01 2.926036715507507324e-01 -6.346057057380676270e-01 1.073859596252441406e+01 3.031197071075439453e+00 1.949570298194885254e+00
1.021000000000000000e+03 4.302460861206054688e+01 -1.194979906082153320e+00 3.041618585586547852e+00 1.197096443176269531e+01 4.503774642944335938e+00 5.012154579162597656e+00
1.022000000000000000e+03 1.400058555603027344e+01 1.967313003540039062e+01 6.067752242088317871e-01 8.202128410339355469e+00 2.642671108245849609e+00 -1.105593562126159668e+00
1.023000000000000000e+03 1.590525054931640625e+01 1.550815391540527344e+01 7.750369310379028320e-01 9.695731163024902344e+00 3.141230344772338867e+00 -2.467543601989746094e+00
1.024000000000000000e+03 2.808461380004882812e+01 3.938922882080078125e+01 -2.296224832534790039e+00 -5.257499217987060547e-01 -8.465924263000488281e-01 -6.401611864566802979e-02
1.025000000000000000e+03 5.959463119506835938e+01 -6.730002760887145996e-01 -2.668345451354980469e+00 1.557513326406478882e-01 -7.537782192230224609e-01 3.415088355541229248e-02
1.026000000000000000e+03 3.967529296875000000e+01 -3.692883253097534180e+00 1.519447803497314453e+00 1.034491443634033203e+01 3.559308528900146484e+00 2.085670232772827148e+00
1.027000000000000000e+03 4.286216354370117188e+01 1.831616210937500000e+01 3.230654001235961914e-01 6.571217060089111328e+00 2.068284749984741211e+00 1.019928932189941406e+00
1.028000000000000000e+03 6.963057708740234375e+01 -2.822607803344726562e+01 -1.762986779212951660e-01 9.688856124877929688e+00 2.853767156600952148e+00 -2.869868092238903046e-02
1.029000000000000000e+03 6.584561157226562500e+01 -2.998307609558105469e+01 2.516593039035797119e-01 2.129571437835693359e+00 7.143692374229431152e-01 1.222698926925659180e+00
1.030000000000000000e+03 7.044373321533203125e+01 -3.179388046264648438e+01 -1.005429983139038086e+00 8.124127388000488281e+00 2.135609388351440430e+00 -5.602368712425231934e-02
1.031000000000000000e+03 2.384128379821777344e+01 3.878003311157226562e+01 -1.992952704429626465e+00 -3.188344538211822510e-01 -6.935361623764038086e-01 -3.017157018184661865e-01
1.032000000000000000e+03 4.250373077392578125e+01 -1.947207260131835938e+01 4.540868103504180908e-01 7.241621017456054688e+00 2.308712244033813477e+00 -1.622680425643920898e+00
1.033000000000000000e+03 5.544014358520507812e+01 -3.447601318359375000e+01 -7.402508258819580078e-01 3.836865425109863281e-01 -1.069692894816398621e-01 -5.223152041435241699e-01
1.034000000000000000e+03 5.847944259643554688e+01 -3.577692413330078125e+01 -3.147414326667785645e-01 -5.910597741603851318e-02 -1.121542230248451233e-01 -4.251284003257751465e-01
1.035000000000000000e+03 4.098527908325195312e+01 2.970908403396606445e+00 -8.172389864921569824e-01 9.875364303588867188e+00 2.717437505722045898e+00 2.087640047073364258e+00
1.036000000000000000e+03 4.040297698974609375e+01 -6.513552188873291016e+00 1.543406844139099121e+00 1.320382595062255859e+01 4.424170017242431641e+00 1.478916406631469727e+00
1.037000000000000000e+03 4.142754364013671875e+01 -1.215557098388671875e+01 5.298765003681182861e-02 1.476999473571777344e+01 4.446894645690917969e+00 -9.953485131263732910e-01
1.038000000000000000e+03 4.059338760375976562e+01 -1.496541500091552734e+01 6.767002344131469727e-01 1.272863483428955078e+01 4.021600246429443359e+00 -1.076183438301086426e+00
1.039000000000000000e+03 1.834530258178710938e+01 -2.041482925415039062e+00 6.664031505584716797e+00 6.419176578521728516e+00 3.924962282180786133e+00 -2.839399576187133789e+00
1.040000000000000000e+03 6.349673843383789062e+01 -3.410215377807617188e+01 -7.643055915832519531e-01 9.620043039321899414e-01 5.930961668491363525e-02 5.573437809944152832e-01
1.041000000000000000e+03 6.453309631347656250e+01 -3.280144119262695312e+01 -1.014505267143249512e+00 1.802027821540832520e+00 2.362567335367202759e-01 5.409284234046936035e-01
1.042000000000000000e+03 1.844186019897460938e+01 3.187068176269531250e+01 -1.848327666521072388e-01 8.837695121765136719e-01 2.096810191869735718e-01 1.433645635843276978e-01
1.043000000000000000e+03 1.566512012481689453e+01 3.004904937744140625e+01 -3.194681406021118164e-01 3.322968244552612305e+00 9.010500311851501465e-01 5.878210812807083130e-02
1.044000000000000000e+03 4.136062240600585938e+01 1.422070789337158203e+01 5.247921347618103027e-01 9.692225456237792969e+00 3.065105199813842773e+00 1.681694388389587402e+00
1.045000000000000000e+03 4.273490524291992188e+01 1.548455810546875000e+01 7.648054957389831543e-01 7.640963077545166016e+00 2.521730422973632812e+00 1.711908578872680664e+00
1.046000000000000000e+03 4.259916305541992188e+01 1.403474140167236328e+01 9.521986246109008789e-01 8.136828422546386719e+00 2.726707935333251953e+00 2.010910272598266602e+00
1.047000000000000000e+03 3.202753829956054688e+01 3.858631896972656250e+01 -2.361592769622802734e+00 -2.867818474769592285e-01 -7.945124506950378418e-01 3.065784275531768799e-01
1.048000000000000000e+03 2.251334762573242188e+01 -2.870226800441741943e-01 3.366942167282104492e+00 5.348302721977233887e-01 1.170531749725341797e+00 -1.731795072555541992e+00
1.049000000000000000e+03 1.598394107818603516e+01 1.095124530792236328e+01 9.184069037437438965e-01 7.658596992492675781e+00 2.573101043701171875e+00 -2.237579584121704102e+00
1.050000000000000000e+03 1.542608833312988281e+01 1.238108253479003906e+01 9.501859545707702637e-01 7.791201591491699219e+00 2.622416257858276367e+00 -2.203294754028320312e+00
1.051000000000000000e+03 4.281248855590820312e+01 2.848788452148437500e+01 2.548620700836181641e-01 4.009438037872314453e+00 1.279289960861206055e+00 1.402598023414611816e-01
1.052000000000000000e+03 4.396277999877929688e+01 3.048373985290527344e+01 -2.146875858306884766e-01 3.639742136001586914e+00 1.027516365051269531e+00 5.207369923591613770e-01
1.053000000000000000e+03 1.819772148132324219e+01 3.374085617065429688e+01 -1.047843575477600098e+00 1.059853315353393555e+00 3.602915210649371147e-03 -2.308450341224670410e-01
1.054000000000000000e+03 1.633562088012695312e+01 2.810033798217773438e+01 3.039894998073577881e-01 3.924120664596557617e+00 1.268433094024658203e+00 1.019934058189392090e+00
1.055000000000000000e+03 4.423737335205078125e+01 -2.173640441894531250e+01 7.205921411514282227e-01 3.265509128570556641e+00 1.195830464363098145e+00 -1.412671446800231934e+00
1.056000000000000000e+03 3.224768447875976562e+01 3.997963714599609375e+01 -1.974013090133666992e+00 -4.184466302394866943e-01 -7.177379131317138672e-01 1.776677370071411133e-01
1.057000000000000000e+03 3.894276809692382812e+01 2.879232168197631836e+00 2.073125354945659637e-02 8.993522644042968750e+00 2.704276084899902344e+00 2.212401151657104492e+00
1.058000000000000000e+03 3.961177444458007812e+01 4.301779747009277344e+00 6.242789030075073242e-01 1.004322719573974609e+01 3.200252056121826172e+00 2.994507789611816406e+00
1.059000000000000000e+03 4.200731277465820312e+01 1.114557075500488281e+01 1.221544265747070312e+00 9.353207588195800781e+00 3.172425508499145508e+00 2.976061344146728516e+00
1.060000000000000000e+03 1.507068920135498047e+01 1.385820102691650391e+01 8.387585878372192383e-01 8.207139015197753906e+00 2.713769435882568359e+00 -2.121206045150756836e+00
1.061000000000000000e+03 1.463987827301025391e+01 2.706052017211914062e+01 8.519111573696136475e-02 5.269622802734375000e+00 1.606444239616394043e+00 -5.018610879778862000e-02
1.062000000000000000e+03 1.901888465881347656e+01 2.743115663528442383e+00 -2.442674636840820312e-01 6.446166992187500000e+00 1.860569834709167480e+00 -5.300578474998474121e-01
1.063000000000000000e+03 2.977885437011718750e+01 -3.558998823165893555e+00 3.377199411392211914e+00 -7.579275965690612793e-02 9.904220104217529297e-01 -1.456915497779846191e+00
1.064000000000000000e+03 2.058462715148925781e+01 2.003167390823364258e+00 8.533570766448974609e-01 3.095557928085327148e+00 1.184674501419067383e+00 -5.107882022857666016e-01
1.065000000000000000e+03 2.149732971191406250e+01 7.841157913208007812e-01 2.378477573394775391e+00 1.418964147567749023e+00 1.139232516288757324e+00 -1.036962866783142090e+00
1.066000000000000000e+03 4.117644119262695312e+01 8.361280441284179688e+00 1.827154278755187988e+00 1.057581615447998047e+01 3.720890998840332031e+00 3.626637220382690430e+00
1.067000000000000000e+03 3.436436462402343750e+01 -1.196663022041320801e+00 3.185634016990661621e-01 1.028337955474853516e+00 4.040704071521759033e-01 3.637581169605255127e-01
1.068000000000000000e+03 3.726993560791015625e+01 -9.081442952156066895e-01 1.090744212269783020e-01 6.076086521148681641e+00 1.855548262596130371e+00 1.498188018798828125e+00
1.069000000000000000e+03 1.403031826019287109e+01 2.259878158569335938e+01 3.582411706447601318e-01 7.517650127410888672e+00 2.362767219543457031e+00 -4.226756095886230469e-01
1.070000000000000000e+03 1.824006652832031250e+01 8.852397918701171875e+00 1.085405826568603516e+00 7.811775684356689453e+00 2.669154405593872070e+00 -2.885084629058837891e+00
1.071000000000000000e+03 1.727841186523437500e+01 8.427037239074707031e+00 6.967499256134033203e-01 7.335854530334472656e+00 2.409781217575073242e+00 -2.314567089080810547e+00
1.072000000000000000e+03 1.413898468017578125e+01 2.406669044494628906e+01 5.034711956977844238e-01 6.849472045898437500e+00 2.205883026123046875e+00 -1.648275256156921387e-01
1.073000000000000000e+03 4.287844085693359375e+01 1.971405792236328125e+01 2.083286046981811523e-01 6.151792049407958984e+00 1.908036231994628906e+00 7.946207523345947266e-01
1.074000000000000000e+03 1.506569957733154297e+01 2.856782531738281250e+01 -1.726626455783843994e-01 4.267532348632812500e+00 1.228460907936096191e+00 9.907484799623489380e-02
1.075000000000000000e+03 1.469473266601562500e+01 1.528105163574218750e+01 8.094977736473083496e-01 8.474847793579101562e+00 2.785303831100463867e+00 -1.764975428581237793e+00
1.076000000000000000e+03 3.838876342773437500e+01 3.785959243774414062e+01 -1.661526560783386230e+00 6.442400217056274414e-01 -3.051859438419342041e-01 8.712311834096908569e-02
1.077000000000000000e+03 3.801786804199218750e+01 1.474540233612060547e+00 -2.796773910522460938e-01 7.209611892700195312e+00 2.078980445861816406e+00 1.844261765480041504e+00
1.078000000000000000e+03 4.163669967651367188e+01 2.258138275146484375e+01 1.840183325111865997e-02 5.346498966217041016e+00 1.609470248222351074e+00 1.533876359462738037e-01
1.079000000000000000e+03 4.164192962646484375e+01 2.398315620422363281e+01 1.941613480448722839e-02 5.067398548126220703e+00 1.526044368743896484e+00 1.111507937312126160e-01
1.080000000000000000e+03 4.288545989990234375e+01 2.537670135498046875e+01 1.035063192248344421e-01 4.834838390350341797e+00 1.481503367424011230e+00 2.002013325691223145e-01
1.081000000000000000e+03 4.234404373168945312e+01 1.257726097106933594e+01 9.391482472419738770e-01 8.835722923278808594e+00 2.932461500167846680e+00 2.414479494094848633e+00
1.082000000000000000e+03 4.505042266845703125e+01 2.378416442871093750e+01 2.922904491424560547e-01 4.823215484619140625e+00 1.534651756286621094e+00 6.937125325202941895e-01
1.083000000000000000e+03 4.286359405517578125e+01 2.110549545288085938e+01 1.105516180396080017e-01 5.692238807678222656e+00 1.740837097167968750e+00 5.677974820137023926e-01
1.084000000000000000e+03 4.284709167480468750e+01 2.250327491760253906e+01 9.881605207920074463e-02 5.345063209533691406e+00 1.633163809776306152e+00 4.409882128238677979e-01
1.085000000000000000e+03 5.008620834350585938e+01 3.817753314971923828e+00 -9.457784295082092285e-01 2.635355889797210693e-01 -2.046728432178497314e-01 6.111041903495788574e-01
1.086000000000000000e+03 3.925697708129882812e+01 -1.369848918914794922e+01 4.194487631320953369e-01 1.169518089294433594e+01 3.634388685226440430e+00 -6.814435124397277832e-01
1.087000000000000000e+03 6.658819580078125000e+01 -3.125993156433105469e+01 -8.059831261634826660e-01 4.317277431488037109e+00 1.053388357162475586e+00 1.254093408584594727e+00
1.088000000000000000e+03 6.985517120361328125e+01 -1.596178722381591797e+01 1.032565951347351074e+00 1.443975162506103516e+01 4.641695499420166016e+00 -1.247497200965881348e+00
1.089000000000000000e+03 4.130710220336914062e+01 -9.365087509155273438e+00 2.061453908681869507e-01 1.589431095123291016e+01 4.830136775970458984e+00 6.741603463888168335e-02
1.090000000000000000e+03 6.599928283691406250e+01 -4.870343685150146484e+00 2.429434806108474731e-01 5.713536739349365234e+00 1.786944150924682617e+00 -1.265849590301513672e+00
1.091000000000000000e+03 6.506165313720703125e+01 -3.505552053451538086e+00 -5.618379712104797363e-01 4.646520137786865234e+00 1.225404739379882812e+00 -1.203079342842102051e+00
1.092000000000000000e+03 5.297173690795898438e+01 1.011574506759643555e+00 -3.362233400344848633e+00 2.265410125255584717e-01 -9.407077431678771973e-01 7.123668193817138672e-01
1.093000000000000000e+03 5.350927352905273438e+01 2.246122360229492188e+00 -2.346078395843505859e+00 3.115814626216888428e-01 -6.103490591049194336e-01 3.539258837699890137e-01
1.094000000000000000e+03 6.378737258911132812e+01 -2.414103269577026367e+00 -1.078719258308410645e+00 3.085865259170532227e+00 6.021437644958496094e-01 -1.143359184265136719e+00
1.095000000000000000e+03 6.095158386230468750e+01 -1.150776267051696777e+00 -2.188315153121948242e+00 6.196341514587402344e-01 -4.706042706966400146e-01 -3.022537231445312500e-01
1.096000000000000000e+03 5.689920043945312500e+01 7.781392335891723633e-02 -3.185812473297119141e+00 -8.300363272428512573e-02 -9.806448221206665039e-01 3.293578326702117920e-01
1.097000000000000000e+03 5.556366348266601562e+01 3.825977444648742676e-01 -3.218438625335693359e+00 -7.021331787109375000e-02 -9.865956306457519531e-01 4.665312767028808594e-01
1.098000000000000000e+03 5.394607162475585938e+01 -2.985469436645507812e+01 -1.802294403314590454e-01 4.361539334058761597e-02 -4.098421335220336914e-02 5.753247067332267761e-02
1.099000000000000000e+03 5.333166122436523438e+01 -3.295516967773437500e+01 -5.411101579666137695e-01 7.803785204887390137e-01 7.178051769733428955e-02 -4.324963688850402832e-01
1.100000000000000000e+03 7.069003295898437500e+01 -2.732715225219726562e+01 3.694528043270111084e-01 9.862658500671386719e+00 3.069633245468139648e+00 -4.454333782196044922e-01
1.101000000000000000e+03 6.960649108886718750e+01 -2.586149978637695312e+01 1.255489468574523926e+00 1.251264953613281250e+01 4.130441665649414062e+00 1.048731088638305664e+00
1.102000000000000000e+03 4.095181274414062500e+01 -3.748449087142944336e+00 1.332865357398986816e+00 1.244710254669189453e+01 4.133990287780761719e+00 3.221786737442016602e+00
1.103000000000000000e+03 4.065740203857421875e+01 -5.127744674682617188e+00 1.108662843704223633e+00 1.332097339630126953e+01 4.328890800476074219e+00 2.380327939987182617e+00
1.104000000000000000e+03 4.919025421142578125e+01 2.649987220764160156e+00 -2.490919589996337891e+00 -1.611145734786987305e-01 -7.956101894378662109e-01 5.885151624679565430e-01
1.105000000000000000e+03 6.819037628173828125e+01 -8.758064270019531250e+00 2.697969377040863037e-01 8.884925842285156250e+00 2.746416807174682617e+00 -1.786904096603393555e+00
1.106000000000000000e+03 7.032626342773437500e+01 -2.266772460937500000e+01 7.050879597663879395e-01 1.327352142333984375e+01 4.193582534790039062e+00 5.499944090843200684e-01
1.107000000000000000e+03 6.969313049316406250e+01 -1.455039596557617188e+01 1.468044757843017578e+00 1.389862251281738281e+01 4.610000133514404297e+00 -1.352325439453125000e+00
1.108000000000000000e+03 6.547752380371093750e+01 -3.196675872802734375e+01 -9.834354519844055176e-01 2.674687385559082031e+00 5.073755979537963867e-01 1.003955245018005371e+00
1.109000000000000000e+03 4.921550750732421875e+01 -2.496722602844238281e+01 2.892340421676635742e-01 4.143143892288208008e-01 2.110645174980163574e-01 -3.341025114059448242e-01
1.110000000000000000e+03 4.999970626831054688e+01 -2.775453567504882812e+01 2.101891040802001953e-01 7.705333232879638672e-01 2.942167222499847412e-01 -5.219284296035766602e-01
1.111000000000000000e+03 4.824331283569335938e+01 -2.399485397338867188e+01 3.328922390937805176e-01 4.850783944129943848e-01 2.453911900520324707e-01 -4.172215461730957031e-01
1.112000000000000000e+03 4.805695343017578125e+01 -2.587314224243164062e+01 4.748178422451019287e-01 1.050624847412109375e+00 4.576327800750732422e-01 -7.658179402351379395e-01
1.113000000000000000e+03 6.913072204589843750e+01 -1.169168758392333984e+01 7.486932277679443359e-01 1.174084377288818359e+01 3.746861219406127930e+00 -1.670282363891601562e+00
1.114000000000000000e+03 6.877465820312500000e+01 -1.019356918334960938e+01 3.971822857856750488e-01 1.016119003295898438e+01 3.167511701583862305e+00 -1.727532386779785156e+00
1.115000000000000000e+03 5.211492156982421875e+01 -2.788096237182617188e+01 4.176801070570945740e-02 2.115142643451690674e-01 7.598468661308288574e-02 -1.475314348936080933e-01
1.116000000000000000e+03 5.137595748901367188e+01 -3.099068832397460938e+01 -2.952639758586883545e-01 1.065951108932495117e+00 2.312061190605163574e-01 -5.292929410934448242e-01
1.117000000000000000e+03 6.883492279052734375e+01 -1.899819183349609375e+01 8.354584127664566040e-02 1.522743797302246094e+01 4.593295097351074219e+00 -1.593209505081176758e-01
1.118000000000000000e+03 7.257987976074218750e+01 -2.061702537536621094e+01 5.371552109718322754e-01 1.123995304107666016e+01 3.533132314682006836e+00 -4.749591350555419922e-01
1.119000000000000000e+03 4.518412017822265625e+01 -2.281965637207031250e+01 7.849194407463073730e-01 2.231245517730712891e+00 9.048495292663574219e-01 -1.200908660888671875e+00
1.120000000000000000e+03 4.627764511108398438e+01 -2.201532745361328125e+01 4.876220524311065674e-01 9.064121842384338379e-01 4.182102680206298828e-01 -6.434532403945922852e-01
1.121000000000000000e+03 4.901121139526367188e+01 -2.682948875427246094e+01 3.758254051208496094e-01 9.128916263580322266e-01 3.866150975227355957e-01 -6.308437585830688477e-01
1.122000000000000000e+03 7.007835388183593750e+01 -2.003836822509765625e+01 1.915293782949447632e-01 1.394404983520507812e+01 4.240674018859863281e+00 -2.290022075176239014e-01
1.123000000000000000e+03 7.016863250732421875e+01 -2.136286163330078125e+01 1.763624548912048340e-01 1.384539508819580078e+01 4.206527233123779297e+00 9.088329388760030270e-04
1.124000000000000000e+03 7.722528839111328125e+01 -3.789938354492187500e+01 -2.323743999004364014e-01 1.016626358032226562e+01 2.980166673660278320e+00 -7.130410522222518921e-02
1.125000000000000000e+03 7.930385589599609375e+01 -3.467824554443359375e+01 -5.655917525291442871e-02 1.070865154266357422e+01 3.195627927780151367e+00 -1.214172840118408203e-01
1.126000000000000000e+03 7.818153381347656250e+01 -2.916088104248046875e+01 4.505565389990806580e-03 8.863125801086425781e+00 2.660289287567138672e+00 -7.879371047019958496e-01
1.127000000000000000e+03 7.941451263427734375e+01 -2.786925315856933594e+01 4.809698089957237244e-02 8.163189888000488281e+00 2.463386058807373047e+00 -2.975480556488037109e-01
1.128000000000000000e+03 7.920624542236328125e+01 3.619512557983398438e+01 -4.891954828053712845e-03 6.687713623046875000e+00 2.004846572875976562e+00 -1.039275433868169785e-03
1.129000000000000000e+03 7.943943786621093750e+01 -2.096540641784667969e+01 -2.759547671303153038e-03 5.612333297729492188e+00 1.682872176170349121e+00 -1.216991394758224487e-01
1.130000000000000000e+03 7.827393341064453125e+01 -2.522149658203125000e+01 3.744058310985565186e-02 7.591528415679931641e+00 2.288690567016601562e+00 -6.464525461196899414e-01
1.131000000000000000e+03 7.825913238525390625e+01 -2.655611419677734375e+01 7.776743918657302856e-02 7.993927955627441406e+00 2.421508550643920898e+00 -7.348735928535461426e-01
1.132000000000000000e+03 7.811399078369140625e+01 -3.174040222167968750e+01 -4.457214847207069397e-02 9.608766555786132812e+00 2.869258165359497070e+00 -6.437195539474487305e-01
1.133000000000000000e+03 7.939083099365234375e+01 -3.059409904479980469e+01 2.319850400090217590e-02 9.442339897155761719e+00 2.839661598205566406e+00 -2.752189338207244873e-01
1.134000000000000000e+03 7.805207061767578125e+01 -3.302562713623046875e+01 -1.595800369977951050e-01 9.883568763732910156e+00 2.917196750640869141e+00 -5.361309051513671875e-01
1.135000000000000000e+03 7.488780975341796875e+01 -3.718911361694335938e+01 -3.795977532863616943e-01 9.117528915405273438e+00 2.621379375457763672e+00 -5.003262758255004883e-01
1.136000000000000000e+03 7.629983520507812500e+01 -3.892207717895507812e+01 -1.531206518411636353e-01 1.009638690948486328e+01 2.982980012893676758e+00 -2.091313153505325317e-01
1.137000000000000000e+03 7.807320404052734375e+01 1.512494087219238281e+01 1.154625508934259415e-02 7.299283504486083984e+00 2.193248748779296875e+00 -2.248249500989913940e-01
1.138000000000000000e+03 7.935675048828125000e+01 1.525716590881347656e+01 6.440941244363784790e-03 7.517304420471191406e+00 2.257123708724975586e+00 -7.488591969013214111e-02
1.139000000000000000e+03 7.934214782714843750e+01 2.221117973327636719e+01 1.564836478792130947e-03 6.872595787048339844e+00 2.062248229980468750e+00 -3.427976369857788086e-02
1.140000000000000000e+03 7.758340454101562500e+01 3.196292686462402344e+01 1.586688798852264881e-03 6.523156166076660156e+00 1.957422852516174316e+00 1.140514854341745377e-02
1.141000000000000000e+03 7.780006408691406250e+01 2.759361267089843750e+01 1.790700294077396393e-02 6.555810451507568359e+00 1.972115278244018555e+00 -2.362811937928199768e-02
1.142000000000000000e+03 7.926345062255859375e+01 2.778366851806640625e+01 1.542996615171432495e-03 6.691206932067871094e+00 2.007825136184692383e+00 -5.580942612141370773e-03
1.143000000000000000e+03 7.794978332519531250e+01 2.479783439636230469e+01 2.034241706132888794e-02 6.627204418182373047e+00 1.994264006614685059e+00 -6.130098551511764526e-02
1.144000000000000000e+03 7.799716186523437500e+01 2.341444969177246094e+01 1.673153974115848541e-02 6.680049419403076172e+00 2.009034395217895508e+00 -8.362171053886413574e-02
1.145000000000000000e+03 7.806950378417968750e+01 1.789553070068359375e+01 1.628528907895088196e-02 7.032150745391845703e+00 2.114530801773071289e+00 -1.805530786514282227e-01
1.146000000000000000e+03 7.807354736328125000e+01 1.650967788696289062e+01 2.002236805856227875e-02 7.159243583679199219e+00 2.153779745101928711e+00 -2.041207700967788696e-01
1.147000000000000000e+03 7.807166290283203125e+01 1.374498748779296875e+01 1.399676315486431122e-02 7.451348304748535156e+00 2.239603519439697266e+00 -2.423383295536041260e-01
1.148000000000000000e+03 7.677766418457031250e+01 1.227827548980712891e+01 1.699951477348804474e-02 7.312687397003173828e+00 2.198906183242797852e+00 -3.966237902641296387e-01
1.149000000000000000e+03 7.806829071044921875e+01 9.586463928222656250e+00 -1.470891572535037994e-02 7.947110652923583984e+00 2.379720449447631836e+00 -2.512259185314178467e-01
1.150000000000000000e+03 7.935673522949218750e+01 9.692581176757812500e+00 2.775203436613082886e-03 8.297212600708007812e+00 2.489996433258056641e+00 -8.149641007184982300e-02
1.151000000000000000e+03 7.943292236328125000e+01 -1.957760238647460938e+01 3.446499630808830261e-02 5.371919155120849609e+00 1.621915221214294434e+00 -7.836031913757324219e-02
1.152000000000000000e+03 7.833329010009765625e+01 -2.246923065185546875e+01 5.667084455490112305e-02 6.868728637695312500e+00 2.077619791030883789e+00 -4.359396696090698242e-01
1.153000000000000000e+03 7.821016693115234375e+01 -1.558714962005615234e+01 1.097892373800277710e-01 6.377448558807373047e+00 1.946171283721923828e+00 1.495270431041717529e-01
1.154000000000000000e+03 7.939237976074218750e+01 -1.402230358123779297e+01 1.999959908425807953e-02 5.557515621185302734e+00 1.673254489898681641e+00 1.221612393856048584e-01
1.155000000000000000e+03 7.813229370117187500e+01 -8.645752906799316406e+00 2.837820677086710930e-03 7.464663028717041016e+00 2.240250349044799805e+00 5.527462363243103027e-01
1.156000000000000000e+03 7.936548614501953125e+01 -7.058126449584960938e+00 1.378294080495834351e-03 7.598559856414794922e+00 2.279981374740600586e+00 2.168692499399185181e-01
1.157000000000000000e+03 7.807361602783203125e+01 -2.047605812549591064e-01 -6.576971709728240967e-02 8.568010330200195312e+00 2.550672054290771484e+00 1.343807429075241089e-01
1.158000000000000000e+03 7.935626220703125000e+01 1.324077963829040527e+00 -6.568452343344688416e-03 9.013900756835937500e+00 2.702199697494506836e+00 3.181710466742515564e-02
1.159000000000000000e+03 7.678398132324218750e+01 8.126698493957519531e+00 -5.035858228802680969e-02 7.740482330322265625e+00 2.307037115097045898e+00 -3.704916238784790039e-01
1.160000000000000000e+03 7.771422576904296875e+01 2.902241325378417969e+01 1.178792305290699005e-02 6.536166667938232422e+00 1.964386343955993652e+00 -6.801045034080743790e-03
1.161000000000000000e+03 7.869721984863281250e+01 4.035607910156250000e+01 -1.242497749626636505e-02 6.636429786682128906e+00 1.987201452255249023e+00 -4.524136707186698914e-02
1.162000000000000000e+03 7.470108795166015625e+01 3.746333694458007812e+01 -2.013019658625125885e-02 6.273683547973632812e+00 1.876065969467163086e+00 3.747013956308364868e-02
1.163000000000000000e+03 7.635032653808593750e+01 3.645096969604492188e+01 -1.041495986282825470e-02 6.426681995391845703e+00 1.924880146980285645e+00 2.621027873829007149e-03
1.164000000000000000e+03 7.680197906494140625e+01 1.122439146041870117e+00 -1.631567925214767456e-01 8.253163337707519531e+00 2.427001953125000000e+00 2.787192352116107941e-02
1.165000000000000000e+03 7.807286071777343750e+01 1.201917648315429688e+00 -7.765891402959823608e-02 8.590100288391113281e+00 2.553732395172119141e+00 4.565645381808280945e-02
1.166000000000000000e+03 7.806319427490234375e+01 -4.430081844329833984e+00 -7.202253490686416626e-02 8.201755523681640625e+00 2.438920021057128906e+00 4.052215814590454102e-01
1.167000000000000000e+03 7.935671234130859375e+01 -2.868949651718139648e+00 -2.542890980839729309e-02 8.619156837463378906e+00 2.578118324279785156e+00 1.343838274478912354e-01
1.168000000000000000e+03 7.809381866455078125e+01 -7.245165824890136719e+00 -3.550941869616508484e-02 7.738203525543212891e+00 2.310808181762695312e+00 5.293557643890380859e-01
1.169000000000000000e+03 7.816088867187500000e+01 -1.142042446136474609e+01 5.908681452274322510e-02 6.918123722076416016e+00 2.093163251876831055e+00 4.889395833015441895e-01
1.170000000000000000e+03 7.938066864013671875e+01 -9.847726821899414062e+00 1.326791569590568542e-02 6.699789524078369141e+00 2.013917207717895508e+00 2.193857729434967041e-01
1.171000000000000000e+03 7.818306732177734375e+01 -1.419754981994628906e+01 9.576115012168884277e-02 6.506262302398681641e+00 1.980607032775878906e+00 2.997401356697082520e-01
1.172000000000000000e+03 7.827373504638671875e+01 -1.834581565856933594e+01 1.037838906049728394e-01 6.345372200012207031e+00 1.934746861457824707e+00 -1.181273385882377625e-01
1.173000000000000000e+03 7.941229248046875000e+01 -1.680313873291015625e+01 3.120626509189605713e-02 5.230008125305175781e+00 1.578364253044128418e+00 1.884414814412593842e-02
1.174000000000000000e+03 7.830332183837890625e+01 -1.972000694274902344e+01 6.798732280731201172e-02 6.448298931121826172e+00 1.954885959625244141e+00 -2.246718257665634155e-01
1.175000000000000000e+03 1.465414762496948242e+00 -3.998223495483398438e+01 -1.035802438855171204e-01 5.907499790191650391e+00 1.741175889968872070e+00 -3.432268202304840088e-01
1.176000000000000000e+03 3.175548076629638672e+00 3.702775192260742188e+01 -1.456075310707092285e-01 3.652136087417602539e+00 1.051958560943603516e+00 -4.283427894115447998e-01
1.177000000000000000e+03 7.035009860992431641e-01 3.466785430908203125e+01 -2.816210128366947174e-02 3.462461709976196289e+00 1.030289888381958008e+00 -1.630126982927322388e-01
1.178000000000000000e+03 6.296642422676086426e-01 2.610676002502441406e+01 3.915507346391677856e-03 6.220429539680480957e-01 1.877875477075576782e-01 -2.364859730005264282e-01
1.179000000000000000e+03 2.028466463088989258e+00 2.868447494506835938e+01 -5.931297317147254944e-03 1.866681098937988281e+00 5.582249164581298828e-01 -6.971793770790100098e-01
1.180000000000000000e+03 6.641558408737182617e-01 -3.592417144775390625e+01 2.432029694318771362e-02 7.057836532592773438e+00 2.124647140502929688e+00 -1.196483075618743896e-01
1.181000000000000000e+03 6.528056621551513672e+00 -3.562817764282226562e+01 -2.306906133890151978e-01 2.363815546035766602e+00 6.399374604225158691e-01 -2.096829414367675781e-01
1.182000000000000000e+03 3.132540941238403320e+00 2.689953994750976562e+01 1.677616685628890991e-02 1.696255445480346680e+00 5.139095187187194824e-01 -9.837465882301330566e-01
1.183000000000000000e+03 3.006732940673828125e+00 2.416487503051757812e+01 7.868278771638870239e-02 1.027816891670227051e+00 3.319499194622039795e-01 -8.993761539459228516e-01
1.184000000000000000e+03 2.296615839004516602e+00 3.171302604675292969e+01 -5.273263528943061829e-02 2.699381589889526367e+00 7.939947247505187988e-01 -6.647227406501770020e-01
1.185000000000000000e+03 2.257719278335571289e+00 3.321579360961914062e+01 -7.423580437898635864e-02 3.014350414276123047e+00 8.820343613624572754e-01 -5.905261635780334473e-01
1.186000000000000000e+03 4.488882541656494141e+00 3.724803543090820312e+01 -2.884649932384490967e-01 3.514233827590942383e+00 9.677306413650512695e-01 -6.276782751083374023e-01
1.187000000000000000e+03 2.434903383255004883e+00 3.806078720092773438e+01 -1.105814427137374878e-01 3.810585737228393555e+00 1.110001325607299805e+00 -2.779510617256164551e-01
1.188000000000000000e+03 3.369062662124633789e+00 3.898920822143554688e+01 -1.782729476690292358e-01 3.870193958282470703e+00 1.107576370239257812e+00 -3.245139122009277344e-01
1.189000000000000000e+03 6.554442048072814941e-01 -3.044302749633789062e+01 -1.072569340467453003e-01 6.835788726806640625e+00 2.018559455871582031e+00 3.607005178928375244e-01
1.190000000000000000e+03 3.472006320953369141e+00 -2.665297126770019531e+01 -2.845961749553680420e-01 5.023829460144042969e+00 1.421769976615905762e+00 2.288820505142211914e+00
1.191000000000000000e+03 1.718097925186157227e+00 -1.756702613830566406e+01 9.244302660226821899e-02 6.867728233337402344e-01 2.337647527456283569e-01 -3.056538999080657959e-01
1.192000000000000000e+03 5.455889701843261719e-01 -1.907075500488281250e+01 3.361397981643676758e-02 -1.423979878425598145e+00 -4.171097874641418457e-01 -7.317242026329040527e-02
1.193000000000000000e+03 5.333862304687500000e-01 -2.045528602600097656e+01 8.036699146032333374e-02 -1.370093226432800293e+00 -3.869178891181945801e-01 8.749771863222122192e-02
1.194000000000000000e+03 6.015599370002746582e-01 -2.324799156188964844e+01 1.337970346212387085e-01 2.358328104019165039e-01 1.108889579772949219e-01 5.350309610366821289e-01
1.195000000000000000e+03 2.406983852386474609e+00 -3.644644546508789062e+01 -6.077070534229278564e-02 5.697569847106933594e+00 1.691039800643920898e+00 -3.192468881607055664e-01
1.196000000000000000e+03 6.079478263854980469e-01 1.907739448547363281e+01 1.474369969218969345e-02 -1.579336166381835938e+00 -4.693777561187744141e-01 -1.265792250633239746e-01
1.197000000000000000e+03 5.739120841026306152e-01 1.344432449340820312e+01 1.414351817220449448e-02 -2.179845571517944336e+00 -6.497105956077575684e-01 -5.742555018514394760e-03
1.198000000000000000e+03 5.056630969047546387e-01 7.808879852294921875e+00 1.000629458576440811e-02 -1.556200385093688965e+00 -4.638582170009613037e-01 1.078419387340545654e-01
1.199000000000000000e+03 5.240053176879882812e+00 -4.033079147338867188e+01 3.478720784187316895e-01 3.709430456161499023e+00 1.217190742492675781e+00 5.453019216656684875e-02
1.200000000000000000e+03 3.886934518814086914e+00 -3.883621978759765625e+01 4.951953887939453125e-02 4.930186271667480469e+00 1.493911743164062500e+00 -2.349875569343566895e-01
1.201000000000000000e+03 2.945862531661987305e+00 -3.453106689453125000e+01 -2.757365405559539795e-01 5.340936660766601562e+00 1.519559979438781738e+00 -1.801859736442565918e-01
1.202000000000000000e+03 6.366431713104248047e+00 -2.929825019836425781e+01 -1.943134665489196777e+00 3.034772634506225586e+00 3.274914324283599854e-01 5.696803331375122070e-01
1.203000000000000000e+03 1.541445493698120117e+00 -3.321979141235351562e+01 -1.870446056127548218e-01 6.515206813812255859e+00 1.898448705673217773e+00 7.117908447980880737e-03
1.204000000000000000e+03 4.571420192718505859e+00 -2.975275802612304688e+01 -1.380922317504882812e+00 4.546607971191406250e+00 9.497057199478149414e-01 1.033041834831237793e+00
1.205000000000000000e+03 1.979851484298706055e+00 -2.573982810974121094e+01 9.214422665536403656e-03 3.880678892135620117e+00 1.166967988014221191e+00 1.868635535240173340e+00
1.206000000000000000e+03 4.525507926940917969e+00 -2.226086044311523438e+01 1.095911264419555664e+00 7.021186828613281250e+00 2.435129404067993164e+00 1.953722715377807617e+00
1.207000000000000000e+03 1.795219302177429199e+00 -1.619592475891113281e+01 2.917325869202613831e-02 8.084107041358947754e-01 2.512751817703247070e-01 -4.053422808647155762e-01
1.208000000000000000e+03 6.245774626731872559e-01 -1.204247570037841797e+01 -2.786134928464889526e-02 3.153525590896606445e-01 8.624736964702606201e-02 -5.256527289748191833e-02
1.209000000000000000e+03 1.863790988922119141e+00 -1.192474651336669922e+01 -1.408674418926239014e-01 9.023008346557617188e-01 2.284300178289413452e-01 -6.708370149135589600e-02
1.210000000000000000e+03 1.678840637207031250e+00 -6.209472179412841797e+00 3.674335777759552002e-02 2.400953173637390137e-01 8.305159956216812134e-02 1.437286883592605591e-01
1.211000000000000000e+03 1.296084642410278320e+00 -3.433321952819824219e+00 2.910267189145088196e-02 3.493414260447025299e-03 9.778825566172599792e-03 -2.940254671557340771e-05
1.212000000000000000e+03 4.962780475616455078e-01 -4.963094711303710938e+00 1.518728770315647125e-02 -4.856298863887786865e-02 -1.001271046698093414e-02 2.624943293631076813e-02
1.213000000000000000e+03 4.489863514900207520e-01 4.952126979827880859e+00 1.117528183385729790e-03 -8.640531897544860840e-01 -2.588807046413421631e-01 1.180102750658988953e-01
1.214000000000000000e+03 4.433986663818359375e+00 4.167850971221923828e+00 -7.728978246450424194e-02 -9.670530259609222412e-02 -5.219852551817893982e-02 5.883381962776184082e-01
1.215000000000000000e+03 1.609436631202697754e+00 1.052147960662841797e+01 5.321301892399787903e-02 -1.345260024070739746e+00 -3.876141011714935303e-01 1.600416153669357300e-01
1.216000000000000000e+03 5.345680117607116699e-01 1.063362503051757812e+01 1.007008738815784454e-02 -2.027677536010742188e+00 -6.052822470664978027e-01 5.474085733294487000e-02
1.217000000000000000e+03 1.733947038650512695e+00 1.329406642913818359e+01 6.374137848615646362e-02 -1.341464877128601074e+00 -3.833170533180236816e-01 5.569905973970890045e-03
1.218000000000000000e+03 1.820106744766235352e+00 1.889293098449707031e+01 6.731408089399337769e-02 -7.452806234359741211e-01 -2.033899575471878052e-01 -3.547059595584869385e-01
1.219000000000000000e+03 1.838864564895629883e+00 2.443214988708496094e+01 2.670747041702270508e-02 5.772030353546142578e-01 1.811731606721878052e-01 -6.083120107650756836e-01
1.220000000000000000e+03 1.409275627136230469e+01 1.080670475959777832e+00 1.499925613403320312e+00 2.772466182708740234e+00 1.281717538833618164e+00 -3.057200431823730469e+00
1.221000000000000000e+03 1.429960441589355469e+01 1.052298188209533691e+00 1.655547261238098145e+00 3.229780197143554688e+00 1.465598225593566895e+00 -3.427532434463500977e+00
1.222000000000000000e+03 1.395012283325195312e+01 1.471960306167602539e+00 1.160321354866027832e+00 3.060799598693847656e+00 1.266336321830749512e+00 -3.037539958953857422e+00
1.223000000000000000e+03 1.438004970550537109e+01 1.404732942581176758e+00 1.375662088394165039e+00 4.027229309082031250e+00 1.620867490768432617e+00 -3.666914701461791992e+00
1.224000000000000000e+03 1.450137233734130859e+01 1.015059709548950195e+00 1.838476061820983887e+00 3.682925939559936523e+00 1.656420588493347168e+00 -3.797345399856567383e+00
1.225000000000000000e+03 1.468460845947265625e+01 9.590451121330261230e-01 1.908919215202331543e+00 4.183799743652343750e+00 1.827815651893615723e+00 -4.048692703247070312e+00
1.226000000000000000e+03 1.309281349182128906e+01 -2.427953243255615234e+00 3.374818563461303711e+00 4.448434412479400635e-01 1.145898580551147461e+00 1.346242427825927734e+00
1.227000000000000000e+03 1.572405433654785156e+01 -3.039170026779174805e+00 3.157325983047485352e+00 8.458460807800292969e+00 3.484735965728759766e+00 3.019819498062133789e+00
1.228000000000000000e+03 1.563901042938232422e+01 -2.746254444122314453e+00 3.505131959915161133e+00 8.350589752197265625e+00 3.556716442108154297e+00 3.160797834396362305e+00
1.229000000000000000e+03 1.602036476135253906e+01 9.804217219352722168e-01 7.478390932083129883e-01 1.170037078857421875e+01 3.734462976455688477e+00 -3.789120435714721680e+00
1.230000000000000000e+03 1.681673049926757812e+01 1.230134725570678711e+00 9.015449881553649902e-01 1.161213111877441406e+01 3.754102945327758789e+00 -1.209914207458496094e+00
1.231000000000000000e+03 1.551922416687011719e+01 2.245273590087890625e+00 -1.130653321743011475e-01 7.701153755187988281e+00 2.276426553726196289e+00 -3.498305797576904297e+00
1.232000000000000000e+03 9.454575538635253906e+00 -3.198781013488769531e+00 1.379912137985229492e+00 1.439978331327438354e-01 4.571729898452758789e-01 8.007807731628417969e-01
1.233000000000000000e+03 1.015540027618408203e+01 -2.543695211410522461e+00 1.492546796798706055e+00 5.652127787470817566e-02 4.647204279899597168e-01 6.307412385940551758e-01
1.234000000000000000e+03 1.825779724121093750e+01 8.072680830955505371e-01 3.168911457061767578e+00 8.291384696960449219e+00 3.438088893890380859e+00 2.868100404739379883e-01
1.235000000000000000e+03 1.079451179504394531e+01 -3.190581321716308594e+00 1.995391488075256348e+00 1.909893304109573364e-01 6.559142470359802246e-01 1.058929800987243652e+00
1.236000000000000000e+03 1.138734340667724609e+01 -3.258948564529418945e+00 2.307122707366943359e+00 3.041779100894927979e-01 7.833902239799499512e-01 1.257842540740966797e+00
1.237000000000000000e+03 1.209232234954833984e+01 -2.898515224456787109e+00 2.695655584335327148e+00 3.258458077907562256e-01 9.064504504203796387e-01 1.251451134681701660e+00
1.238000000000000000e+03 1.187611865997314453e+01 2.189612388610839844e+00 2.014473080635070801e-01 1.167284131050109863e+00 4.106194376945495605e-01 -1.252181529998779297e+00
1.239000000000000000e+03 1.103955650329589844e+01 2.957617521286010742e+00 1.937309950590133667e-01 1.154042720794677734e+00 4.043321013450622559e-01 -9.267823696136474609e-01
1.240000000000000000e+03 9.530839920043945312e+00 3.131872177124023438e+00 -3.099695965647697449e-02 6.205396652221679688e-01 1.768628060817718506e-01 -2.118867039680480957e-01
1.241000000000000000e+03 1.709762001037597656e+01 -3.143044948577880859e+00 3.315761804580688477e+00 9.397302627563476562e+00 3.813919305801391602e+00 -1.434281468391418457e+00
1.242000000000000000e+03 3.473931550979614258e+00 2.848817586898803711e+00 -2.156364470720291138e-01 -1.452329605817794800e-01 -1.082608252763748169e-01 5.144415497779846191e-01
1.243000000000000000e+03 4.224045276641845703e+00 2.730899333953857422e+00 -2.939119040966033936e-01 -8.296467363834381104e-02 -1.130629703402519226e-01 5.458156466484069824e-01
1.244000000000000000e+03 4.986669540405273438e+00 2.654551267623901367e+00 -3.704355061054229736e-01 -2.396967075765132904e-02 -1.183215528726577759e-01 5.595455169677734375e-01
1.245000000000000000e+03 5.701283931732177734e+00 4.071649074554443359e+00 -5.897923186421394348e-02 1.185142919421195984e-01 1.786051690578460693e-02 5.522258877754211426e-01
1.246000000000000000e+03 6.507744789123535156e+00 2.593740224838256836e+00 -4.765051007270812988e-01 8.236414939165115356e-02 -1.182422861456871033e-01 4.986196756362915039e-01
1.247000000000000000e+03 1.356296181678771973e+00 4.751336574554443359e+00 -4.579896107316017151e-03 -6.460455060005187988e-01 -1.951876282691955566e-01 3.323273956775665283e-01
1.248000000000000000e+03 3.957920372486114502e-01 3.553060293197631836e+00 -1.195471268147230148e-02 -4.780022799968719482e-01 -1.469870954751968384e-01 1.009971797466278076e-01
1.249000000000000000e+03 6.454804897308349609e+00 3.328754663467407227e+00 -2.213111519813537598e-01 1.452146321535110474e-01 -2.282895892858505249e-02 4.959034621715545654e-01
1.250000000000000000e+03 7.205886363983154297e+00 3.304453372955322266e+00 -2.167345732450485229e-01 2.361668199300765991e-01 5.829672794789075851e-03 4.040694236755371094e-01
1.251000000000000000e+03 7.973659038543701172e+00 3.263646602630615234e+00 -1.699873954057693481e-01 3.366736471652984619e-01 5.000587552785873413e-02 2.547851502895355225e-01
1.252000000000000000e+03 9.457056045532226562e+00 3.848988294601440430e+00 1.834092587232589722e-01 8.866032361984252930e-01 3.210037350654602051e-01 -2.919702827930450439e-01
1.253000000000000000e+03 6.347560405731201172e+00 -3.576784849166870117e+00 5.555452704429626465e-01 2.210387736558914185e-01 2.329751998186111450e-01 4.676695168018341064e-01
1.254000000000000000e+03 2.131395339965820312e+00 -3.246088743209838867e+00 6.076240539550781250e-02 6.843404471874237061e-02 3.875893354415893555e-02 2.717060223221778870e-02
1.255000000000000000e+03 4.043735980987548828e+00 -8.969819068908691406e+00 -1.168766021728515625e-01 1.174753069877624512e+00 3.173629641532897949e-01 5.904569029808044434e-01
1.256000000000000000e+03 7.159271240234375000e+00 -3.447094440460205078e+00 7.203401923179626465e-01 1.819065213203430176e-01 2.706740200519561768e-01 5.394331216812133789e-01
1.257000000000000000e+03 5.415292263031005859e+00 -2.823707103729248047e+00 3.393815755844116211e-01 1.280513107776641846e-01 1.402298659086227417e-01 2.375141978263854980e-01
1.258000000000000000e+03 5.520276546478271484e+00 -3.724223613739013672e+00 4.131939411163330078e-01 2.226703613996505737e-01 1.907593011856079102e-01 3.675303757190704346e-01
1.259000000000000000e+03 1.498610138893127441e+00 -4.769755363464355469e+00 4.315794631838798523e-02 9.901840984821319580e-02 4.265290871262550354e-02 7.618219405412673950e-02
1.260000000000000000e+03 8.720026969909667969e+00 -3.254408121109008789e+00 1.134639978408813477e+00 1.344702839851379395e-01 3.807330727577209473e-01 6.981924772262573242e-01
1.261000000000000000e+03 8.751924514770507812e+00 3.204779148101806641e+00 -1.129349097609519958e-01 4.594288170337677002e-01 1.039481684565544128e-01 4.840659722685813904e-02
1.262000000000000000e+03 3.913033676147460938e+01 -1.228900146484375000e+01 7.151221036911010742e-01 1.148114490509033203e+01 3.658880233764648438e+00 -6.159312725067138672e-01
1.263000000000000000e+03 1.751039505004882812e+01 -2.923018693923950195e+00 4.080843448638916016e+00 8.183465957641601562e+00 3.679292917251586914e+00 -1.954608440399169922e+00
1.264000000000000000e+03 2.266722106933593750e+01 -1.961219310760498047e+00 5.171228885650634766e+00 6.462808847427368164e-01 1.745252847671508789e+00 -1.924457430839538574e+00
1.265000000000000000e+03 1.877541923522949219e+01 -2.170845121145248413e-01 5.857743740081787109e+00 5.761307716369628906e+00 3.485715389251708984e+00 -8.360162973403930664e-01
1.266000000000000000e+03 1.853712844848632812e+01 -9.309834241867065430e-01 7.137804985046386719e+00 6.046172618865966797e+00 3.955193281173706055e+00 -1.682629585266113281e+00
1.267000000000000000e+03 2.015033149719238281e+01 -1.612401199340820312e+01 -2.709548473358154297e+00 5.422759652137756348e-01 -6.501817703247070312e-01 3.411465287208557129e-01
1.268000000000000000e+03 2.341778945922851562e+01 -1.729858779907226562e+01 -3.031683206558227539e+00 2.796542644500732422e-01 -8.256086707115173340e-01 -3.211316838860511780e-02
1.269000000000000000e+03 6.744387054443359375e+01 -7.459746837615966797e+00 4.602544605731964111e-01 7.638040065765380859e+00 2.429488420486450195e+00 -1.918822050094604492e+00
1.270000000000000000e+03 5.404942321777343750e+01 3.440940141677856445e+00 -1.442368149757385254e+00 4.175534546375274658e-01 -3.074444234371185303e-01 1.081815212965011597e-01
1.271000000000000000e+03 1.915984725952148438e+01 -1.566789913177490234e+01 -2.707126140594482422e+00 5.747489929199218750e-01 -6.397131681442260742e-01 3.855823576450347900e-01
1.272000000000000000e+03 2.701990127563476562e+01 -1.717490196228027344e+01 -3.201883554458618164e+00 4.097985476255416870e-02 -9.482710957527160645e-01 -3.829090595245361328e-01
1.273000000000000000e+03 1.802221870422363281e+01 -1.524356555938720703e+01 -2.572004795074462891e+00 4.113641083240509033e-01 -6.481921672821044922e-01 4.885574281215667725e-01
1.274000000000000000e+03 2.204303359985351562e+01 -1.523304367065429688e+01 -2.024853229522705078e+00 6.746840476989746094e-01 -4.050507545471191406e-01 -2.203591167926788330e-02
1.275000000000000000e+03 1.282170581817626953e+01 2.271727752685546875e+01 5.526149868965148926e-01 6.306802272796630859e+00 2.057825088500976562e+00 -8.290269970893859863e-01
1.276000000000000000e+03 1.273284149169921875e+01 1.971402549743652344e+01 7.925469875335693359e-01 6.742208003997802734e+00 2.260426521301269531e+00 -1.189068317413330078e+00
1.277000000000000000e+03 2.561413764953613281e+01 -3.293730163574218750e+01 -1.153724312782287598e+00 1.565249860286712646e-01 -2.991597950458526611e-01 1.101389825344085693e-01
1.278000000000000000e+03 2.318958091735839844e+01 -1.483220481872558594e+01 -1.689022779464721680e+00 5.570015907287597656e-01 -3.396063745021820068e-01 -1.374943107366561890e-01
1.279000000000000000e+03 1.915568161010742188e+01 -3.329847335815429688e+01 -1.752730131149291992e+00 -1.149317100644111633e-01 -5.602985620498657227e-01 2.241476476192474365e-01
1.280000000000000000e+03 2.088430404663085938e+01 -3.475568389892578125e+01 -1.187357544898986816e+00 -1.731466054916381836e-01 -4.081512391567230225e-01 2.302103787660598755e-01
1.281000000000000000e+03 3.596654510498046875e+01 -1.327728033065795898e+00 4.592638909816741943e-01 3.684036254882812500e+00 1.242990016937255859e+00 1.259494423866271973e+00
1.282000000000000000e+03 5.162305831909179688e+01 -3.199377822875976562e+01 -3.432056307792663574e-01 1.100091338157653809e+00 2.270657271146774292e-01 -5.425655841827392578e-01
1.283000000000000000e+03 5.256649398803710938e+01 -3.052850532531738281e+01 -3.556065857410430908e-01 5.812923908233642578e-01 6.770574301481246948e-02 -1.557142734527587891e-01
1.284000000000000000e+03 5.098470306396484375e+01 -2.865390586853027344e+01 7.763995230197906494e-02 6.754484772682189941e-01 2.259265184402465820e-01 -3.796436488628387451e-01
1.285000000000000000e+03 3.777155303955078125e+01 -2.183954048156738281e+01 1.496869325637817383e+00 1.097083091735839844e+01 3.740310192108154297e+00 9.366132020950317383e-01
1.286000000000000000e+03 2.321298789978027344e+01 -3.605531692504882812e+01 -6.909866333007812500e-01 1.600333862006664276e-02 -2.024949789047241211e-01 2.600218355655670166e-01
1.287000000000000000e+03 2.591306877136230469e+01 -3.427773284912109375e+01 -8.446488380432128906e-01 4.238525629043579102e-01 -1.262388974428176880e-01 3.036899268627166748e-01
1.288000000000000000e+03 1.387177085876464844e+01 1.365345191955566406e+01 9.109554886817932129e-01 7.099561214447021484e+00 2.403155088424682617e+00 -1.634643793106079102e+00
1.289000000000000000e+03 4.411552429199218750e+01 1.827882575988769531e+01 5.805338025093078613e-01 6.102840900421142578e+00 2.005012512207031250e+00 1.379849314689636230e+00
1.290000000000000000e+03 1.695759391784667969e+01 -1.471669197082519531e+01 -2.279356241226196289e+00 3.152824044227600098e-01 -5.892221331596374512e-01 6.893872618675231934e-01
1.291000000000000000e+03 2.486745452880859375e+01 -1.581142139434814453e+01 -2.128932237625122070e+00 2.391227036714553833e-01 -5.669428706169128418e-01 -1.356999874114990234e-01
1.292000000000000000e+03 4.178017807006835938e+01 -2.288403320312500000e+01 7.434560060501098633e-01 6.417862892150878906e+00 2.148395538330078125e+00 -1.089545011520385742e+00
1.293000000000000000e+03 4.594049072265625000e+01 -2.577141189575195312e+01 6.883396506309509277e-01 2.223965883255004883e+00 8.736916184425354004e-01 -1.251293778419494629e+00
1.294000000000000000e+03 7.156235504150390625e+01 -2.219223022460937500e+01 7.047272324562072754e-01 1.180385017395019531e+01 3.752573251724243164e+00 -2.477386593818664551e-01
1.295000000000000000e+03 1.782841110229492188e+01 7.181024074554443359e+00 3.042076230049133301e-01 7.042668342590332031e+00 2.204062700271606445e+00 -2.052333116531372070e+00
1.296000000000000000e+03 1.667869377136230469e+01 9.659602165222167969e+00 8.087188601493835449e-01 7.626414775848388672e+00 2.530540227890014648e+00 -2.399098157882690430e+00
1.297000000000000000e+03 1.255965137481689453e+01 -3.558841323852539062e+01 -5.935850143432617188e-01 -2.956928908824920654e-01 -2.667833566665649414e-01 4.771471619606018066e-01
1.298000000000000000e+03 1.456335544586181641e+01 -3.741133880615234375e+01 -2.193105220794677734e-01 -5.443206429481506348e-01 -2.290893495082855225e-01 3.974366486072540283e-01
1.299000000000000000e+03 1.883332633972167969e+01 -1.828510284423828125e+00 6.531236171722412109e+00 5.346742153167724609e+00 3.563393592834472656e+00 -2.614908933639526367e+00
1.300000000000000000e+03 4.870197296142578125e+01 -3.198563385009765625e+01 -2.033759355545043945e-01 2.000221729278564453e+00 5.390537381172180176e-01 -9.819309115409851074e-01
1.301000000000000000e+03 4.411880111694335938e+01 1.967793083190917969e+01 4.090997874736785889e-01 5.769082069396972656e+00 1.853454589843750000e+00 1.107096672058105469e+00
1.302000000000000000e+03 4.404610824584960938e+01 2.532186317443847656e+01 2.144672721624374390e-01 4.674119949340820312e+00 1.466576218605041504e+00 3.838363587856292725e-01
1.303000000000000000e+03 4.411493301391601562e+01 2.689015579223632812e+01 2.549155354499816895e-01 4.315160751342773438e+00 1.371022939682006836e+00 3.838549852371215820e-01
1.304000000000000000e+03 4.712250518798828125e+01 -2.488436698913574219e+01 6.214648485183715820e-01 1.283340811729431152e+00 5.714416503906250000e-01 -8.652961850166320801e-01
1.305000000000000000e+03 4.779829788208007812e+01 -2.784345436096191406e+01 3.619239032268524170e-01 1.627848386764526367e+00 5.969316959381103516e-01 -1.003799200057983398e+00
1.306000000000000000e+03 3.990583419799804688e+01 3.420658874511718750e+01 -1.215326309204101562e+00 1.219860672950744629e+00 1.360312686301767826e-03 1.755437403917312622e-01
1.307000000000000000e+03 4.168480300903320312e+01 -9.849670529365539551e-01 1.014886498451232910e+00 1.085049438476562500e+01 3.559614419937133789e+00 1.952476620674133301e+00
1.308000000000000000e+03 4.128743743896484375e+01 -2.349709749221801758e+00 1.959829807281494141e+00 1.152963447570800781e+01 4.046839237213134766e+00 2.911402225494384766e+00
1.309000000000000000e+03 6.158247756958007812e+01 -3.501226043701171875e+01 -5.810312032699584961e-01 2.573681175708770752e-01 -9.709892421960830688e-02 3.178812265396118164e-01
1.310000000000000000e+03 4.023613739013671875e+01 -7.934510231018066406e+00 1.559422850608825684e+00 1.341503524780273438e+01 4.492337226867675781e+00 1.235652089118957520e+00
1.311000000000000000e+03 4.285509872436523438e+01 2.392367172241210938e+01 8.014040440320968628e-02 5.049426555633544922e+00 1.538869976997375488e+00 3.211460709571838379e-01
1.312000000000000000e+03 4.398578262329101562e+01 2.385603141784667969e+01 1.828981041908264160e-01 4.963710784912109375e+00 1.543982744216918945e+00 5.298394560813903809e-01
1.313000000000000000e+03 4.405960845947265625e+01 2.106498718261718750e+01 2.856379449367523193e-01 5.519407749176025391e+00 1.741513729095458984e+00 8.991706371307373047e-01
1.314000000000000000e+03 4.399034500122070312e+01 2.244864273071289062e+01 2.056896537542343140e-01 5.209920883178710938e+00 1.624683260917663574e+00 6.723096966743469238e-01
1.315000000000000000e+03 4.681793212890625000e+01 -2.683958435058593750e+01 5.632897615432739258e-01 1.910837292671203613e+00 7.422381043434143066e-01 -1.130352497100830078e+00
1.316000000000000000e+03 7.593688201904296875e+01 -1.732841300964355469e+01 3.967110514640808105e-01 8.249341011047363281e+00 2.593815565109252930e+00 -1.009526029229164124e-01
1.317000000000000000e+03 4.314641952514648438e+01 1.077380752563476562e+01 1.578722000122070312e+00 7.822874069213867188e+00 2.820478916168212891e+00 3.027208328247070312e+00
1.318000000000000000e+03 4.360647964477539062e+01 1.226032161712646484e+01 1.478503227233886719e+00 7.198506355285644531e+00 2.603102922439575195e+00 2.653153896331787109e+00
1.319000000000000000e+03 7.035372924804687500e+01 -8.511783599853515625e+00 -6.119238585233688354e-02 9.269478797912597656e+00 2.762485980987548828e+00 -5.206325650215148926e-01
1.320000000000000000e+03 7.121388244628906250e+01 -1.838051986694335938e+01 4.974316656589508057e-01 1.285087108612060547e+01 4.004490852355957031e+00 -5.878196358680725098e-01
1.321000000000000000e+03 1.899168586730957031e+01 4.507001399993896484e+00 -6.705015301704406738e-01 6.160646915435791016e+00 1.647043704986572266e+00 -1.028193116188049316e+00
1.322000000000000000e+03 4.403898239135742188e+01 -2.360082054138183594e+01 7.663755416870117188e-01 3.726344585418701172e+00 1.347816109657287598e+00 -1.440223813056945801e+00
1.323000000000000000e+03 7.528188323974609375e+01 -3.321381378173828125e+01 -4.333032369613647461e-01 9.324523925781250000e+00 2.667366266250610352e+00 -8.635289072990417480e-01
1.324000000000000000e+03 7.524932861328125000e+01 -2.610321807861328125e+01 2.747153937816619873e-01 9.007776260375976562e+00 2.784747362136840820e+00 -1.216050267219543457e+00
1.325000000000000000e+03 7.822380828857421875e+01 -2.786075019836425781e+01 -6.833624094724655151e-03 8.449601173400878906e+00 2.532830238342285156e+00 -7.779865860939025879e-01
1.326000000000000000e+03 7.320172882080078125e+01 -3.801128768920898438e+01 -4.141048491001129150e-01 8.054074287414550781e+00 2.291990995407104492e+00 -2.809193134307861328e-01
1.327000000000000000e+03 7.542202758789062500e+01 2.034242820739746094e+01 9.117522090673446655e-02 6.461348533630371094e+00 1.965757131576538086e+00 -2.741510570049285889e-01
1.328000000000000000e+03 7.763930511474609375e+01 3.483135223388671875e+01 -2.410422312095761299e-03 6.544526100158691406e+00 1.962634682655334473e+00 4.882612265646457672e-03
1.329000000000000000e+03 7.587358093261718750e+01 3.350704574584960938e+01 -8.636922575533390045e-04 6.351440906524658203e+00 1.905173182487487793e+00 2.686514519155025482e-02
1.330000000000000000e+03 7.725377655029296875e+01 -2.257165718078613281e+01 1.919687241315841675e-01 7.643174648284912109e+00 2.350543022155761719e+00 -6.325950622558593750e-01
1.331000000000000000e+03 7.685214233398437500e+01 -3.031283760070800781e+01 -1.079646274447441101e-01 9.191855430603027344e+00 2.725167274475097656e+00 -1.045835137367248535e+00
1.332000000000000000e+03 7.790913391113281250e+01 -3.431713867187500000e+01 -1.257418990135192871e-01 1.012226104736328125e+01 2.998955965042114258e+00 -4.286604225635528564e-01
1.333000000000000000e+03 7.579922485351562500e+01 -2.957677650451660156e+01 -1.442455351352691650e-01 9.132922172546386719e+00 2.696602821350097656e+00 -1.221481204032897949e+00
1.334000000000000000e+03 7.468154144287109375e+01 -2.369561386108398438e+01 4.993379712104797363e-01 9.399676322937011719e+00 2.969704389572143555e+00 -9.073430299758911133e-01
1.335000000000000000e+03 7.707154846191406250e+01 -2.662066841125488281e+01 1.284559220075607300e-01 8.425474166870117188e+00 2.566179037094116211e+00 -1.020371317863464355e+00
1.336000000000000000e+03 7.723104858398437500e+01 -2.392490005493164062e+01 1.654922664165496826e-01 7.882423400878906250e+00 2.414374589920043945e+00 -7.877522706985473633e-01
1.337000000000000000e+03 7.574833679199218750e+01 -3.197103500366210938e+01 -3.691332936286926270e-01 9.267944335937500000e+00 2.669643163681030273e+00 -9.965512752532958984e-01
1.338000000000000000e+03 7.654196929931640625e+01 -3.385210037231445312e+01 -3.238455355167388916e-01 9.571016311645507812e+00 2.774151325225830078e+00 -6.786432266235351562e-01
1.339000000000000000e+03 7.475053405761718750e+01 -3.069241714477539062e+01 -3.773733675479888916e-01 9.131238937377929688e+00 2.626159667968750000e+00 -1.180300831794738770e+00
1.340000000000000000e+03 7.480907440185546875e+01 -4.027387237548828125e+01 -1.485943794250488281e-01 9.045465469360351562e+00 2.669061183929443359e+00 -2.686895132064819336e-01
1.341000000000000000e+03 7.802661895751953125e+01 2.203944587707519531e+01 2.242384664714336395e-02 6.746008396148681641e+00 2.030529737472534180e+00 -1.057357639074325562e-01
1.342000000000000000e+03 7.673865509033203125e+01 2.050142097473144531e+01 5.370606109499931335e-02 6.658688068389892578e+00 2.013718128204345703e+00 -2.089522033929824829e-01
1.343000000000000000e+03 7.540729522705078125e+01 2.303418159484863281e+01 8.497840911149978638e-02 6.366456031799316406e+00 1.935430288314819336e+00 -1.840201318264007568e-01
1.344000000000000000e+03 7.671298980712890625e+01 2.186508178710937500e+01 4.904491081833839417e-02 6.588608264923095703e+00 1.991296052932739258e+00 -1.727811545133590698e-01
1.345000000000000000e+03 7.678498840332031250e+01 1.364492607116699219e+01 2.398935146629810333e-02 7.179589271545410156e+00 2.161073684692382812e+00 -3.771180808544158936e-01
1.346000000000000000e+03 7.806878662109375000e+01 1.236270523071289062e+01 1.182577805593609810e-03 7.612059116363525391e+00 2.283972501754760742e+00 -2.530111968517303467e-01
1.347000000000000000e+03 7.547001647949218750e+01 9.470765113830566406e+00 -4.236755147576332092e-02 7.244737625122070312e+00 2.160711050033569336e+00 -5.233741998672485352e-01
1.348000000000000000e+03 7.679123687744140625e+01 1.501015281677246094e+01 3.890503570437431335e-02 7.054926395416259766e+00 2.128149509429931641e+00 -3.527109026908874512e-01
1.349000000000000000e+03 7.661752319335937500e+01 2.458274650573730469e+01 4.343130812048912048e-02 6.482202053070068359e+00 1.957690000534057617e+00 -1.023842245340347290e-01
1.350000000000000000e+03 7.788286590576171875e+01 2.619095611572265625e+01 1.542843692004680634e-02 6.586786746978759766e+00 1.980664610862731934e+00 -4.151125624775886536e-02
1.351000000000000000e+03 7.832486724853515625e+01 -2.109262275695800781e+01 9.181520342826843262e-02 6.607963085174560547e+00 2.009933471679687500e+00 -3.380698561668395996e-01
1.352000000000000000e+03 7.721708679199218750e+01 -2.122262382507324219e+01 1.534809321165084839e-01 7.527105331420898438e+00 2.304175853729248047e+00 -4.894062280654907227e-01
1.353000000000000000e+03 7.763648986816406250e+01 3.048575210571289062e+01 8.876155130565166473e-03 6.524250984191894531e+00 1.959938168525695801e+00 2.624109853059053421e-03
1.354000000000000000e+03 7.634996032714843750e+01 2.735830688476562500e+01 3.888643905520439148e-02 6.404951572418212891e+00 1.933151483535766602e+00 -4.316218197345733643e-02
1.355000000000000000e+03 7.375766754150390625e+01 -2.034012031555175781e+01 5.007072091102600098e-01 1.025291156768798828e+01 3.226085662841796875e+00 -4.946720898151397705e-01
1.356000000000000000e+03 7.718063354492187500e+01 -1.986878013610839844e+01 2.015785574913024902e-01 7.402904033660888672e+00 2.281344890594482422e+00 -3.689608573913574219e-01
1.357000000000000000e+03 7.551702880859375000e+01 -7.686583518981933594e+00 -1.097140833735466003e-01 8.213973999023437500e+00 2.431277990341186523e+00 7.474474906921386719e-01
1.358000000000000000e+03 7.695764923095703125e+01 -1.297999095916748047e+01 1.877980381250381470e-01 7.445798397064208984e+00 2.290078878402709961e+00 5.269616842269897461e-01
1.359000000000000000e+03 7.550096130371093750e+01 -3.246776461601257324e-01 -3.006252348423004150e-01 8.032476425170898438e+00 2.319555521011352539e+00 1.272782236337661743e-01
1.360000000000000000e+03 7.681594848632812500e+01 -7.445660591125488281e+00 -6.445080041885375977e-02 7.963272094726562500e+00 2.369646310806274414e+00 7.111831307411193848e-01
1.361000000000000000e+03 7.680583953857421875e+01 3.963276863098144531e+00 -1.142871230840682983e-01 8.109083175659179688e+00 2.398438692092895508e+00 -1.918917894363403320e-01
1.362000000000000000e+03 7.771509552001953125e+01 3.611909103393554688e+01 5.010145250707864761e-03 6.556070804595947266e+00 1.968324303627014160e+00 1.759564876556396484e-02
1.363000000000000000e+03 7.807665252685546875e+01 6.802855491638183594e+00 -3.444388508796691895e-02 8.260430335998535156e+00 2.467796087265014648e+00 -2.050582021474838257e-01
1.364000000000000000e+03 7.679528045654296875e+01 6.739853382110595703e+00 -6.410630047321319580e-02 7.879564285278320312e+00 2.344637393951416016e+00 -3.279049396514892578e-01
1.365000000000000000e+03 7.807341766357421875e+01 -1.606971979141235352e+00 -8.293475955724716187e-02 8.498515129089355469e+00 2.524674177169799805e+00 2.252583354711532593e-01
1.366000000000000000e+03 7.678291320800781250e+01 -1.706605434417724609e+00 -1.667537689208984375e-01 8.262782096862792969e+00 2.428808450698852539e+00 2.872834503650665283e-01
1.367000000000000000e+03 7.691054534912109375e+01 -8.854386329650878906e+00 -5.235171411186456680e-03 7.813479900360107422e+00 2.342473506927490234e+00 7.293596267700195312e-01
1.368000000000000000e+03 7.703245544433593750e+01 -1.576449871063232422e+01 2.473320066928863525e-01 7.323510646820068359e+00 2.271252870559692383e+00 1.702487170696258545e-01
1.369000000000000000e+03 7.597698211669921875e+01 3.505966186523437500e+01 -8.242976851761341095e-03 6.388458728790283203e+00 1.914064645767211914e+00 2.873303368687629700e-02
1.370000000000000000e+03 7.409568023681640625e+01 3.548464202880859375e+01 -1.327029429376125336e-02 6.170183658599853516e+00 1.847074031829833984e+00 4.075606539845466614e-02
1.371000000000000000e+03 7.591806030273437500e+01 3.192440605163574219e+01 1.183302514255046844e-02 6.346050739288330078e+00 1.907365083694458008e+00 1.577889360487461090e-02
1.372000000000000000e+03 7.676576995849609375e+01 1.912828254699707031e+01 4.759564995765686035e-02 6.738611221313476562e+00 2.035861968994140625e+00 -2.464516311883926392e-01
1.373000000000000000e+03 7.678569030761718750e+01 1.775422477722167969e+01 5.013256892561912537e-02 6.833068370819091797e+00 2.064960241317749023e+00 -2.834253609180450439e-01
1.374000000000000000e+03 7.807249450683593750e+01 8.195292472839355469e+00 -1.442329678684473038e-02 8.110618591308593750e+00 2.428858757019042969e+00 -2.332784831523895264e-01
1.375000000000000000e+03 7.677281951904296875e+01 1.090153980255126953e+01 -6.767918355762958527e-03 7.452879905700683594e+00 2.233833551406860352e+00 -4.022108912467956543e-01
1.376000000000000000e+03 7.698522186279296875e+01 -1.437488651275634766e+01 2.340644448995590210e-01 7.364600181579589844e+00 2.279599428176879883e+00 3.402701616287231445e-01
1.377000000000000000e+03 7.679114532470703125e+01 -2.958877682685852051e-01 -1.805318146944046021e-01 8.277234077453613281e+00 2.429010629653930664e+00 1.612503826618194580e-01
1.378000000000000000e+03 7.807298278808593750e+01 2.615133285522460938e+00 -5.631437525153160095e-02 8.563231468200683594e+00 2.552075147628784180e+00 -3.948141634464263916e-02
1.379000000000000000e+03 7.680339050292968750e+01 5.355141639709472656e+00 -9.872530400753021240e-02 8.001044273376464844e+00 2.370695590972900391e+00 -2.680849134922027588e-01
1.380000000000000000e+03 7.806636047363281250e+01 -5.841530323028564453e+00 -4.472689703106880188e-02 7.990435123443603516e+00 2.383712530136108398e+00 4.854084551334381104e-01
1.381000000000000000e+03 7.676976013183593750e+01 -4.563424587249755859e+00 -1.470847576856613159e-01 8.165516853332519531e+00 2.405529499053955078e+00 5.472072958946228027e-01
1.382000000000000000e+03 7.678044891357421875e+01 -3.126678705215454102e+00 -1.814509332180023193e-01 8.232485771179199219e+00 2.415310382843017578e+00 4.122798442840576172e-01
1.383000000000000000e+03 7.816728973388671875e+01 -1.280601406097412109e+01 7.274615764617919922e-02 6.688095092773437500e+00 2.028252363204956055e+00 3.986480832099914551e-01
1.384000000000000000e+03 7.695449066162109375e+01 -1.159803295135498047e+01 1.210427507758140564e-01 7.550813674926757812e+00 2.301556825637817383e+00 6.282035112380981445e-01
1.385000000000000000e+03 7.695516967773437500e+01 -1.023501777648925781e+01 7.785112410783767700e-02 7.670361042022705078e+00 2.324463605880737305e+00 7.067637443542480469e-01
1.386000000000000000e+03 7.586389923095703125e+01 -1.595638847351074219e+01 4.220012426376342773e-01 8.212752342224121094e+00 2.590425968170166016e+00 7.748647034168243408e-02
1.387000000000000000e+03 4.395369338989257812e+01 1.384518241882324219e+01 1.277132987976074219e+00 6.876562595367431641e+00 2.446108579635620117e+00 2.257044792175292969e+00
1.388000000000000000e+03 4.353403472900390625e+01 3.260535812377929688e+01 -7.849058508872985840e-01 3.260329008102416992e+00 7.426269650459289551e-01 4.650419056415557861e-01
1.389000000000000000e+03 1.433823871612548828e+01 3.061502838134765625e+01 -6.450849771499633789e-01 3.572608709335327148e+00 8.782570958137512207e-01 -4.941239058971405029e-01
1.390000000000000000e+03 7.112519836425781250e+01 -1.703219223022460938e+01 8.144251704216003418e-01 1.276562786102294922e+01 4.074016094207763672e+00 -8.112429976463317871e-01
1.391000000000000000e+03 6.995095062255859375e+01 -1.734413146972656250e+01 4.916894137859344482e-01 1.447026157379150391e+01 4.488585472106933594e+00 -7.997513413429260254e-01
1.392000000000000000e+03 4.162378692626953125e+01 9.743931770324707031e+00 1.537845611572265625e+00 9.957219123840332031e+00 3.448519468307495117e+00 3.323232650756835938e+00
1.393000000000000000e+03 2.022551059722900391e+00 3.588755798339843750e+01 -9.833791851997375488e-02 3.593185663223266602e+00 1.048454284667968750e+00 -3.449917137622833252e-01
1.394000000000000000e+03 6.547731399536132812e+00 3.238618850708007812e+01 -3.924984633922576904e-01 3.149144649505615234e+00 8.269938826560974121e-01 -1.238717436790466309e+00
1.395000000000000000e+03 3.561190128326416016e+00 2.985375022888183594e+01 -6.631664186716079712e-02 2.431860923767089844e+00 7.096632719039916992e-01 -1.043186426162719727e+00
1.396000000000000000e+03 1.923215866088867188e+00 2.723825073242187500e+01 5.371969658881425858e-03 1.423693656921386719e+00 4.287196993827819824e-01 -6.736661195755004883e-01
1.397000000000000000e+03 2.097749948501586914e+00 3.460716247558593750e+01 -1.012183651328086853e-01 3.336043596267700195e+00 9.704475998878479004e-01 -4.873432219028472900e-01
1.398000000000000000e+03 3.244643449783325195e+00 3.585504150390625000e+01 -2.050374448299407959e-01 3.520649909973144531e+00 9.946837425231933594e-01 -5.489697456359863281e-01
1.399000000000000000e+03 3.895432472229003906e+00 3.334945678710937500e+01 -1.761543303728103638e-01 3.069881916046142578e+00 8.681182861328125000e-01 -8.991753458976745605e-01
1.400000000000000000e+03 5.443734645843505859e+00 3.094571876525878906e+01 -2.199620753526687622e-01 2.918809175491333008e+00 8.096541166305541992e-01 -1.251467108726501465e+00
1.401000000000000000e+03 3.928853034973144531e+00 3.156669616699218750e+01 -1.506146788597106934e-01 2.807000875473022461e+00 7.969158291816711426e-01 -1.009663939476013184e+00
1.402000000000000000e+03 3.629350423812866211e+00 -3.540092468261718750e+01 -2.379933297634124756e-01 4.746757507324218750e+00 1.352629184722900391e+00 -3.219291865825653076e-01
1.403000000000000000e+03 2.142372608184814453e+00 -2.884723663330078125e+01 -4.465978741645812988e-01 5.305062294006347656e+00 1.457539319992065430e+00 1.389989733695983887e+00
1.404000000000000000e+03 1.549623966217041016e+00 -3.430812835693359375e+01 -4.717252030968666077e-02 6.530283451080322266e+00 1.944933295249938965e+00 -1.239464730024337769e-01
1.405000000000000000e+03 6.119235992431640625e+00 -3.328056716918945312e+01 -9.049851894378662109e-01 2.723223924636840820e+00 5.454716682434082031e-01 -7.639155536890029907e-02
1.406000000000000000e+03 1.893991589546203613e+00 -3.043391799926757812e+01 -4.471159577369689941e-01 5.908085823059082031e+00 1.638290882110595703e+00 6.887946724891662598e-01
1.407000000000000000e+03 1.824019670486450195e+00 2.168156051635742188e+01 4.635410383343696594e-02 -1.591283679008483887e-01 -3.383227810263633728e-02 -5.038740634918212891e-01
1.408000000000000000e+03 3.008816719055175781e+00 2.282549667358398438e+01 9.065472334623336792e-02 7.461968064308166504e-01 2.510554492473602295e-01 -8.220541477203369141e-01
1.409000000000000000e+03 3.073318004608154297e+00 -1.181262779235839844e+01 -2.753182649612426758e-01 1.505235314369201660e+00 3.689751327037811279e-01 1.199439391493797302e-01
1.410000000000000000e+03 1.729113101959228516e+00 -7.675715923309326172e+00 6.215430796146392822e-03 4.152133166790008545e-01 1.264286190271377563e-01 1.865623593330383301e-01
1.411000000000000000e+03 3.046376705169677734e+00 1.734350776672363281e+01 1.553658396005630493e-01 -1.440604925155639648e-01 3.391600679606199265e-03 -4.055956900119781494e-01
1.412000000000000000e+03 2.835519790649414062e+00 1.175452232360839844e+01 1.411025226116180420e-01 -6.650800704956054688e-01 -1.571932733058929443e-01 1.130148470401763916e-01
1.413000000000000000e+03 1.490619659423828125e+00 6.232995510101318359e+00 2.014851197600364685e-02 -8.720909953117370605e-01 -2.555827498435974121e-01 3.410285711288452148e-01
1.414000000000000000e+03 2.566634654998779297e+00 9.045498847961425781e+00 1.132164373993873596e-01 -7.443847060203552246e-01 -1.893504858016967773e-01 3.140441477298736572e-01
1.415000000000000000e+03 3.582518577575683594e+00 -2.309393501281738281e+01 1.044826865196228027e+00 5.279139041900634766e+00 1.897189855575561523e+00 1.787285447120666504e+00
1.416000000000000000e+03 1.869581937789916992e+00 -1.478541946411132812e+01 -8.764488995075225830e-02 9.467555880546569824e-01 2.577331960201263428e-01 -3.925262987613677979e-01
1.417000000000000000e+03 3.171435594558715820e+00 -1.327586650848388672e+01 -3.315349221229553223e-01 1.879742383956909180e+00 4.644622504711151123e-01 -6.891578435897827148e-02
1.418000000000000000e+03 5.695713520050048828e+00 -4.634871482849121094e+00 4.611931145191192627e-01 3.844321966171264648e-01 2.536875903606414795e-01 5.672929883003234863e-01
1.419000000000000000e+03 4.290647983551025391e+00 3.518668413162231445e+00 -1.561015546321868896e-01 -9.720322489738464355e-02 -7.599143683910369873e-02 5.948319435119628906e-01
1.420000000000000000e+03 1.778511524200439453e+00 1.469549369812011719e+01 6.526240706443786621e-02 -1.260061144828796387e+00 -3.584396243095397949e-01 -9.322641789913177490e-02
1.421000000000000000e+03 3.039934396743774414e+00 1.594051170349121094e+01 1.507216393947601318e-01 -3.109613656997680664e-01 -4.807191714644432068e-02 -2.777377068996429443e-01
1.422000000000000000e+03 2.883084774017333984e+00 -7.604229927062988281e+00 1.586440205574035645e-02 6.244692802429199219e-01 1.921000927686691284e-01 3.352800011634826660e-01
1.423000000000000000e+03 2.353269100189208984e+00 -4.370751380920410156e+00 9.018373489379882812e-02 1.578752249479293823e-01 7.441768795251846313e-02 1.089173480868339539e-01
1.424000000000000000e+03 2.702961444854736328e+00 -1.881330871582031250e+01 5.156904458999633789e-01 2.292587280273437500e+00 8.424833416938781738e-01 6.617324054241180420e-02
1.425000000000000000e+03 2.959422111511230469e+00 -1.618335533142089844e+01 8.840753138065338135e-02 2.271185159683227539e+00 7.078778147697448730e-01 -3.793419599533081055e-01
1.426000000000000000e+03 1.934455275535583496e+00 -2.429103279113769531e+01 2.729856371879577637e-01 3.042168140411376953e+00 9.945461153984069824e-01 1.657332420349121094e+00
1.427000000000000000e+03 3.220612525939941406e+00 -2.535037994384765625e+01 1.604250520467758179e-01 4.636743068695068359e+00 1.439150452613830566e+00 2.203513860702514648e+00
1.428000000000000000e+03 2.991299867630004883e+00 -1.040302753448486328e+01 -2.010752409696578979e-01 1.189601063728332520e+00 2.965577244758605957e-01 2.538052201271057129e-01
1.429000000000000000e+03 2.925012588500976562e+00 -9.007110595703125000e+00 -7.188750803470611572e-02 8.913540840148925781e-01 2.458399832248687744e-01 3.489626049995422363e-01
1.430000000000000000e+03 4.440547943115234375e+00 -3.629326629638671875e+01 -2.018191218376159668e-01 4.300786018371582031e+00 1.229690074920654297e+00 -2.829434573650360107e-01
1.431000000000000000e+03 1.820125699043273926e+00 2.029202651977539062e+01 5.705187469720840454e-02 -4.690552949905395508e-01 -1.236010268330574036e-01 -4.360518455505371094e-01
1.432000000000000000e+03 3.014304876327514648e+00 2.148814964294433594e+01 1.122309118509292603e-01 4.934531748294830322e-01 1.817052215337753296e-01 -7.566502690315246582e-01
1.433000000000000000e+03 1.915465712547302246e+00 -3.535343551635742188e+01 -1.201837584376335144e-01 6.108615875244140625e+00 1.796529650688171387e+00 -2.849240303039550781e-01
1.434000000000000000e+03 3.727969646453857422e+00 -3.357872772216796875e+01 -4.898098111152648926e-01 4.750268459320068359e+00 1.278137683868408203e+00 -4.029723629355430603e-02
1.435000000000000000e+03 3.548799991607666016e+00 -3.206972503662109375e+01 -6.906566619873046875e-01 4.833491802215576172e+00 1.242850542068481445e+00 2.814325094223022461e-01
1.436000000000000000e+03 4.154971599578857422e+00 -2.381461143493652344e+01 8.425634503364562988e-01 6.087062835693359375e+00 2.078887939453125000e+00 1.831223607063293457e+00
1.437000000000000000e+03 2.962314605712890625e+00 -2.228975677490234375e+01 7.629422545433044434e-01 3.857328176498413086e+00 1.386081099510192871e+00 1.486108064651489258e+00
1.438000000000000000e+03 5.776997089385986328e+00 -2.033774185180664062e+01 1.595463514328002930e+00 9.304367065429687500e+00 3.269948959350585938e+00 2.283828258514404297e+00
1.439000000000000000e+03 3.103725910186767578e+00 -1.476745319366455078e+01 -2.231230586767196655e-01 2.145035982131958008e+00 5.765738487243652344e-01 -2.635456919670104980e-01
1.440000000000000000e+03 2.704689502716064453e+00 1.039923572540283203e+01 1.231681331992149353e-01 -7.163567543029785156e-01 -1.779565811157226562e-01 2.181425094604492188e-01
1.441000000000000000e+03 4.132880687713623047e+00 1.297491645812988281e+01 2.767307162284851074e-01 1.910824626684188843e-01 1.403439640998840332e-01 -6.149703636765480042e-02
1.442000000000000000e+03 2.922838926315307617e+00 1.313565158843994141e+01 1.585332453250885010e-01 -5.588682889938354492e-01 -1.201005056500434875e-01 -2.382697351276874542e-02
1.443000000000000000e+03 4.293941497802734375e+00 1.580493831634521484e+01 3.073347508907318115e-01 4.833713471889495850e-01 2.372118234634399414e-01 -3.802039325237274170e-01
1.444000000000000000e+03 3.733098983764648438e+01 -2.525199317932128906e+01 1.818123936653137207e+00 1.026974010467529297e+01 3.626359224319458008e+00 1.065640375018119812e-01
1.445000000000000000e+03 3.608783340454101562e+01 -2.800001907348632812e+01 4.044776856899261475e-01 9.264729499816894531e+00 2.900762081146240234e+00 4.190797805786132812e-01
1.446000000000000000e+03 1.411368179321289062e+01 1.223293209075927734e+01 8.448075056076049805e-01 6.799312591552734375e+00 2.293236017227172852e+00 -1.721484303474426270e+00
1.447000000000000000e+03 7.110632324218750000e+01 -2.517188262939453125e+01 9.801336526870727539e-01 1.127266120910644531e+01 3.675838470458984375e+00 -4.282693564891815186e-01
1.448000000000000000e+03 4.016854095458984375e+01 -9.366403579711914062e+00 9.896879196166992188e-01 1.373405551910400391e+01 4.417123317718505859e+00 3.734790384769439697e-01
1.449000000000000000e+03 3.715447235107421875e+01 -1.391316413879394531e+01 1.673084646463394165e-01 9.255027770996093750e+00 2.826700925827026367e+00 -7.709442973136901855e-01
1.450000000000000000e+03 3.950967025756835938e+01 -1.698053932189941406e+01 2.965399920940399170e-01 1.116684913635253906e+01 3.439016819000244141e+00 2.816767394542694092e-01
1.451000000000000000e+03 3.607257843017578125e+01 -3.019886970520019531e+01 -5.647596716880798340e-01 7.435694217681884766e+00 2.061280250549316406e+00 2.897801399230957031e-01
1.452000000000000000e+03 4.250556182861328125e+01 1.595322489738464355e+00 -1.244659662246704102e+00 9.645236015319824219e+00 2.520173072814941406e+00 2.601118803024291992e+00
1.453000000000000000e+03 6.944664764404296875e+01 -1.312409496307373047e+01 1.193419098854064941e+00 1.304931354522705078e+01 4.272819995880126953e+00 -1.469331741333007812e+00
1.454000000000000000e+03 7.014690399169921875e+01 -9.916439056396484375e+00 1.668606698513031006e-01 1.002390384674072266e+01 3.057229280471801758e+00 -6.672887802124023438e-01
1.455000000000000000e+03 1.705655670166015625e+01 -3.519339370727539062e+01 -1.236322760581970215e+00 -4.430366754531860352e-01 -5.038078427314758301e-01 4.869624674320220947e-01
1.456000000000000000e+03 1.985265350341796875e+01 4.621511101722717285e-01 3.740643739700317383e+00 4.003050327301025391e+00 2.323108196258544922e+00 -8.647347688674926758e-01
1.457000000000000000e+03 2.873899841308593750e+01 -3.424824523925781250e+01 -6.596342325210571289e-01 1.486229777336120605e+00 2.479786723852157593e-01 1.110899209976196289e+00
1.458000000000000000e+03 1.395530033111572266e+01 1.093936157226562500e+01 7.812154293060302734e-01 6.304622650146484375e+00 2.125751495361328125e+00 -1.628797650337219238e+00
1.459000000000000000e+03 4.442084312438964844e+00 -2.483985900878906250e+01 5.285748839378356934e-01 6.198127746582031250e+00 2.018010854721069336e+00 2.085648536682128906e+00
1.460000000000000000e+03 5.171728134155273438e+01 1.422578454017639160e+00 -3.391978740692138672e+00 2.542316615581512451e-01 -9.413241147994995117e-01 6.791213154792785645e-01
1.461000000000000000e+03 5.234719085693359375e+01 5.426318645477294922e+00 -5.993510037660598755e-02 6.559815406799316406e-01 1.788139343261718750e-01 3.083767592906951904e-01
1.462000000000000000e+03 2.790150642395019531e+01 -1.601984977722167969e+01 -1.855644822120666504e+00 1.535145286470651627e-02 -5.520880222320556641e-01 -2.668304741382598877e-01
1.463000000000000000e+03 2.693998718261718750e+01 -1.619822883605957031e+01 -2.395043373107910156e+00 -5.606348812580108643e-02 -7.353320717811584473e-01 -2.162074595689773560e-01
1.464000000000000000e+03 4.217225265502929688e+01 7.967546939849853516e+00 1.729391932487487793e+00 8.736098289489746094e+00 3.139647245407104492e+00 3.328855037689208984e+00
1.465000000000000000e+03 9.915404319763183594e+00 -3.208671951293945312e+01 -1.902718901634216309e+00 -6.273438334465026855e-01 -7.590188384056091309e-01 5.767787098884582520e-01
1.466000000000000000e+03 1.571455097198486328e+01 1.400925755500793457e+00 4.831401705741882324e-01 9.320728302001953125e+00 2.941160440444946289e+00 -4.043936252593994141e+00
1.467000000000000000e+03 1.370991039276123047e+01 2.898750686645507812e+01 -3.744750618934631348e-01 4.205930709838867188e+00 1.149436712265014648e+00 -6.304352283477783203e-01
1.468000000000000000e+03 3.683323287963867188e+01 3.429832458496093750e-01 -2.553298771381378174e-01 5.058360576629638672e+00 1.440909266471862793e+00 1.533082485198974609e+00
1.469000000000000000e+03 5.425199508666992188e+01 6.795477867126464844e-01 -3.204933881759643555e+00 8.524380624294281006e-02 -9.359070658683776855e-01 6.402723789215087891e-01
1.470000000000000000e+03 1.571701240539550781e+01 9.100059509277343750e+00 5.841490626335144043e-01 6.935326576232910156e+00 2.255842685699462891e+00 -1.957890987396240234e+00
1.471000000000000000e+03 1.554827404022216797e+01 7.373279571533203125e+00 4.895801842212677002e-02 6.546454906463623047e+00 1.978623867034912109e+00 -1.838712811470031738e+00
1.472000000000000000e+03 1.987369346618652344e+01 -1.846602320671081543e+00 5.788512229919433594e+00 3.461307764053344727e+00 2.774945974349975586e+00 -2.416430711746215820e+00
1.473000000000000000e+03 4.404658508300781250e+01 1.540913581848144531e+01 1.058954358100891113e+00 6.644279003143310547e+00 2.310970067977905273e+00 1.943740844726562500e+00
1.474000000000000000e+03 4.542417144775390625e+01 1.831461524963378906e+01 8.306000828742980957e-01 5.523561000823974609e+00 1.906248331069946289e+00 1.590784192085266113e+00
1.475000000000000000e+03 3.806063079833984375e+01 -1.239764022827148438e+01 7.301162481307983398e-01 1.012916660308837891e+01 3.257785081863403320e+00 -6.450777649879455566e-01
1.476000000000000000e+03 3.231661987304687500e+01 4.159643173217773438e+01 -1.947877645492553711e+00 -5.171652436256408691e-01 -7.395128607749938965e-01 7.146307826042175293e-02
1.477000000000000000e+03 1.350320720672607422e+01 1.504897975921630859e+01 9.599621891975402832e-01 7.088262081146240234e+00 2.414467334747314453e+00 -1.468330264091491699e+00
1.478000000000000000e+03 1.409230422973632812e+01 1.818956756591796875e+01 9.051852822303771973e-01 8.372654914855957031e+00 2.783352136611938477e+00 -1.367653250694274902e+00
1.479000000000000000e+03 7.142716979980468750e+01 -9.860671043395996094e+00 1.193562299013137817e-01 9.722520828247070312e+00 2.952563047409057617e+00 3.494486212730407715e-02
1.480000000000000000e+03 2.316984176635742188e+01 4.119234085083007812e+01 -1.762587547302246094e+00 -1.024073883891105652e-01 -5.594984889030456543e-01 -6.904673576354980469e-02
1.481000000000000000e+03 6.585479736328125000e+01 -3.337876129150390625e+01 -1.024265170097351074e+00 3.537595033645629883e+00 7.539989948272705078e-01 1.082039952278137207e+00
1.482000000000000000e+03 2.960556030273437500e+01 -4.789781093597412109e+00 3.804086685180664062e+00 2.921692430973052979e-01 1.228876829147338867e+00 -1.941319108009338379e+00
1.483000000000000000e+03 2.821179008483886719e+01 -3.557799339294433594e+00 4.148261547088623047e+00 4.200450479984283447e-01 1.370491981506347656e+00 -1.893793821334838867e+00
1.484000000000000000e+03 6.766540527343750000e+01 -3.028821563720703125e+01 -6.549617648124694824e-01 6.070361137390136719e+00 1.624619841575622559e+00 1.125462055206298828e+00
1.485000000000000000e+03 1.944108772277832031e+01 -3.469409179687500000e+01 -1.272231340408325195e+00 -2.034358233213424683e-01 -4.427001476287841797e-01 2.965572774410247803e-01
1.486000000000000000e+03 3.327660751342773438e+01 -2.026850938796997070e+00 1.126534700393676758e+00 2.884569764137268066e-01 4.244974851608276367e-01 -1.048170998692512512e-01
1.487000000000000000e+03 5.260319709777832031e+00 -2.136497879028320312e+01 1.488247990608215332e+00 8.378525733947753906e+00 2.960031986236572266e+00 1.950004339218139648e+00
1.488000000000000000e+03 6.175607204437255859e+00 -1.919453430175781250e+01 1.980951786041259766e+00 8.496240615844726562e+00 3.143157958984375000e+00 2.849450588226318359e+00
1.489000000000000000e+03 5.394646644592285156e+00 -1.768905258178710938e+01 9.713108539581298828e-01 5.671258926391601562e+00 1.992771029472351074e+00 8.061383366584777832e-01
1.490000000000000000e+03 3.257746124267578125e+01 -4.794681549072265625e+00 3.191906213760375977e+00 1.058996677398681641e+00 1.275270819664001465e+00 -8.360971808433532715e-01
1.491000000000000000e+03 4.304494857788085938e+01 3.993866920471191406e+00 -7.611971497535705566e-01 7.535954475402832031e+00 2.032427310943603516e+00 2.892950057983398438e+00
1.492000000000000000e+03 4.105066299438476562e+01 5.320797443389892578e+00 7.287864089012145996e-01 9.642918586730957031e+00 3.111511468887329102e+00 3.033108472824096680e+00
1.493000000000000000e+03 4.308472442626953125e+01 -2.241835403442382812e+01 8.047431111335754395e-01 4.791198253631591797e+00 1.678782343864440918e+00 -1.358550667762756348e+00
1.494000000000000000e+03 1.513014221191406250e+01 3.219289779663085938e+01 -8.896719813346862793e-01 2.842016935348510742e+00 5.857034921646118164e-01 -3.500282764434814453e-01
1.495000000000000000e+03 1.273788738250732422e+01 1.813184547424316406e+01 9.769712090492248535e-01 6.704650878906250000e+00 2.304486751556396484e+00 -1.245787143707275391e+00
1.496000000000000000e+03 1.673348617553710938e+01 -1.322748851776123047e+01 -1.257852911949157715e+00 6.252121925354003906e-01 -1.897922307252883911e-01 7.824934124946594238e-01
1.497000000000000000e+03 1.600708770751953125e+01 -1.406815528869628906e+01 -1.852380275726318359e+00 1.235734298825263977e-01 -5.186420679092407227e-01 8.939977288246154785e-01
1.498000000000000000e+03 3.900356531143188477e+00 -2.154355239868164062e+01 1.176297187805175781e+00 5.583322048187255859e+00 2.027885913848876953e+00 1.505433797836303711e+00
1.499000000000000000e+03 7.083678436279296875e+01 -1.423051166534423828e+01 1.264666795730590820e+00 1.212636184692382812e+01 4.017308712005615234e+00 -6.712219119071960449e-01
1.500000000000000000e+03 3.662413024902343750e+01 4.131834793090820312e+01 -1.640472531318664551e+00 4.252427518367767334e-01 -3.645689487457275391e-01 4.183964431285858154e-02
1.501000000000000000e+03 3.614707946777343750e+01 3.688858795166015625e+01 -1.866761565208435059e+00 -1.268695741891860962e-01 -5.980893373489379883e-01 4.817155599594116211e-01
1.502000000000000000e+03 4.408332061767578125e+01 1.686494827270507812e+01 8.203513026237487793e-01 6.344409942626953125e+00 2.149428367614746094e+00 1.692038655281066895e+00
1.503000000000000000e+03 4.109809875488281250e+01 1.803227186203002930e+00 -1.166347980499267578e+00 9.874379158020019531e+00 2.612409353256225586e+00 1.670161843299865723e+00
1.504000000000000000e+03 6.422980499267578125e+01 -1.069636821746826172e+00 -1.375504016876220703e+00 3.730507373809814453e+00 7.065010070800781250e-01 -1.269185662269592285e+00
1.505000000000000000e+03 4.199179458618164062e+01 -2.404806900024414062e+01 9.828836917877197266e-01 5.660404205322265625e+00 1.992986440658569336e+00 -1.201536536216735840e+00
1.506000000000000000e+03 4.411196899414062500e+01 2.859895133972167969e+01 1.274870932102203369e-01 3.987692117691040039e+00 1.234553694725036621e+00 4.393946230411529541e-01
1.507000000000000000e+03 5.591982269287109375e+01 -3.728279495239257812e+01 -4.016511514782905579e-02 2.853061258792877197e-01 7.354230433702468872e-02 -5.423231720924377441e-01
1.508000000000000000e+03 5.955980300903320312e+01 -3.473584365844726562e+01 -9.039769768714904785e-01 -9.882267564535140991e-02 -3.008399009704589844e-01 -2.508491277694702148e-01
1.509000000000000000e+03 1.314496803283691406e+01 2.574592590332031250e+01 3.056716024875640869e-01 5.402825832366943359e+00 1.712549209594726562e+00 -7.290589809417724609e-01
1.510000000000000000e+03 4.040304183959960938e+01 -2.001914215087890625e+01 4.469583928585052490e-01 9.197194099426269531e+00 2.893245697021484375e+00 1.527936905622482300e-01
1.511000000000000000e+03 2.087552642822265625e+01 -5.569284409284591675e-02 3.904986858367919922e+00 2.292759180068969727e+00 1.859323859214782715e+00 -1.500293612480163574e+00
1.512000000000000000e+03 5.287531661987304688e+01 3.826866626739501953e+00 -1.181966781616210938e+00 4.080065190792083740e-01 -2.321880906820297241e-01 1.533058732748031616e-01
1.513000000000000000e+03 3.181958389282226562e+01 -3.156855583190917969e+01 -1.308342516422271729e-01 3.491273403167724609e+00 1.008131742477416992e+00 1.792474985122680664e+00
1.514000000000000000e+03 3.400764083862304688e+01 -3.406776428222656250e+01 -1.368418335914611816e+00 5.029953479766845703e+00 1.098460435867309570e+00 1.002788543701171875e+00
1.515000000000000000e+03 6.853649139404296875e+01 -3.169049644470214844e+01 -1.122209072113037109e+00 6.931463241577148438e+00 1.742776155471801758e+00 6.007805466651916504e-01
1.516000000000000000e+03 4.240675449371337891e+00 -2.753905487060546875e+01 -8.872424960136413574e-01 5.212717056274414062e+00 1.297642350196838379e+00 1.941486477851867676e+00
1.517000000000000000e+03 3.711267089843750000e+01 -2.945833969116210938e+01 1.227079331874847412e-02 7.711308956146240234e+00 2.317074060440063477e+00 1.686181686818599701e-02
1.518000000000000000e+03 5.735769653320312500e+01 1.211367845535278320e+00 -2.227270841598510742e+00 1.577931940555572510e-01 -6.208432912826538086e-01 -3.796038776636123657e-02
1.519000000000000000e+03 5.604560852050781250e+01 1.563120603561401367e+00 -2.268995761871337891e+00 1.533887386322021484e-01 -6.346820592880249023e-01 1.640111654996871948e-01
1.520000000000000000e+03 3.995363235473632812e+01 -2.276642799377441406e+00 1.043620109558105469e+00 9.915905952453613281e+00 3.287857770919799805e+00 2.015942573547363281e+00
1.521000000000000000e+03 3.425154876708984375e+01 -2.821769714355468750e+00 1.889617681503295898e+00 1.612411022186279297e+00 1.050608634948730469e+00 3.276337683200836182e-01
1.522000000000000000e+03 6.526271820068359375e+01 -3.510048675537109375e+01 -6.164786815643310547e-01 3.010965824127197266e+00 7.183461785316467285e-01 7.425782680511474609e-01
1.523000000000000000e+03 5.401544952392578125e+01 -3.570920562744140625e+01 -4.148175120353698730e-01 7.080615758895874023e-01 8.797322213649749756e-02 -5.358309149742126465e-01
1.524000000000000000e+03 3.362480163574218750e+01 -1.575444602966308594e+01 -8.265102505683898926e-01 4.596190929412841797e+00 1.130904078483581543e+00 -2.008356332778930664e+00
1.525000000000000000e+03 3.549670410156250000e+01 -1.778543663024902344e+01 -1.519360899925231934e+00 9.156384468078613281e+00 2.291106939315795898e+00 -5.538793802261352539e-01
1.526000000000000000e+03 3.009796905517578125e+01 -3.511320114135742188e+01 -8.632755279541015625e-01 2.440968275070190430e+00 4.733078181743621826e-01 1.247176051139831543e+00
1.527000000000000000e+03 4.688943481445312500e+01 3.053092002868652344e+00 -9.398372173309326172e-01 6.529118418693542480e-01 -8.607760816812515259e-02 2.357432365417480469e+00
1.528000000000000000e+03 3.151143074035644531e+01 -3.400848770141601562e+01 -8.581219315528869629e-01 3.115624427795410156e+00 6.772507429122924805e-01 1.423817634582519531e+00
1.529000000000000000e+03 4.065778732299804688e+01 5.095329284667968750e-01 -4.854792952537536621e-01 9.983300209045410156e+00 2.849346399307250977e+00 1.574598193168640137e+00
1.530000000000000000e+03 7.190684509277343750e+01 -2.648649406433105469e+01 7.159920334815979004e-01 1.037643718719482422e+01 3.327728748321533203e+00 -7.576726078987121582e-01
1.531000000000000000e+03 3.106842613220214844e+01 -1.576559543609619141e+01 -8.646538257598876953e-01 4.374972879886627197e-01 -1.281469613313674927e-01 -9.953228235244750977e-01
1.532000000000000000e+03 2.386111450195312500e+01 -4.257774353027343750e+00 4.496890544891357422e+00 1.042604207992553711e+00 1.661848425865173340e+00 -1.771382212638854980e+00
1.533000000000000000e+03 6.274976348876953125e+01 -5.822564959526062012e-01 -1.541691899299621582e+00 2.288662672042846680e+00 2.240912318229675293e-01 -1.170454382896423340e+00
1.534000000000000000e+03 7.167676544189453125e+01 -2.871039009094238281e+01 -2.879578769207000732e-01 9.612613677978515625e+00 2.797396659851074219e+00 -8.074558973312377930e-01
1.535000000000000000e+03 4.291149520874023438e+01 3.495135116577148438e+01 -1.280242085456848145e+00 2.828564643859863281e+00 4.644967317581176758e-01 2.728484869003295898e-01
1.536000000000000000e+03 3.651945495605468750e+01 -1.930191802978515625e+01 6.882686913013458252e-02 1.179116058349609375e+01 3.557996273040771484e+00 6.450817584991455078e-01
1.537000000000000000e+03 4.078226470947265625e+01 -1.909267616271972656e+01 2.364552766084671021e-01 9.580427169799804688e+00 2.945064544677734375e+00 -2.257094718515872955e-02
1.538000000000000000e+03 6.436315917968750000e+01 3.610884547233581543e-01 -1.322393178939819336e+00 3.818746328353881836e+00 7.489058971405029297e-01 -1.358571887016296387e+00
1.539000000000000000e+03 6.136112213134765625e+01 -8.576109260320663452e-02 -1.744904041290283203e+00 1.315401911735534668e+00 -1.288506537675857544e-01 -8.464620113372802734e-01
1.540000000000000000e+03 7.085387229919433594e+00 -1.675505065917968750e+01 7.720764875411987305e-01 6.221131801605224609e+00 2.097962617874145508e+00 1.724273562431335449e+00
1.541000000000000000e+03 3.041447830200195312e+01 -1.400827026367187500e+01 5.103399157524108887e-01 6.702412962913513184e-01 3.541743457317352295e-01 -1.219311833381652832e+00
1.542000000000000000e+03 2.964436912536621094e+01 -1.613510322570800781e+01 -1.819376587867736816e+00 -1.851374655961990356e-02 -5.513671040534973145e-01 -3.918335735797882080e-01
1.543000000000000000e+03 3.901260375976562500e+01 -1.862969779968261719e+01 2.222549319267272949e-01 1.044344425201416016e+01 3.199709892272949219e+00 6.979313492774963379e-01
1.544000000000000000e+03 3.647671127319335938e+01 -2.049047088623046875e+01 1.307972311973571777e+00 1.172284984588623047e+01 3.909246444702148438e+00 6.452475190162658691e-01
1.545000000000000000e+03 3.824036026000976562e+01 -2.878005790710449219e+01 9.758508950471878052e-02 7.849816322326660156e+00 2.384220361709594727e+00 -6.169611215591430664e-01
1.546000000000000000e+03 3.843416595458984375e+01 -2.658075904846191406e+01 1.494337558746337891e+00 8.674072265625000000e+00 3.050523042678833008e+00 -4.842458069324493408e-01
1.547000000000000000e+03 4.168506622314453125e+01 4.591526508331298828e+00 -1.180565506219863892e-01 9.138296127319335938e+00 2.706071853637695312e+00 2.655795097351074219e+00
1.548000000000000000e+03 6.707241058349609375e+01 -4.089466094970703125e+00 -4.055561423301696777e-01 6.280470371246337891e+00 1.762474179267883301e+00 -9.528319239616394043e-01
1.549000000000000000e+03 1.161565399169921875e+01 -1.502163219451904297e+01 -1.001283526420593262e+00 4.952761232852935791e-01 -1.518022418022155762e-01 2.552382946014404297e+00
1.550000000000000000e+03 1.314332580566406250e+01 -1.398623275756835938e+01 -1.000344872474670410e+00 -2.791246166452765465e-03 -3.009408116340637207e-01 2.198109388351440430e+00
1.551000000000000000e+03 1.888162231445312500e+01 3.508957672119140625e+01 -1.362534403800964355e+00 8.412158489227294922e-01 -1.563955545425415039e-01 -2.530197501182556152e-01
1.552000000000000000e+03 1.730298042297363281e+01 3.574617385864257812e+01 -1.407266139984130859e+00 1.639001011848449707e+00 6.952045857906341553e-02 -2.035768032073974609e-01
1.553000000000000000e+03 1.275511455535888672e+01 2.122076034545898438e+01 6.187846064567565918e-01 6.649349689483642578e+00 2.180440425872802734e+00 -1.014419555664062500e+00
1.554000000000000000e+03 5.809954833984375000e+01 -3.423738098144531250e+01 -1.271797060966491699e+00 -2.923769354820251465e-01 -4.692521989345550537e-01 -3.360861241817474365e-01
1.555000000000000000e+03 6.575129032135009766e+00 -1.796180725097656250e+01 2.201570510864257812e+00 7.118617534637451172e+00 2.796056270599365234e+00 2.187026262283325195e+00
1.556000000000000000e+03 5.546728134155273438e+00 -1.477906703948974609e+01 -4.212934970855712891e-01 4.234055995941162109e+00 1.143828749656677246e+00 6.617320775985717773e-01
1.557000000000000000e+03 7.970257282257080078e+00 -3.256106948852539062e+01 -1.321045279502868652e+00 9.083390831947326660e-01 -1.238118857145309448e-01 8.065337315201759338e-03
1.558000000000000000e+03 9.303760528564453125e+00 -3.343189620971679688e+01 -1.119731664657592773e+00 2.409704923629760742e-01 -2.636283636093139648e-01 1.656172424554824829e-01
1.559000000000000000e+03 2.664752006530761719e+01 -3.621136188507080078e+00 4.312960147857666016e+00 1.237900257110595703e+00 1.665258169174194336e+00 -1.907433748245239258e+00
1.560000000000000000e+03 6.622161102294921875e+01 -2.683589935302734375e+00 -9.334080219268798828e-01 5.435389041900634766e+00 1.350594282150268555e+00 -1.016672849655151367e+00
1.561000000000000000e+03 4.662413120269775391e+00 -2.611018180847167969e+01 -5.632651969790458679e-02 5.865514755249023438e+00 1.742756485939025879e+00 1.975143313407897949e+00
1.562000000000000000e+03 4.819182205200195312e+01 3.732438802719116211e+00 -7.751364111900329590e-01 1.846702247858047485e-01 -1.771398633718490601e-01 1.277020335197448730e+00
1.563000000000000000e+03 1.640952301025390625e+01 1.975474357604980469e+00 -1.635817140340805054e-01 9.912825584411621094e+00 2.924773216247558594e+00 -2.431810617446899414e+00
1.564000000000000000e+03 1.451649475097656250e+01 -2.755550146102905273e+00 4.496601581573486328e+00 3.205628395080566406e+00 2.310668945312500000e+00 3.360568523406982422e+00
1.565000000000000000e+03 1.472042179107666016e+01 -3.037906646728515625e+00 4.002088546752929688e+00 4.155207633972167969e+00 2.447188854217529297e+00 3.393173456192016602e+00
1.566000000000000000e+03 1.710171508789062500e+01 4.520498752593994141e+00 -9.817171692848205566e-01 7.572296142578125000e+00 1.977173686027526855e+00 -1.719830155372619629e+00
1.567000000000000000e+03 1.532951641082763672e+01 1.724850535392761230e+00 5.188307762145996094e-01 7.748201847076416016e+00 2.480109930038452148e+00 -4.094307422637939453e+00
1.568000000000000000e+03 1.316369152069091797e+01 2.228332757949829102e+00 6.511363983154296875e-01 2.441118717193603516e+00 9.276765584945678711e-01 -2.340008258819580078e+00
1.569000000000000000e+03 1.335918235778808594e+01 1.627737402915954590e+00 8.019351363182067871e-01 2.059647560119628906e+00 8.584748506546020508e-01 -2.350723505020141602e+00
1.570000000000000000e+03 1.755585289001464844e+01 1.086138486862182617e+00 1.973583936691284180e+00 1.016321182250976562e+01 3.641038656234741211e+00 -1.097916159778833389e-02
1.571000000000000000e+03 1.814388275146484375e+01 3.788176774978637695e+00 -8.562610149383544922e-01 7.493092060089111328e+00 1.991049289703369141e+00 -1.058836221694946289e+00
1.572000000000000000e+03 1.896567916870117188e+01 5.651972889900207520e-01 4.066188335418701172e+00 6.203451156616210938e+00 3.080891847610473633e+00 -5.011700466275215149e-02
1.573000000000000000e+03 8.822885513305664062e+00 -3.934731483459472656e+00 1.231484413146972656e+00 2.672071158885955811e-01 4.496074616909027100e-01 9.549953341484069824e-01
1.574000000000000000e+03 1.017679786682128906e+01 -3.794728517532348633e+00 1.751737713813781738e+00 2.885717451572418213e-01 6.120928525924682617e-01 1.193942308425903320e+00
1.575000000000000000e+03 1.174841403961181641e+01 2.893671035766601562e+00 3.536293506622314453e-01 1.587961196899414062e+00 5.824771523475646973e-01 -1.357240796089172363e+00
1.576000000000000000e+03 1.077825355529785156e+01 -3.782534360885620117e+00 2.019487142562866211e+00 3.491145074367523193e-01 7.105804681777954102e-01 1.341105580329895020e+00
1.577000000000000000e+03 7.952378749847412109e+00 -3.339347124099731445e+00 9.095669984817504883e-01 1.708765774965286255e-01 3.241330683231353760e-01 6.286181807518005371e-01
1.578000000000000000e+03 1.024414062500000000e+01 -4.399227142333984375e+00 1.758696794509887695e+00 4.417878091335296631e-01 6.601454019546508789e-01 1.452831983566284180e+00
1.579000000000000000e+03 3.533366918563842773e+00 7.689694881439208984e+00 1.500301808118820190e-01 -3.294985294342041016e-01 -5.384050309658050537e-02 4.410426020622253418e-01
1.580000000000000000e+03 7.077527999877929688e+00 4.849819183349609375e+00 1.674315333366394043e-01 5.015596151351928711e-01 2.006973326206207275e-01 3.238839209079742432e-01
1.581000000000000000e+03 7.908228397369384766e+00 4.008383750915527344e+00 4.878824576735496521e-02 5.097207427024841309e-01 1.675527095794677734e-01 2.017149776220321655e-01
1.582000000000000000e+03 4.506395339965820312e+00 6.307930946350097656e+00 1.652422249317169189e-01 -2.661694586277008057e-02 4.158758372068405151e-02 5.286684632301330566e-01
1.583000000000000000e+03 3.923740863800048828e+00 4.498956203460693359e+00 -3.026695549488067627e-02 -1.851055026054382324e-01 -6.461174041032791138e-02 5.940369367599487305e-01
1.584000000000000000e+03 1.029716300964355469e+01 3.047191858291625977e+00 8.859813213348388672e-02 8.383994698524475098e-01 2.780992686748504639e-01 -5.411482453346252441e-01
1.585000000000000000e+03 8.685681343078613281e+00 3.934599161148071289e+00 1.100816354155540466e-01 6.782015562057495117e-01 2.364849597215652466e-01 -1.757400482892990112e-02
1.586000000000000000e+03 3.590402364730834961e+00 3.790969610214233398e+00 -1.002176553010940552e-01 -1.966904997825622559e-01 -8.907244354486465454e-02 5.682731270790100098e-01
1.587000000000000000e+03 1.093871879577636719e+01 3.664474010467529297e+00 3.373855054378509521e-01 1.499368190765380859e+00 5.510261058807373047e-01 -9.822407960891723633e-01
1.588000000000000000e+03 2.164479494094848633e+00 4.342268943786621094e+00 -1.872936636209487915e-02 -4.597935080528259277e-01 -1.435568630695343018e-01 4.601271748542785645e-01
1.589000000000000000e+03 7.322629928588867188e+00 -4.215001583099365234e+00 8.068457245826721191e-01 3.133751451969146729e-01 3.360662758350372314e-01 7.613081336021423340e-01
1.590000000000000000e+03 4.686662673950195312e+00 -3.867339611053466797e+00 3.108856379985809326e-01 2.262841612100601196e-01 1.611509323120117188e-01 2.973942756652832031e-01
1.591000000000000000e+03 6.527091979980468750e+00 -4.407071113586425781e+00 6.268968582153320312e-01 3.319160938262939453e-01 2.876438796520233154e-01 6.578204035758972168e-01
1.592000000000000000e+03 3.923011541366577148e+00 -5.031046390533447266e+00 2.229747623205184937e-01 3.436988592147827148e-01 1.700020879507064819e-01 3.393934667110443115e-01
1.593000000000000000e+03 4.015640258789062500e+00 -6.227045059204101562e+00 1.789208501577377319e-01 5.572716593742370605e-01 2.208577543497085571e-01 4.744140803813934326e-01
1.594000000000000000e+03 2.846101522445678711e+00 -6.180885791778564453e+00 9.172207862138748169e-02 4.040108621120452881e-01 1.487198770046234131e-01 2.818347215652465820e-01
1.595000000000000000e+03 1.853914260864257812e+01 -2.632206678390502930e+00 5.409446716308593750e+00 6.311536788940429688e+00 3.516295194625854492e+00 -2.969910144805908203e+00
1.596000000000000000e+03 1.798006629943847656e+01 -2.696661949157714844e+00 4.785210609436035156e+00 7.858601093292236328e+00 3.793143510818481445e+00 -2.637603044509887695e+00
1.597000000000000000e+03 8.631422042846679688e+00 4.683017253875732422e+00 2.645660340785980225e-01 9.165181517601013184e-01 3.543252646923065186e-01 -7.836346328258514404e-02
1.598000000000000000e+03 1.833169937133789062e+01 -1.520321965217590332e+00 7.346131801605224609e+00 6.400768756866455078e+00 4.124070167541503906e+00 -2.356183290481567383e+00
1.599000000000000000e+03 1.922671318054199219e+01 -2.466477870941162109e+00 5.670850753784179688e+00 4.630098819732666016e+00 3.090284824371337891e+00 -2.830152988433837891e+00
1.600000000000000000e+03 1.967241668701171875e+01 1.606859922409057617e+00 1.688346028327941895e+00 5.005805015563964844e+00 2.008245229721069336e+00 -3.824599385261535645e-01
1.601000000000000000e+03 1.964749145507812500e+01 -1.455757713317871094e+01 -1.999364256858825684e+00 7.099864482879638672e-01 -3.868133127689361572e-01 1.909292489290237427e-01
1.602000000000000000e+03 2.220603179931640625e+01 -1.623575973510742188e+01 -2.586681127548217773e+00 5.171833038330078125e-01 -6.208493113517761230e-01 6.849751621484756470e-02
1.603000000000000000e+03 3.919996261596679688e+01 -6.485110759735107422e+00 1.862417340278625488e+00 1.083759593963623047e+01 3.810003995895385742e+00 1.249906301498413086e+00
1.604000000000000000e+03 3.905166244506835938e+01 -7.929072856903076172e+00 1.862224221229553223e+00 1.097370243072509766e+01 3.850778102874755859e+00 6.552242636680603027e-01
1.605000000000000000e+03 2.094102668762207031e+01 -1.551686668395996094e+01 -2.367814540863037109e+00 6.796968579292297363e-01 -5.064352750778198242e-01 1.552983820438385010e-01
1.606000000000000000e+03 2.600530433654785156e+01 -1.607537269592285156e+01 -2.192760467529296875e+00 2.488185167312622070e-01 -5.831825733184814453e-01 -2.755239903926849365e-01
1.607000000000000000e+03 5.915509796142578125e+01 1.948225378990173340e+00 -1.455101728439331055e+00 7.754868865013122559e-01 -2.038844525814056396e-01 -6.526872515678405762e-01
1.608000000000000000e+03 1.760257148742675781e+01 -1.378433704376220703e+01 -1.686600208282470703e+00 6.335639357566833496e-01 -3.159108757972717285e-01 5.005261301994323730e-01
1.609000000000000000e+03 3.605016326904296875e+01 -1.518629264831542969e+01 -5.639424324035644531e-01 8.291999816894531250e+00 2.318417072296142578e+00 -9.832063913345336914e-01
1.610000000000000000e+03 3.903452682495117188e+01 -1.084057044982910156e+01 9.788712859153747559e-01 1.158696269989013672e+01 3.769750118255615234e+00 -2.370546162128448486e-01
1.611000000000000000e+03 3.816694259643554688e+01 -1.382549285888671875e+01 4.374206662178039551e-01 1.023546695709228516e+01 3.201866149902343750e+00 -6.760761141777038574e-01
1.612000000000000000e+03 2.881575012207031250e+01 -1.587552642822265625e+01 -1.853754639625549316e+00 -1.666831970214843750e-01 -6.061313152313232422e-01 -5.859481692314147949e-01
1.613000000000000000e+03 2.611338043212890625e+01 -3.638421630859375000e+01 -6.524115800857543945e-01 8.307130336761474609e-01 5.349043011665344238e-02 4.896341860294342041e-01
1.614000000000000000e+03 5.039776229858398438e+01 -3.354427719116210938e+01 -3.980000019073486328e-01 1.642247438430786133e+00 3.732742369174957275e-01 -7.360467314720153809e-01
1.615000000000000000e+03 5.190124511718750000e+01 -3.315774917602539062e+01 -4.005531072616577148e-01 1.155089616775512695e+00 2.263609468936920166e-01 -5.778781771659851074e-01
1.616000000000000000e+03 1.081593227386474609e+01 -1.268187332153320312e+01 -5.924956202507019043e-01 1.727009415626525879e+00 3.403541445732116699e-01 3.028728723526000977e+00
1.617000000000000000e+03 1.526049041748046875e+01 -1.493758964538574219e+01 -2.561406850814819336e+00 -3.304325640201568604e-01 -8.675518035888671875e-01 1.050058007240295410e+00
1.618000000000000000e+03 5.476066207885742188e+01 1.897246718406677246e+00 -2.369416475296020508e+00 2.236613631248474121e-01 -6.437265276908874512e-01 2.973206341266632080e-01
1.619000000000000000e+03 6.763832569122314453e+00 1.559705734252929688e+01 5.649592280387878418e-01 1.941967368125915527e+00 7.520779371261596680e-01 -5.719047188758850098e-01
1.620000000000000000e+03 3.856504058837890625e+01 -2.266539096832275391e+00 8.789024949073791504e-01 8.121000289916992188e+00 2.699970960617065430e+00 1.581979990005493164e+00
1.621000000000000000e+03 4.545018005371093750e+01 -2.784321212768554688e+01 4.376643002033233643e-01 2.845730543136596680e+00 9.850184917449951172e-01 -1.430897355079650879e+00
1.622000000000000000e+03 7.185665893554687500e+01 -2.334325599670410156e+01 7.560250759124755859e-01 1.145576572418212891e+01 3.663537263870239258e+00 -3.427177667617797852e-01
1.623000000000000000e+03 4.526680374145507812e+01 2.112505531311035156e+01 4.718681573867797852e-01 5.168810844421386719e+00 1.692203640937805176e+00 1.088393330574035645e+00
1.624000000000000000e+03 4.515398025512695312e+01 2.520601081848144531e+01 2.877854704856872559e-01 4.560238361358642578e+00 1.454407215118408203e+00 6.248614192008972168e-01
1.625000000000000000e+03 4.505565261840820312e+01 -2.469019508361816406e+01 8.273882269859313965e-01 2.719024658203125000e+00 1.063923835754394531e+00 -1.295080661773681641e+00
1.626000000000000000e+03 1.523063087463378906e+01 1.969658660888671875e+01 2.447979301214218140e-01 9.925562858581542969e+00 3.051108360290527344e+00 -7.366552352905273438e-01
1.627000000000000000e+03 4.025990295410156250e+01 -8.573657274246215820e-01 2.862272858619689941e-01 1.003874492645263672e+01 3.097491741180419922e+00 1.672768354415893555e+00
1.628000000000000000e+03 4.396494674682617188e+01 -2.545683097839355469e+01 7.982046008110046387e-01 3.843653440475463867e+00 1.392557382583618164e+00 -1.504707813262939453e+00
1.629000000000000000e+03 7.129323577880859375e+01 -1.969367790222167969e+01 3.408254086971282959e-01 1.273243999481201172e+01 3.921979665756225586e+00 -4.075906872749328613e-01
1.630000000000000000e+03 7.368924713134765625e+01 -1.909648132324218750e+01 5.475998520851135254e-01 1.025403594970703125e+01 3.240490913391113281e+00 -4.927783608436584473e-01
1.631000000000000000e+03 7.139323425292968750e+01 -2.097020912170410156e+01 5.007342100143432617e-01 1.243586254119873047e+01 3.880979061126708984e+00 -1.154029220342636108e-01
1.632000000000000000e+03 7.270459747314453125e+01 -2.177158737182617188e+01 5.747022628784179688e-01 1.106896591186523438e+01 3.493100404739379883e+00 -4.087925851345062256e-01
1.633000000000000000e+03 4.311919021606445312e+01 -2.443213653564453125e+01 8.725175857543945312e-01 4.640461444854736328e+00 1.653893709182739258e+00 -1.419916510581970215e+00
1.634000000000000000e+03 7.549582672119140625e+01 1.490705013275146484e+01 6.672563403844833374e-02 6.783067703247070312e+00 2.054937839508056641e+00 -4.590047597885131836e-01
1.635000000000000000e+03 7.555602264404296875e+01 1.105967402458190918e+00 -2.961317598819732666e-01 7.965794086456298828e+00 2.300898790359497070e+00 -2.442059107124805450e-02
1.636000000000000000e+03 7.579572296142578125e+01 -1.456219482421875000e+01 4.197168648242950439e-01 8.200162887573242188e+00 2.585963964462280273e+00 3.270781040191650391e-01
1.637000000000000000e+03 7.385082244873046875e+01 -1.004934787750244141e+01 1.397845447063446045e-01 8.930194854736328125e+00 2.720993757247924805e+00 6.554409265518188477e-01
1.638000000000000000e+03 7.340671539306640625e+01 -1.502459239959716797e+01 8.547061085700988770e-01 9.976407051086425781e+00 3.249333858489990234e+00 -6.172893103212118149e-03
1.639000000000000000e+03 7.608551025390625000e+01 -2.137254524230957031e+01 2.944632768630981445e-01 8.367265701293945312e+00 2.598518610000610352e+00 -6.276842355728149414e-01
1.640000000000000000e+03 7.574975585937500000e+01 -1.315257644653320312e+01 3.382874131202697754e-01 8.183807373046875000e+00 2.556628227233886719e+00 5.122143626213073730e-01
1.641000000000000000e+03 7.713624572753906250e+01 -1.850821876525878906e+01 2.045458853244781494e-01 7.352245330810546875e+00 2.267037391662597656e+00 -1.917312443256378174e-01
1.642000000000000000e+03 7.360675811767578125e+01 -1.778649711608886719e+01 6.682948470115661621e-01 1.025383949279785156e+01 3.276640415191650391e+00 -3.633359074592590332e-01
1.643000000000000000e+03 7.708492279052734375e+01 -1.714196395874023438e+01 2.393497079610824585e-01 7.305508613586425781e+00 2.263457536697387695e+00 -4.332382977008819580e-02
1.644000000000000000e+03 7.676195526123046875e+01 -6.013662815093994141e+00 -1.215140670537948608e-01 8.068635940551757812e+00 2.384136676788330078e+00 6.396894454956054688e-01
1.645000000000000000e+03 7.542861175537109375e+01 -6.179021835327148438e+00 -1.796384602785110474e-01 8.213630676269531250e+00 2.410197496414184570e+00 6.932360529899597168e-01
1.646000000000000000e+03 7.549077606201171875e+01 -3.212005853652954102e+00 -2.913501858711242676e-01 8.126819610595703125e+00 2.350640773773193359e+00 4.274054169654846191e-01
1.647000000000000000e+03 7.550205993652343750e+01 -4.659471511840820312e+00 -2.702569663524627686e-01 8.176250457763671875e+00 2.371798276901245117e+00 5.641127824783325195e-01
1.648000000000000000e+03 7.546757507324218750e+01 -1.769549846649169922e+00 -3.063411712646484375e-01 8.090123176574707031e+00 2.335134744644165039e+00 2.805713117122650146e-01
1.649000000000000000e+03 7.680552673339843750e+01 2.551022291183471680e+00 -1.530037522315979004e-01 8.192547798156738281e+00 2.411863088607788086e+00 -9.097391366958618164e-02
1.650000000000000000e+03 7.557142639160156250e+01 2.534229278564453125e+00 -2.456133663654327393e-01 7.875075817108154297e+00 2.288838624954223633e+00 -1.694850921630859375e-01
1.651000000000000000e+03 7.549147033691406250e+01 8.084156036376953125e+00 -7.500213384628295898e-02 7.380499839782714844e+00 2.191649436950683594e+00 -4.959424734115600586e-01
1.652000000000000000e+03 7.204124450683593750e+01 3.353202056884765625e+01 1.536687836050987244e-02 5.932892799377441406e+00 1.784477949142456055e+00 6.128913536667823792e-02
1.653000000000000000e+03 7.422239685058593750e+01 3.184845352172851562e+01 2.804584056138992310e-02 6.152106285095214844e+00 1.854045748710632324e+00 2.959679439663887024e-02
1.654000000000000000e+03 7.554056549072265625e+01 5.331232070922851562e+00 -1.559101343154907227e-01 7.645877361297607422e+00 2.246990203857421875e+00 -3.749727904796600342e-01
1.655000000000000000e+03 7.551685333251953125e+01 6.703794002532958984e+00 -1.255136728286743164e-01 7.513782024383544922e+00 2.216480493545532227e+00 -4.450730681419372559e-01
1.656000000000000000e+03 7.433122253417968750e+01 3.935348510742187500e+00 -2.871859967708587646e-01 7.447516918182373047e+00 2.148099184036254883e+00 -3.883106708526611328e-01
1.657000000000000000e+03 7.677499389648437500e+01 9.516214370727539062e+00 -1.873136870563030243e-02 7.596395969390869141e+00 2.273299455642700195e+00 -3.950577974319458008e-01
1.658000000000000000e+03 7.545974731445312500e+01 1.084968852996826172e+01 9.568348759785294533e-04 7.114346504211425781e+00 2.134591102600097656e+00 -5.313897728919982910e-01
1.659000000000000000e+03 7.690883636474609375e+01 -2.907186317443847656e+01 -9.966896474361419678e-02 8.960904121398925781e+00 2.658370494842529297e+00 -1.095721244812011719e+00
1.660000000000000000e+03 7.599804687500000000e+01 -2.720160675048828125e+01 1.423288583755493164e-01 8.880286216735839844e+00 2.706784486770629883e+00 -1.248348951339721680e+00
1.661000000000000000e+03 7.293060302734375000e+01 -2.281701660156250000e+01 6.873766779899597168e-01 1.052357292175292969e+01 3.363284826278686523e+00 -5.424568653106689453e-01
1.662000000000000000e+03 7.679361724853515625e+01 1.638150405883789062e+01 4.135193303227424622e-02 6.937350273132324219e+00 2.093610763549804688e+00 -3.195946216583251953e-01
1.663000000000000000e+03 7.550468444824218750e+01 1.625817489624023438e+01 8.185829222202301025e-02 6.692928791046142578e+00 2.032436132431030273e+00 -4.172270298004150391e-01
1.664000000000000000e+03 7.539775085449218750e+01 2.170777130126953125e+01 9.527451545000076294e-02 6.410948753356933594e+00 1.951866984367370605e+00 -2.267181277275085449e-01
1.665000000000000000e+03 7.546321868896484375e+01 1.221072864532470703e+01 2.422969043254852295e-02 6.996175289154052734e+00 2.106121540069580078e+00 -5.184697508811950684e-01
1.666000000000000000e+03 7.410244750976562500e+01 1.079644203186035156e+01 -5.316702299751341343e-04 6.760898590087890625e+00 2.028110027313232422e+00 -6.487932801246643066e-01
1.667000000000000000e+03 7.707486724853515625e+01 -2.531365966796875000e+01 1.390859931707382202e-01 8.208954811096191406e+00 2.504412174224853516e+00 -9.433532357215881348e-01
1.668000000000000000e+03 7.536504364013671875e+01 -2.394650459289550781e+01 3.893763124942779541e-01 8.969214439392089844e+00 2.807577371597290039e+00 -9.363265633583068848e-01
1.669000000000000000e+03 7.418302154541015625e+01 1.745626449584960938e+01 1.422666311264038086e-01 6.356636524200439453e+00 1.949671030044555664e+00 -4.398648738861083984e-01
1.670000000000000000e+03 7.549311828613281250e+01 1.760916900634765625e+01 8.693798631429672241e-02 6.605052471160888672e+00 2.007597208023071289e+00 -3.714751303195953369e-01
1.671000000000000000e+03 7.314768218994140625e+01 2.826612663269042969e+01 1.106111630797386169e-01 6.002924919128417969e+00 1.834060907363891602e+00 -4.174561798572540283e-02
1.672000000000000000e+03 7.380091857910156250e+01 2.527957344055175781e+01 1.254471540451049805e-01 6.112191677093505859e+00 1.871291637420654297e+00 -1.280698031187057495e-01
1.673000000000000000e+03 7.489093017578125000e+01 2.706115150451660156e+01 7.659858465194702148e-02 6.236876964569091797e+00 1.894042611122131348e+00 -6.278222054243087769e-02
1.674000000000000000e+03 7.467706298828125000e+01 2.855732917785644531e+01 6.246862560510635376e-02 6.204962253570556641e+00 1.880229353904724121e+00 -3.128189593553543091e-02
1.675000000000000000e+03 7.604483032226562500e+01 3.034724617004394531e+01 2.191673591732978821e-02 6.355477809906005859e+00 1.913218379020690918e+00 3.604342462494969368e-03
1.676000000000000000e+03 7.446749114990234375e+01 3.016490554809570312e+01 5.184646323323249817e-02 6.170548439025878906e+00 1.866718411445617676e+00 -2.335890894755721092e-03
1.677000000000000000e+03 7.412593078613281250e+01 -3.316129302978515625e+01 -5.634326934814453125e-01 8.796031951904296875e+00 2.469779729843139648e+00 -8.206586241722106934e-01
1.678000000000000000e+03 7.487449645996093750e+01 -3.447205734252929688e+01 -5.295280218124389648e-01 9.054350852966308594e+00 2.557446718215942383e+00 -6.917915344238281250e-01
1.679000000000000000e+03 7.627116394042968750e+01 -3.666005325317382812e+01 -3.501162528991699219e-01 9.768931388854980469e+00 2.825644493103027344e+00 -3.215334713459014893e-01
1.680000000000000000e+03 7.492176818847656250e+01 -2.823950767517089844e+01 -6.430527567863464355e-02 9.140856742858886719e+00 2.722965478897094727e+00 -1.364413857460021973e+00
1.681000000000000000e+03 7.681560516357421875e+01 -3.267839050292968750e+01 -1.849632114171981812e-01 9.555435180664062500e+00 2.811141729354858398e+00 -7.615756988525390625e-01
1.682000000000000000e+03 7.385149383544921875e+01 -3.540181732177734375e+01 -5.615752339363098145e-01 8.586406707763671875e+00 2.407449483871459961e+00 -4.764451384544372559e-01
1.683000000000000000e+03 7.622625732421875000e+01 -3.520207214355468750e+01 -3.463385701179504395e-01 9.676573753356933594e+00 2.799070596694946289e+00 -5.400531888008117676e-01
1.684000000000000000e+03 2.828732109069824219e+01 -4.904760837554931641e+00 3.698668003082275391e+00 6.231798529624938965e-01 1.296554327011108398e+00 -2.117774009704589844e+00
1.685000000000000000e+03 4.475613021850585938e+01 1.160941028594970703e+01 1.726529121398925781e+00 6.099739074707031250e+00 2.347880601882934570e+00 2.677683115005493164e+00
1.686000000000000000e+03 1.695470809936523438e+01 3.399785995483398438e+01 -1.171487689018249512e+00 1.951436281204223633e+00 2.339845746755599976e-01 -2.279691100120544434e-01
1.687000000000000000e+03 1.485249805450439453e+01 8.654211044311523438e+00 3.817466497421264648e-01 6.328286647796630859e+00 2.013010025024414062e+00 -1.734414696693420410e+00
1.688000000000000000e+03 7.351121520996093750e+01 -1.642774581909179688e+01 7.786838412284851074e-01 1.013879680633544922e+01 3.275244235992431641e+00 -2.626734375953674316e-01
1.689000000000000000e+03 4.176923751831054688e+00 -1.502996540069580078e+01 -2.985293567180633545e-01 3.031787872314453125e+00 8.199775218963623047e-01 3.708074241876602173e-02
1.690000000000000000e+03 4.190021514892578125e+00 2.132482719421386719e+01 1.755765527486801147e-01 1.080249071121215820e+00 3.767476975917816162e-01 -9.218124747276306152e-01
1.691000000000000000e+03 2.632561683654785156e+00 -2.117875480651855469e+01 6.754034161567687988e-01 2.957790851593017578e+00 1.089958310127258301e+00 9.517669677734375000e-01
1.692000000000000000e+03 4.579585552215576172e+00 -2.077029991149902344e+01 1.409556508064270020e+00 6.561497211456298828e+00 2.391316175460815430e+00 1.700017929077148438e+00
1.693000000000000000e+03 2.561178922653198242e+00 -2.001788520812988281e+01 5.929297208786010742e-01 2.465692996978759766e+00 9.175868034362792969e-01 4.519492387771606445e-01
1.694000000000000000e+03 4.102758407592773438e+00 -1.755744743347167969e+01 5.475352406501770020e-01 4.042037010192871094e+00 1.376871705055236816e+00 1.634942591190338135e-01
1.695000000000000000e+03 4.490696907043457031e+00 -1.937417793273925781e+01 1.347746610641479492e+00 5.372291564941406250e+00 2.016011476516723633e+00 9.634764790534973145e-01
1.696000000000000000e+03 3.006145954132080078e+00 2.011898612976074219e+01 1.407867521047592163e-01 2.262086123228073120e-01 1.100986078381538391e-01 -6.530793309211730957e-01
1.697000000000000000e+03 4.157984256744384766e+00 2.262374687194824219e+01 1.925534754991531372e-01 1.259167671203613281e+00 4.355163574218750000e-01 -1.032946825027465820e+00
1.698000000000000000e+03 5.169203281402587891e+00 2.366255569458007812e+01 1.771492958068847656e-01 1.887027621269226074e+00 6.192530989646911621e-01 -1.235732674598693848e+00
1.699000000000000000e+03 5.452634811401367188e+00 2.607584381103515625e+01 8.316906541585922241e-02 2.320713520050048828e+00 7.211647629737854004e-01 -1.391167640686035156e+00
1.700000000000000000e+03 4.845213413238525391e+00 2.933342552185058594e+01 -9.502358734607696533e-02 2.580417871475219727e+00 7.456182837486267090e-01 -1.260926723480224609e+00
1.701000000000000000e+03 4.284585952758789062e+00 1.724649810791015625e+01 2.612520456314086914e-01 6.160225272178649902e-01 2.631823718547821045e-01 -5.446799993515014648e-01
1.702000000000000000e+03 4.200552940368652344e+00 1.863110923767089844e+01 2.863667309284210205e-01 7.383514642715454102e-01 3.074154555797576904e-01 -6.727147102355957031e-01
1.703000000000000000e+03 3.020586967468261719e+00 1.873389625549316406e+01 1.664370000362396240e-01 2.318934351205825806e-02 5.688790231943130493e-02 -5.245547294616699219e-01
1.704000000000000000e+03 4.157647609710693359e+00 1.998105812072753906e+01 2.600228488445281982e-01 9.187093973159790039e-01 3.536196649074554443e-01 -8.225724697113037109e-01
1.705000000000000000e+03 2.995530366897583008e+00 1.453641700744628906e+01 1.572331637144088745e-01 -4.332268834114074707e-01 -8.279811590909957886e-02 -1.454258263111114502e-01
1.706000000000000000e+03 3.043323278427124023e+00 2.552176284790039062e+01 3.959604725241661072e-02 1.358409285545349121e+00 4.194015860557556152e-01 -9.484711289405822754e-01
1.707000000000000000e+03 4.172893047332763672e+00 2.519872474670410156e+01 7.357684522867202759e-02 1.718355655670166016e+00 5.375797748565673828e-01 -1.154456496238708496e+00
1.708000000000000000e+03 4.119503498077392578e+00 2.390665435791015625e+01 1.279256343841552734e-01 1.497727036476135254e+00 4.876958131790161133e-01 -1.112930178642272949e+00
1.709000000000000000e+03 4.239914417266845703e+00 1.437128162384033203e+01 2.666437923908233643e-01 3.191365599632263184e-01 1.757341027259826660e-01 -2.031309604644775391e-01
1.710000000000000000e+03 4.135199546813964844e+00 -1.031632518768310547e+01 -2.819874286651611328e-01 1.581823229789733887e+00 3.899507522583007812e-01 5.519241094589233398e-01
1.711000000000000000e+03 6.251186370849609375e+00 1.218004894256591797e+01 4.789266288280487061e-01 1.319806694984436035e+00 5.396199822425842285e-01 -1.662289798259735107e-01
1.712000000000000000e+03 2.990784168243408203e+00 -3.059292221069335938e+01 -6.911767125129699707e-01 5.260983943939208984e+00 1.370942115783691406e+00 8.402169942855834961e-01
1.713000000000000000e+03 2.735049486160278320e+00 -3.189675331115722656e+01 -5.568875670433044434e-01 5.523055553436279297e+00 1.489850401878356934e+00 2.887143790721893311e-01
1.714000000000000000e+03 4.496716022491455078e+00 2.787686157226562500e+01 -1.438526995480060577e-02 2.280581235885620117e+00 6.798588037490844727e-01 -1.255851387977600098e+00
1.715000000000000000e+03 4.060162544250488281e+00 1.157705974578857422e+01 2.569937705993652344e-01 5.634584277868270874e-02 9.400188922882080078e-02 8.453943580389022827e-02
1.716000000000000000e+03 4.263243198394775391e+00 -1.167226600646972656e+01 -4.427264928817749023e-01 2.036499261856079102e+00 4.781318008899688721e-01 4.145345687866210938e-01
1.717000000000000000e+03 5.072100639343261719e+00 -5.953175067901611328e+00 3.121190965175628662e-01 6.026016473770141602e-01 2.744162082672119141e-01 6.531028747558593750e-01
1.718000000000000000e+03 7.305576324462890625e+00 -3.403840637207031250e+01 -7.748941183090209961e-01 1.816296935081481934e+00 3.124208450317382812e-01 -1.658760905265808105e-01
1.719000000000000000e+03 2.326664209365844727e+00 -3.365830993652343750e+01 -2.244838327169418335e-01 5.775170803070068359e+00 1.665206074714660645e+00 -4.324973374605178833e-02
1.720000000000000000e+03 6.636653423309326172e+00 2.990829658508300781e+01 -2.411157935857772827e-01 3.017981052398681641e+00 8.330596089363098145e-01 -1.431750893592834473e+00
1.721000000000000000e+03 3.418112754821777344e+00 3.475676727294921875e+01 -2.363727986812591553e-01 3.318357706069946289e+00 9.245954751968383789e-01 -7.146561741828918457e-01
1.722000000000000000e+03 5.505619525909423828e+00 3.422022628784179688e+01 -3.643354773521423340e-01 3.215248107910156250e+00 8.552737832069396973e-01 -9.752630591392517090e-01
1.723000000000000000e+03 5.785049057006835938e+01 2.369607925415039062e+00 -1.455431222915649414e+00 5.318071842193603516e-01 -2.770872116088867188e-01 -3.879441022872924805e-01
1.724000000000000000e+03 3.841101169586181641e+00 1.022552585601806641e+01 2.159677147865295410e-01 -1.276649832725524902e-01 2.649081684648990631e-02 2.135519087314605713e-01
1.725000000000000000e+03 4.270280075073242188e+01 9.353584289550781250e+00 1.814870238304138184e+00 8.254898071289062500e+00 3.020930528640747070e+00 3.291247606277465820e+00
1.726000000000000000e+03 4.429246520996093750e+01 1.031123256683349609e+01 1.831609129905700684e+00 6.371835231781005859e+00 2.461033344268798828e+00 2.951217174530029297e+00
1.727000000000000000e+03 5.039060592651367188e+00 4.706200122833251953e+00 8.961394429206848145e-03 6.203229539096355438e-03 4.549386911094188690e-03 5.748434662818908691e-01
1.728000000000000000e+03 4.826128959655761719e+00 -4.874666213989257812e+00 3.159208297729492188e-01 3.706477284431457520e-01 2.059705704450607300e-01 4.349036514759063721e-01
1.729000000000000000e+03 2.989546298980712891e+00 -4.995481491088867188e+00 1.334798187017440796e-01 2.756302058696746826e-01 1.227330118417739868e-01 2.176741063594818115e-01
1.730000000000000000e+03 5.467443943023681641e+00 -3.726484680175781250e+01 -1.738972961902618408e-02 3.402655363082885742e+00 1.015579700469970703e+00 -8.390634506940841675e-02
1.731000000000000000e+03 4.916022109985351562e+01 -3.063648223876953125e+01 -9.623557329177856445e-02 1.690251588821411133e+00 4.782047867774963379e-01 -8.792507648468017578e-01
1.732000000000000000e+03 4.887561798095703125e+01 -2.874064636230468750e+01 2.279034107923507690e-01 1.398930311203002930e+00 4.880501031875610352e-01 -8.102833032608032227e-01
1.733000000000000000e+03 2.183558464050292969e+01 -9.684593081474304199e-01 4.679963588714599609e+00 9.131350517272949219e-01 1.677929639816284180e+00 -2.122996568679809570e+00
1.734000000000000000e+03 3.829924011230468750e+01 -1.523589897155761719e+01 -1.074582338333129883e-01 1.064136219024658203e+01 3.160171270370483398e+00 -2.957131564617156982e-01
1.735000000000000000e+03 1.689674949645996094e+01 6.849738597869873047e+00 -4.439136758446693420e-02 6.987248897552490234e+00 2.082857370376586914e+00 -1.844366788864135742e+00
1.736000000000000000e+03 1.633917045593261719e+01 7.965826988220214844e+00 2.734308540821075439e-01 6.968997001647949219e+00 2.172728300094604492e+00 -1.979645848274230957e+00
1.737000000000000000e+03 6.932884979248046875e+01 -7.792659282684326172e+00 4.685384919866919518e-04 8.738032341003417969e+00 2.621550083160400391e+00 -9.636869430541992188e-01
1.738000000000000000e+03 4.713534927368164062e+01 2.077389335632324219e+01 7.487404942512512207e-01 4.773500919342041016e+00 1.656672477722167969e+00 1.329305410385131836e+00
1.739000000000000000e+03 5.340673446655273438e+00 -2.825872611999511719e+01 -1.551946401596069336e+00 4.595109462738037109e+00 9.129489064216613770e-01 1.312143921852111816e+00
1.740000000000000000e+03 1.827233886718750000e+01 2.189818382263183594e+00 4.215599894523620605e-01 8.004568099975585938e+00 2.527838468551635742e+00 -5.241333842277526855e-01
1.741000000000000000e+03 2.666341972351074219e+01 -1.536795616149902344e+01 -1.377057194709777832e+00 5.461026355624198914e-02 -3.967340886592864990e-01 -3.458979427814483643e-01
1.742000000000000000e+03 1.723738670349121094e+01 5.640810012817382812e+00 -6.460886597633361816e-01 7.215440750122070312e+00 1.970805525779724121e+00 -1.632045507431030273e+00
1.743000000000000000e+03 1.758552360534667969e+01 1.820237159729003906e+00 5.432498455047607422e-01 9.497273445129394531e+00 3.012157201766967773e+00 -5.943283438682556152e-01
1.744000000000000000e+03 3.154360389709472656e+01 -1.467569828033447266e+01 4.301340505480766296e-02 1.181580662727355957e+00 3.673782348632812500e-01 -1.586545586585998535e+00
1.745000000000000000e+03 2.039260101318359375e+01 -9.957472681999206543e-01 5.449946880340576172e+00 2.721817731857299805e+00 2.451529502868652344e+00 -1.990467905998229980e+00
1.746000000000000000e+03 4.541990280151367188e+01 1.972505760192871094e+01 6.257600188255310059e-01 5.356119632720947266e+00 1.794563889503479004e+00 1.346594214439392090e+00
1.747000000000000000e+03 1.604748344421386719e+01 6.548863887786865234e+00 -3.193275332450866699e-01 6.876838684082031250e+00 1.967253327369689941e+00 -1.844829082489013672e+00
1.748000000000000000e+03 1.237011814117431641e+01 1.475982379913330078e+01 9.934709072113037109e-01 6.040696620941162109e+00 2.110250234603881836e+00 -1.229484915733337402e+00
1.749000000000000000e+03 1.427588367462158203e+01 9.417503356933593750e+00 5.658522844314575195e-01 6.027912616729736328e+00 1.978129386901855469e+00 -1.630845069885253906e+00
1.750000000000000000e+03 4.054347610473632812e+01 -1.745653915405273438e+01 4.797623753547668457e-01 1.075727748870849609e+01 3.371111869812011719e+00 -2.184604853391647339e-01
1.751000000000000000e+03 3.962820053100585938e+01 -1.613575172424316406e+01 2.112450748682022095e-01 1.130105209350585938e+01 3.453689098358154297e+00 -1.061024814844131470e-01
1.752000000000000000e+03 4.517169570922851562e+01 5.322533130645751953e+00 3.804220855236053467e-01 4.441620349884033203e+00 1.446612715721130371e+00 2.895663499832153320e+00
1.753000000000000000e+03 4.417976379394531250e+01 2.696802854537963867e+00 -1.911224484443664551e+00 6.291233539581298828e+00 1.314002752304077148e+00 2.917269229888916016e+00
1.754000000000000000e+03 1.499406719207763672e+01 1.023186302185058594e+01 7.273516058921813965e-01 6.793165683746337891e+00 2.256155252456665039e+00 -1.880565881729125977e+00
1.755000000000000000e+03 5.128652572631835938e+01 5.859703540802001953e+00 3.256506025791168213e-01 7.746061086654663086e-01 3.300770223140716553e-01 6.195608377456665039e-01
1.756000000000000000e+03 5.114117050170898438e+01 3.152574062347412109e+00 -1.838055610656738281e+00 2.046335935592651367e-01 -4.900266230106353760e-01 2.845091521739959717e-01
1.757000000000000000e+03 7.903956413269042969e+00 -1.429693317413330078e+01 -5.966528654098510742e-01 4.065179824829101562e+00 1.040558099746704102e+00 2.188849210739135742e+00
1.758000000000000000e+03 6.470510959625244141e+00 -1.517097377777099609e+01 -3.200168907642364502e-01 4.685570716857910156e+00 1.309666156768798828e+00 1.124704360961914062e+00
1.759000000000000000e+03 5.086172866821289062e+01 -3.021842575073242188e+01 -1.617653369903564453e-01 1.062322497367858887e+00 2.701671421527862549e-01 -5.059059858322143555e-01
1.760000000000000000e+03 7.028318786621093750e+01 -6.736621856689453125e+00 -2.420072555541992188e-01 8.414499282836914062e+00 2.451747655868530273e+00 -3.164409101009368896e-01
1.761000000000000000e+03 4.223919677734375000e+01 -2.116927909851074219e+01 4.006916582584381104e-01 6.718353271484375000e+00 2.135713577270507812e+00 -1.148129582405090332e+00
1.762000000000000000e+03 4.065998840332031250e+01 -2.427440834045410156e+01 1.048334002494812012e+00 7.191401958465576172e+00 2.471920728683471680e+00 -9.057705402374267578e-01
1.763000000000000000e+03 4.164277267456054688e+01 6.568295001983642578e+00 1.438845038414001465e+00 9.206546783447265625e+00 3.193617582321166992e+00 3.198570966720581055e+00
1.764000000000000000e+03 2.337804794311523438e+01 -3.053377151489257812e+00 4.919140815734863281e+00 8.167061805725097656e-01 1.720754146575927734e+00 -1.867547154426574707e+00
1.765000000000000000e+03 2.514196205139160156e+01 -3.880326986312866211e+00 4.407366752624511719e+00 1.239822387695312500e+00 1.694156765937805176e+00 -1.617645144462585449e+00
1.766000000000000000e+03 3.899901580810546875e+01 -9.386984825134277344e+00 1.595199823379516602e+00 1.113325214385986328e+01 3.818535566329956055e+00 3.382314741611480713e-01
1.767000000000000000e+03 4.541389465332031250e+01 1.692392921447753906e+01 1.030240058898925781e+00 5.642155647277832031e+00 2.001718759536743164e+00 1.784100055694580078e+00
1.768000000000000000e+03 1.219446563720703125e+01 -3.880876541137695312e+01 2.646740972995758057e-01 -8.642388135194778442e-02 5.347506701946258545e-02 1.909612417221069336e-01
1.769000000000000000e+03 1.508343505859375000e+01 -1.335158252716064453e+01 -1.113108873367309570e+00 1.883763819932937622e-01 -2.774197757244110107e-01 1.422546505928039551e+00
1.770000000000000000e+03 6.745080947875976562e+00 -3.170339012145996094e+01 -1.626513004302978516e+00 2.357548475265502930e+00 2.193106561899185181e-01 9.572730399668216705e-03
1.771000000000000000e+03 5.625670909881591797e+00 -3.070653724670410156e+01 -1.666953921318054199e+00 3.523661375045776367e+00 5.570122599601745605e-01 4.790423214435577393e-01
1.772000000000000000e+03 5.709611892700195312e+01 3.985514402389526367e+00 -7.702527046203613281e-01 7.366464138031005859e-01 -1.008188445121049881e-02 -4.310780763626098633e-01
1.773000000000000000e+03 3.774341964721679688e+01 -2.065658760070800781e+01 7.711490988731384277e-01 1.114246845245361328e+01 3.574085235595703125e+00 6.430732011795043945e-01
1.774000000000000000e+03 3.900914382934570312e+01 -2.194213867187500000e+01 1.237362504005432129e+00 9.340318679809570312e+00 3.173304319381713867e+00 1.779909729957580566e-01
1.775000000000000000e+03 3.791785812377929688e+01 -2.432407188415527344e+01 1.723715186119079590e+00 1.031452083587646484e+01 3.611470937728881836e+00 7.888797670602798462e-03
1.776000000000000000e+03 7.061386871337890625e+01 -1.280619621276855469e+01 1.021573543548583984e+00 1.160098075866699219e+01 3.786766290664672852e+00 -5.600423216819763184e-01
1.777000000000000000e+03 7.316632080078125000e+01 -1.210365962982177734e+01 5.377971529960632324e-01 9.570929527282714844e+00 3.032617807388305664e+00 4.203261733055114746e-01
1.778000000000000000e+03 6.783375549316406250e+01 -5.385346412658691406e+00 -6.975940614938735962e-02 6.993576526641845703e+00 2.077145099639892578e+00 -1.017653226852416992e+00
1.779000000000000000e+03 7.145040130615234375e+01 -3.481932640075683594e+00 -6.143302321434020996e-01 7.799787521362304688e+00 2.155637264251708984e+00 1.149786449968814850e-02
1.780000000000000000e+03 4.570776367187500000e+01 1.252950382232666016e+01 1.791596531867980957e+00 5.490601062774658203e+00 2.184659242630004883e+00 2.500868082046508789e+00
1.781000000000000000e+03 4.538966369628906250e+01 1.387282943725585938e+01 1.543154954910278320e+00 5.750887393951416016e+00 2.188212633132934570e+00 2.342280864715576172e+00
1.782000000000000000e+03 7.219802856445312500e+01 -1.532330608367919922e+01 1.050005435943603516e+00 1.109066200256347656e+01 3.642200231552124023e+00 -3.723714649677276611e-01
1.783000000000000000e+03 7.100600433349609375e+01 -1.564646339416503906e+01 1.205506324768066406e+00 1.248792839050292969e+01 4.108030319213867188e+00 -7.705423235893249512e-01
1.784000000000000000e+03 4.384288406372070312e+01 8.879193305969238281e+00 1.807638406753540039e+00 6.626380920410156250e+00 2.530205726623535156e+00 3.048848152160644531e+00
1.785000000000000000e+03 4.546098709106445312e+01 2.853664398193359375e+01 9.253496676683425903e-02 3.999489784240722656e+00 1.227607488632202148e+00 6.536465287208557129e-01
1.786000000000000000e+03 4.925322341918945312e+01 4.738170146942138672e+00 -1.947510689496994019e-01 6.529350876808166504e-01 1.374552100896835327e-01 1.037832498550415039e+00
1.787000000000000000e+03 4.755815124511718750e+01 5.038977622985839844e+00 4.540141522884368896e-01 1.573237299919128418e+00 6.081754565238952637e-01 2.158466100692749023e+00
1.788000000000000000e+03 4.068892288208007812e+01 4.148170471191406250e+00 4.142277315258979797e-02 9.840863227844238281e+00 2.964685678482055664e+00 2.469490289688110352e+00
1.789000000000000000e+03 4.403568649291992188e+01 6.937170505523681641e+00 1.234607458114624023e+00 6.100591659545898438e+00 2.200559616088867188e+00 2.961210489273071289e+00
1.790000000000000000e+03 4.261248397827148438e+01 6.253763675689697266e+00 9.859051108360290527e-01 8.009280204772949219e+00 2.698555707931518555e+00 3.028627157211303711e+00
1.791000000000000000e+03 4.290813064575195312e+01 2.840604305267333984e+00 -1.210950255393981934e+00 8.096476554870605469e+00 2.065657854080200195e+00 2.613413810729980469e+00
1.792000000000000000e+03 1.767660903930664062e+01 -3.669441604614257812e+01 -6.067159175872802734e-01 -4.524189531803131104e-01 -3.177404701709747314e-01 3.877337872982025146e-01
1.793000000000000000e+03 3.503886032104492188e+01 -1.926359891891479492e+00 1.028670668601989746e+00 2.393625259399414062e+00 1.026688694953918457e+00 7.185045480728149414e-01
1.794000000000000000e+03 6.866661071777343750e+01 -3.468545532226562500e+01 -9.116749167442321777e-01 6.019801139831542969e+00 1.532437801361083984e+00 6.305942535400390625e-01
1.795000000000000000e+03 2.983688926696777344e+01 -1.097872734069824219e+01 2.144147157669067383e+00 9.514244794845581055e-01 9.286714792251586914e-01 -1.592820763587951660e+00
1.796000000000000000e+03 3.996695327758789062e+01 2.202943801879882812e+00 -6.453110575675964355e-01 9.600607872009277344e+00 2.686589241027832031e+00 1.870784401893615723e+00
1.797000000000000000e+03 3.716552352905273438e+01 -1.534568023681640625e+01 -2.616936862468719482e-01 9.647719383239746094e+00 2.815807580947875977e+00 -5.824228525161743164e-01
1.798000000000000000e+03 2.956136703491210938e+01 -5.717553615570068359e+00 3.594578504562377930e+00 5.985908508300781250e-01 1.257950782775878906e+00 -1.963561892509460449e+00
1.799000000000000000e+03 2.867839241027832031e+01 -5.926897525787353516e+00 3.570741891860961914e+00 5.636370778083801270e-01 1.240313768386840820e+00 -2.013088941574096680e+00
1.800000000000000000e+03 2.186171150207519531e+01 -2.519197225570678711e+00 5.133911132812500000e+00 1.268206238746643066e+00 1.920635104179382324e+00 -2.311944484710693359e+00
1.801000000000000000e+03 3.337586975097656250e+01 -3.796305656433105469e+00 2.682475566864013672e+00 1.302240133285522461e+00 1.195414662361145020e+00 -3.318044543266296387e-01
1.802000000000000000e+03 3.803157424926757812e+01 -3.086149978637695312e+01 -8.262442350387573242e-01 6.944337368011474609e+00 1.835427880287170410e+00 -5.647473335266113281e-01
1.803000000000000000e+03 1.086470794677734375e+01 1.707742500305175781e+01 9.857311248779296875e-01 5.000426292419433594e+00 1.795847296714782715e+00 -1.110436081886291504e+00
1.804000000000000000e+03 7.204756927490234375e+01 -1.389813137054443359e+01 1.027626276016235352e+00 1.079973411560058594e+01 3.548207998275756836e+00 -1.302110552787780762e-01
1.805000000000000000e+03 7.329585266113281250e+01 -1.358129978179931641e+01 7.530602216720581055e-01 9.784647941589355469e+00 3.161312341690063477e+00 2.032551169395446777e-01
1.806000000000000000e+03 3.600196456909179688e+01 -3.235253524780273438e+01 -1.271669983863830566e+00 6.413764476776123047e+00 1.542628407478332520e+00 3.334562182426452637e-01
1.807000000000000000e+03 7.061278533935546875e+01 -2.960099601745605469e+01 -4.805663526058197021e-01 8.950017929077148438e+00 2.540835618972778320e+00 -3.543018996715545654e-01
1.808000000000000000e+03 7.281730651855468750e+01 -2.782324028015136719e+01 3.019507415592670441e-02 9.507383346557617188e+00 2.861273527145385742e+00 -1.214960932731628418e+00
1.809000000000000000e+03 7.149532318115234375e+01 -8.693123817443847656e+00 -5.307802185416221619e-02 9.304107666015625000e+00 2.775309085845947266e+00 4.060601070523262024e-02
1.810000000000000000e+03 7.094257354736328125e+01 -7.432125568389892578e+00 -1.832378059625625610e-01 8.664756774902343750e+00 2.544455528259277344e+00 -1.952773630619049072e-01
1.811000000000000000e+03 3.703588104248046875e+01 -3.159822654724121094e+01 -8.819423913955688477e-01 6.799531459808349609e+00 1.775276660919189453e+00 1.043093726038932800e-01
1.812000000000000000e+03 5.024284362792968750e+01 5.641892433166503906e+00 3.011731505393981934e-01 7.956066727638244629e-01 3.290339410305023193e-01 8.415777087211608887e-01
1.813000000000000000e+03 3.717380523681640625e+01 -2.324520587921142578e+00 1.063317179679870605e+00 6.065277099609375000e+00 2.138578414916992188e+00 1.335286736488342285e+00
1.814000000000000000e+03 3.593667221069335938e+01 -2.315374851226806641e+00 1.209291815757751465e+00 4.128458023071289062e+00 1.601324915885925293e+00 1.144220232963562012e+00
1.815000000000000000e+03 4.552722167968750000e+01 3.052131652832031250e+01 -2.706441581249237061e-01 3.793667316436767578e+00 1.056906938552856445e+00 6.995342373847961426e-01
1.816000000000000000e+03 4.545841598510742188e+01 3.276404190063476562e+01 -7.344972491264343262e-01 3.614343881607055664e+00 8.639539480209350586e-01 6.303652524948120117e-01
1.817000000000000000e+03 7.261586761474609375e+01 -3.012505912780761719e+01 -4.892489314079284668e-01 9.019064903259277344e+00 2.558944702148437500e+00 -1.027537465095520020e+00
1.818000000000000000e+03 3.542808532714843750e+01 -3.448764801025390625e+00 2.049165248870849609e+00 3.723950624465942383e+00 1.731934785842895508e+00 6.497974395751953125e-01
1.819000000000000000e+03 7.150490570068359375e+01 -3.097035789489746094e+01 -9.268608093261718750e-01 8.795865058898925781e+00 2.360701322555541992e+00 -5.973392128944396973e-01
1.820000000000000000e+03 6.957615661621093750e+01 -3.057115173339843750e+01 -1.027597784996032715e+00 8.191459655761718750e+00 2.149158477783203125e+00 -2.996793715283274651e-03
1.821000000000000000e+03 3.195196914672851562e+01 -5.771935462951660156e+00 3.448099851608276367e+00 1.070059895515441895e+00 1.355447888374328613e+00 -1.327389359474182129e+00
1.822000000000000000e+03 2.690637969970703125e+01 -3.518286132812500000e+01 -6.857770085334777832e-01 8.930468559265136719e-01 6.218095868825912476e-02 6.732423305511474609e-01
1.823000000000000000e+03 3.900291824340820312e+01 -2.081791687011718750e+01 9.124883413314819336e-01 9.846983909606933594e+00 3.227841615676879883e+00 7.631506919860839844e-01
1.824000000000000000e+03 4.519880294799804688e+01 3.525580596923828125e+01 -1.130845308303833008e+00 3.406103372573852539e+00 6.825774312019348145e-01 4.222227334976196289e-01
1.825000000000000000e+03 1.157788944244384766e+01 2.289293479919433594e+01 5.916485190391540527e-01 5.335314273834228516e+00 1.778088808059692383e+00 -1.148064613342285156e+00
1.826000000000000000e+03 5.230076980590820312e+01 2.652382612228393555e+00 -2.325018167495727539e+00 3.357705771923065186e-01 -5.967742800712585449e-01 3.484505414962768555e-01
1.827000000000000000e+03 1.213430690765380859e+01 2.746764183044433594e+01 -5.462272092700004578e-02 4.486186504364013672e+00 1.329469084739685059e+00 -1.101287603378295898e+00
1.828000000000000000e+03 5.307477474212646484e+00 2.482117652893066406e+01 1.430585235357284546e-01 2.070504903793334961e+00 6.640690565109252930e-01 -1.317777037620544434e+00
1.829000000000000000e+03 3.109339952468872070e+00 -2.411523818969726562e+01 4.653918743133544922e-01 4.430101394653320312e+00 1.468647956848144531e+00 2.136411666870117188e+00
1.830000000000000000e+03 6.305174255371093750e+01 6.355755329132080078e-01 -1.360670924186706543e+00 2.834182024002075195e+00 4.420533180236816406e-01 -1.359173893928527832e+00
1.831000000000000000e+03 5.636641979217529297e+00 -1.277558231353759766e+01 -6.742917299270629883e-01 3.149382352828979492e+00 7.425271868705749512e-01 8.605306148529052734e-01
1.832000000000000000e+03 5.462664127349853516e+00 -1.151596832275390625e+01 -5.658348798751831055e-01 2.500800609588623047e+00 5.804897546768188477e-01 9.366797208786010742e-01
1.833000000000000000e+03 3.951883697509765625e+01 -2.816042137145996094e+01 2.415531277656555176e-01 6.924469947814941406e+00 2.149806976318359375e+00 -1.209129929542541504e+00
1.834000000000000000e+03 1.195763015747070312e+01 -1.282771205902099609e+01 -5.070078969001770020e-01 9.996151328086853027e-01 1.477821618318557739e-01 2.769982814788818359e+00
1.835000000000000000e+03 1.102240276336669922e+01 -1.174938488006591797e+01 -3.238644003868103027e-01 1.629476904869079590e+00 3.916837275028228760e-01 2.838348627090454102e+00
1.836000000000000000e+03 6.570305633544921875e+01 -1.142243146896362305e+00 -1.252240061759948730e+00 4.884644985198974609e+00 1.089721441268920898e+00 -1.174789905548095703e+00
1.837000000000000000e+03 6.562089538574218750e+01 3.300276100635528564e-01 -1.286006093025207520e+00 4.612556457519531250e+00 9.979650974273681641e-01 -1.302489519119262695e+00
1.838000000000000000e+03 6.699746704101562500e+01 -7.579373717308044434e-01 -1.153455853462219238e+00 5.718349456787109375e+00 1.369468092918395996e+00 -1.002032756805419922e+00
1.839000000000000000e+03 7.314102172851562500e+01 -2.563687324523925781e+01 6.103440523147583008e-01 9.829504013061523438e+00 3.131954431533813477e+00 -1.012977242469787598e+00
1.840000000000000000e+03 7.235575866699218750e+01 -2.447680473327636719e+01 8.465976119041442871e-01 1.057377243041992188e+01 3.426110982894897461e+00 -5.284882187843322754e-01
1.841000000000000000e+03 3.489766693115234375e+01 -3.306946945190429688e+01 -1.276833415031433105e+00 5.963781356811523438e+00 1.406084418296813965e+00 8.046318292617797852e-01
1.842000000000000000e+03 3.278343963623046875e+01 -3.288822174072265625e+01 -8.902826309204101562e-01 4.570114135742187500e+00 1.103949546813964844e+00 1.428943634033203125e+00
1.843000000000000000e+03 6.963581848144531250e+01 -3.295866775512695312e+01 -1.103639841079711914e+00 7.257305622100830078e+00 1.846099734306335449e+00 1.818597465753555298e-01
1.844000000000000000e+03 3.258588790893554688e+01 -1.525785827636718750e+01 -2.560001015663146973e-01 2.661720991134643555e+00 7.217162847518920898e-01 -2.007243394851684570e+00
1.845000000000000000e+03 3.580652618408203125e+01 -1.649653434753417969e+01 -1.103155016899108887e+00 8.806946754455566406e+00 2.311137437820434570e+00 -1.031301617622375488e+00
1.846000000000000000e+03 3.318001556396484375e+01 -3.561492919921875000e+01 -1.423856377601623535e+00 4.318463325500488281e+00 8.683820366859436035e-01 8.865672349929809570e-01
1.847000000000000000e+03 8.598831176757812500e+00 -3.484677505493164062e+01 -5.397627353668212891e-01 7.859709262847900391e-01 7.386245578527450562e-02 -3.899040073156356812e-02
1.848000000000000000e+03 5.910540580749511719e+00 -1.633797454833984375e+01 3.128004372119903564e-01 5.241163253784179688e+00 1.666189193725585938e+00 8.938998579978942871e-01
1.849000000000000000e+03 1.481605243682861328e+01 1.193740367889404297e+00 1.481351137161254883e+00 5.248226165771484375e+00 2.018873214721679688e+00 -4.251752853393554688e+00
1.850000000000000000e+03 1.696888923645019531e+01 1.816216707229614258e+00 1.286265701055526733e-01 1.037880134582519531e+01 3.152228355407714844e+00 -1.370781779289245605e+00
1.851000000000000000e+03 1.462746334075927734e+01 1.353525638580322266e+00 1.361932754516601562e+00 4.740509986877441406e+00 1.830732822418212891e+00 -3.975633621215820312e+00
1.852000000000000000e+03 1.322200679779052734e+01 -3.043223857879638672e+00 3.579999208450317383e+00 1.077520966529846191e+00 1.397256016731262207e+00 2.089175462722778320e+00
1.853000000000000000e+03 1.524665355682373047e+01 -3.234759092330932617e+00 3.388446331024169922e+00 6.190412521362304688e+00 2.873657703399658203e+00 3.353899478912353516e+00
1.854000000000000000e+03 1.614873504638671875e+01 4.841498851776123047e+00 -7.499762773513793945e-01 7.194344997406005859e+00 1.933310627937316895e+00 -2.051915168762207031e+00
1.855000000000000000e+03 1.311816406250000000e+01 -2.719829082489013672e+00 3.452101945877075195e+00 6.576086878776550293e-01 1.232913255691528320e+00 1.643250823020935059e+00
1.856000000000000000e+03 1.618924522399902344e+01 -3.759106636047363281e+00 2.282073736190795898e+00 7.700337886810302734e+00 2.994723558425903320e+00 1.452395796775817871e+00
1.857000000000000000e+03 1.608142280578613281e+01 -3.311796903610229492e+00 2.679493904113769531e+00 8.158363342285156250e+00 3.251357316970825195e+00 1.606983184814453125e+00
1.858000000000000000e+03 1.618740653991699219e+01 1.371744394302368164e+00 1.715047359466552734e-01 1.102788066864013672e+01 3.359815597534179688e+00 -2.983767747879028320e+00
1.859000000000000000e+03 9.521918296813964844e+00 -3.846601963043212891e+00 1.486507296562194824e+00 2.446821928024291992e-01 5.193568468093872070e-01 1.049952983856201172e+00
1.860000000000000000e+03 9.630213737487792969e+00 -4.479485511779785156e+00 1.512879490852355957e+00 4.201177656650543213e-01 5.798991322517395020e-01 1.328611612319946289e+00
1.861000000000000000e+03 1.239557170867919922e+01 2.888281822204589844e+00 4.518786966800689697e-01 2.168348789215087891e+00 7.860682606697082520e-01 -1.853537321090698242e+00
1.862000000000000000e+03 1.225941848754882812e+01 3.593829154968261719e+00 3.917298614978790283e-01 2.528196096420288086e+00 8.759777545928955078e-01 -1.762935042381286621e+00
1.863000000000000000e+03 1.256016921997070312e+01 2.139685630798339844e+00 4.614290893077850342e-01 1.710619688034057617e+00 6.516146063804626465e-01 -1.768910765647888184e+00
1.864000000000000000e+03 6.394487857818603516e+00 4.089744567871093750e+00 -4.228193685412406921e-02 2.257666885852813721e-01 5.504542589187622070e-02 4.844181835651397705e-01
1.865000000000000000e+03 4.401409626007080078e+00 5.421875000000000000e+00 9.740070253610610962e-02 -8.121237158775329590e-02 4.856498911976814270e-03 5.801987051963806152e-01
1.866000000000000000e+03 5.047125339508056641e+00 4.077664852142333984e+00 -7.722307741641998291e-02 -4.085651598870754242e-03 -2.439261972904205322e-02 6.017121076583862305e-01
1.867000000000000000e+03 5.603132724761962891e+00 4.799188137054443359e+00 5.475375428795814514e-02 1.756339222192764282e-01 6.911630183458328247e-02 5.344656109809875488e-01
1.868000000000000000e+03 3.608721971511840820e+00 5.288900852203369141e+00 4.312423244118690491e-02 -2.677061259746551514e-01 -6.737457215785980225e-02 5.741188526153564453e-01
1.869000000000000000e+03 6.283888816833496094e+00 4.908609390258789062e+00 1.270779669284820557e-01 3.089895844459533691e-01 1.308202743530273438e-01 4.414547681808471680e-01
1.870000000000000000e+03 7.138182163238525391e+00 4.064771175384521484e+00 3.892918583005666733e-03 3.557636737823486328e-01 1.078969836235046387e-01 3.655184507369995117e-01
1.871000000000000000e+03 9.393620491027832031e+00 4.592339515686035156e+00 3.169508874416351318e-01 1.161525964736938477e+00 4.435430467128753662e-01 -3.496357798576354980e-01
1.872000000000000000e+03 8.088456153869628906e+00 -4.058299064636230469e+00 1.011173963546752930e+00 2.660509347915649414e-01 3.831674754619598389e-01 8.443931341171264648e-01
1.873000000000000000e+03 8.971465110778808594e+00 -4.599618911743164062e+00 1.282915830612182617e+00 3.905331194400787354e-01 5.020346641540527344e-01 1.197368502616882324e+00
1.874000000000000000e+03 1.235713291168212891e+01 -3.553508996963500977e+00 2.854170083999633789e+00 7.364439368247985840e-01 1.077184200286865234e+00 1.809239029884338379e+00
1.875000000000000000e+03 1.132035923004150391e+01 -3.813716411590576172e+00 2.262547969818115234e+00 4.740027785301208496e-01 8.209652304649353027e-01 1.522613525390625000e+00
1.876000000000000000e+03 2.117633056640625000e+01 -1.679747819900512695e+00 5.289850711822509766e+00 1.797154068946838379e+00 2.126101493835449219e+00 -2.250833272933959961e+00
1.877000000000000000e+03 5.976422309875488281e+00 -5.522374629974365234e+00 4.867606163024902344e-01 5.321360826492309570e-01 3.056690096855163574e-01 7.713361978530883789e-01
1.878000000000000000e+03 6.789451599121093750e+00 -5.206916332244873047e+00 6.625791192054748535e-01 5.010927915573120117e-01 3.491015732288360596e-01 8.847638368606567383e-01
1.879000000000000000e+03 1.571302413940429688e+01 -3.739974498748779297e+00 2.505208730697631836e+00 6.756880760192871094e+00 2.778626680374145508e+00 2.263579607009887695e+00
1.880000000000000000e+03 1.673419761657714844e+01 -3.788810014724731445e+00 2.393856763839721680e+00 7.925796031951904297e+00 3.095895767211914062e+00 1.838654577732086182e-01
1.881000000000000000e+03 7.551859378814697266e+00 -4.959921360015869141e+00 8.501909971237182617e-01 4.410179555416107178e-01 3.873626589775085449e-01 9.792584776878356934e-01
1.882000000000000000e+03 1.021141529083251953e+01 3.756534099578857422e+00 2.514763176441192627e-01 1.155267357826232910e+00 4.220230877399444580e-01 -6.161211133003234863e-01
1.883000000000000000e+03 1.008765506744384766e+01 5.261953830718994141e+00 4.191154539585113525e-01 1.785732626914978027e+00 6.614543795585632324e-01 -6.765601634979248047e-01
1.884000000000000000e+03 1.162618255615234375e+01 3.602502822875976562e+00 3.741305470466613770e-01 1.967836260795593262e+00 7.025900483131408691e-01 -1.391227364540100098e+00
1.885000000000000000e+03 1.085567665100097656e+01 4.394181251525878906e+00 3.854109644889831543e-01 1.847666501998901367e+00 6.699232459068298340e-01 -9.991309046745300293e-01
1.886000000000000000e+03 1.784986305236816406e+01 -3.494680881500244141e+00 3.548685789108276367e+00 7.145476818084716797e+00 3.208248615264892578e+00 -1.933298945426940918e+00
1.887000000000000000e+03 2.687696647644042969e+01 -5.158845424652099609e+00 3.725847005844116211e+00 8.363246321678161621e-01 1.368651509284973145e+00 -2.008985519409179688e+00
1.888000000000000000e+03 2.174414253234863281e+01 -1.431707382202148438e+01 -1.523251056671142578e+00 7.695139646530151367e-01 -2.261211276054382324e-01 -1.105660349130630493e-01
1.889000000000000000e+03 3.302468490600585938e+01 -1.413846206665039062e+01 3.016146123409271240e-01 3.452229261398315430e+00 1.126153111457824707e+00 -1.865759015083312988e+00
1.890000000000000000e+03 3.907199859619140625e+01 -1.970510482788085938e+01 3.418284356594085693e-01 1.026416015625000000e+01 3.181796550750732422e+00 7.027814984321594238e-01
1.891000000000000000e+03 7.185706329345703125e+01 -4.375202655792236328e+00 -5.805600285530090332e-01 7.999658107757568359e+00 2.225729465484619141e+00 1.159860342741012573e-01
1.892000000000000000e+03 6.827259063720703125e+01 -3.259223461151123047e+00 -7.942777872085571289e-01 6.733146190643310547e+00 1.781660437583923340e+00 -6.520261168479919434e-01
1.893000000000000000e+03 1.904600334167480469e+01 -1.326819515228271484e+01 -1.291321754455566406e+00 8.978426456451416016e-01 -1.180437430739402771e-01 1.562032401561737061e-01
1.894000000000000000e+03 2.642458534240722656e+01 -1.445971488952636719e+01 -9.596588611602783203e-01 1.414255499839782715e-01 -2.454699873924255371e-01 -4.167130887508392334e-01
1.895000000000000000e+03 2.540604400634765625e+01 -5.438548564910888672e+00 3.685197591781616211e+00 1.087350368499755859e+00 1.431764364242553711e+00 -1.915806889533996582e+00
1.896000000000000000e+03 4.982090473175048828e+00 -1.570475387573242188e+01 -1.038261875510215759e-01 4.239945888519287109e+00 1.240835905075073242e+00 2.784149348735809326e-01
1.897000000000000000e+03 4.120529556274414062e+01 -2.171398353576660156e+01 7.489432692527770996e-01 7.503184795379638672e+00 2.475638389587402344e+00 -5.054348111152648926e-01
1.898000000000000000e+03 4.019163131713867188e+01 -2.199220657348632812e+01 9.360665678977966309e-01 8.426483154296875000e+00 2.808764934539794922e+00 -2.944522909820079803e-02
1.899000000000000000e+03 4.607748794555664062e+01 5.735280513763427734e+00 8.183033466339111328e-01 3.325355529785156250e+00 1.243097662925720215e+00 2.653211355209350586e+00
1.900000000000000000e+03 1.581516265869140625e+01 4.130863189697265625e+00 -8.249535560607910156e-01 7.227899551391601562e+00 1.920883774757385254e+00 -2.395538806915283203e+00
1.901000000000000000e+03 1.297780799865722656e+01 2.953943967819213867e+00 4.590091109275817871e-01 2.870069503784179688e+00 9.987236261367797852e-01 -2.258038759231567383e+00
1.902000000000000000e+03 1.482191467285156250e+01 7.831247806549072266e+00 2.115046381950378418e-01 6.194359302520751953e+00 1.921759128570556641e+00 -1.744617581367492676e+00
1.903000000000000000e+03 3.668664932250976562e+01 -1.808628463745117188e+01 -5.118387341499328613e-01 1.077188682556152344e+01 3.078014373779296875e+00 2.508813142776489258e-01
1.904000000000000000e+03 4.647910690307617188e+01 4.466522693634033203e+00 -1.166740283370018005e-01 2.560911893844604492e+00 7.332713603973388672e-01 2.568634748458862305e+00
1.905000000000000000e+03 4.555530548095703125e+01 6.921061992645263672e+00 1.199737787246704102e+00 4.334712028503417969e+00 1.660334825515747070e+00 2.675175189971923828e+00
1.906000000000000000e+03 6.044742202758789062e+01 1.496258139610290527e+00 -1.420034885406494141e+00 1.222419977188110352e+00 -5.928449332714080811e-02 -9.132397174835205078e-01
1.907000000000000000e+03 5.655515670776367188e+01 2.753110885620117188e+00 -1.493934750556945801e+00 4.082683324813842773e-01 -3.256999254226684570e-01 -1.644252091646194458e-01
1.908000000000000000e+03 4.417142868041992188e+01 4.061992168426513672e+00 -4.927661418914794922e-01 5.869610786437988281e+00 1.613053441047668457e+00 3.169861555099487305e+00
1.909000000000000000e+03 1.279265022277832031e+01 1.117889976501464844e+01 7.573738098144531250e-01 5.483081340789794922e+00 1.872136592864990234e+00 -1.296620249748229980e+00
1.910000000000000000e+03 1.284485816955566406e+01 1.229186153411865234e+01 8.215545415878295898e-01 5.778031349182128906e+00 1.979875802993774414e+00 -1.302859663963317871e+00
1.911000000000000000e+03 1.438999366760253906e+01 -1.248182964324951172e+01 -5.952275395393371582e-01 5.787358283996582031e-01 -4.947526380419731140e-03 1.895085215568542480e+00
1.912000000000000000e+03 4.785360717773437500e+01 -2.996004295349121094e+01 1.150297448039054871e-01 2.041366815567016602e+00 6.469189524650573730e-01 -1.111348032951354980e+00
1.913000000000000000e+03 5.031358337402343750e+01 -3.104968643188476562e+01 -1.533576399087905884e-01 1.337317943572998047e+00 3.551881015300750732e-01 -7.106642127037048340e-01
1.914000000000000000e+03 1.803145980834960938e+01 -1.179848289489746094e+01 -5.419655442237854004e-01 1.339908123016357422e+00 2.393827885389328003e-01 4.040946364402770996e-01
1.915000000000000000e+03 3.618848037719726562e+01 -1.389455223083496094e+01 3.365806639194488525e-01 7.993747234344482422e+00 2.499098300933837891e+00 -1.055181503295898438e+00
1.916000000000000000e+03 7.403734588623046875e+01 3.361310195922851562e+01 5.175480153411626816e-03 6.154248714447021484e+00 1.847827196121215820e+00 4.033477231860160828e-02
1.917000000000000000e+03 7.294864654541015625e+01 2.993032264709472656e+01 7.879164069890975952e-02 5.992027282714843750e+00 1.821245670318603516e+00 8.031391538679599762e-03
1.918000000000000000e+03 4.607474899291992188e+01 2.254742050170898438e+01 4.447530508041381836e-01 4.846180915832519531e+00 1.587280154228210449e+00 9.824578166007995605e-01
1.919000000000000000e+03 4.531756973266601562e+01 2.678031539916992188e+01 2.402138262987136841e-01 4.277653694152832031e+00 1.355360269546508789e+00 5.971412062644958496e-01
1.920000000000000000e+03 7.375255584716796875e+01 -2.921890640258789062e+01 -2.628512978553771973e-01 9.305664062500000000e+00 2.712843656539916992e+00 -1.225799083709716797e+00
1.921000000000000000e+03 4.706783676147460938e+01 2.243852043151855469e+01 6.016307473182678223e-01 4.613968372344970703e+00 1.564679741859436035e+00 1.135945677757263184e+00
1.922000000000000000e+03 4.506827545166015625e+01 2.245483779907226562e+01 3.353783786296844482e-01 5.039550781250000000e+00 1.612478733062744141e+00 8.713055253028869629e-01
1.923000000000000000e+03 4.806177520751953125e+01 2.181307411193847656e+01 7.337529063224792480e-01 4.477797031402587891e+00 1.563464999198913574e+00 1.234593510627746582e+00
1.924000000000000000e+03 4.326488876342773438e+01 -2.718485450744628906e+01 6.667256355285644531e-01 4.475799083709716797e+00 1.542757391929626465e+00 -1.582932472229003906e+00
1.925000000000000000e+03 7.417246246337890625e+01 2.294371986389160156e+01 1.374232172966003418e-01 6.183647155761718750e+00 1.896321177482604980e+00 -2.150391936302185059e-01
1.926000000000000000e+03 7.534045410156250000e+01 2.434831809997558594e+01 8.618109673261642456e-02 6.318830490112304688e+00 1.921503424644470215e+00 -1.376373618841171265e-01
1.927000000000000000e+03 7.547773742675781250e+01 1.355826473236083984e+01 5.229132622480392456e-02 6.886071681976318359e+00 2.081508874893188477e+00 -4.970541298389434814e-01
1.928000000000000000e+03 7.419189453125000000e+01 1.613634300231933594e+01 1.287011653184890747e-01 6.416613101959228516e+00 1.963594198226928711e+00 -4.996552169322967529e-01
1.929000000000000000e+03 7.619059753417968750e+01 -2.269695854187011719e+01 2.854347527027130127e-01 8.429183006286621094e+00 2.614385366439819336e+00 -7.438043951988220215e-01
1.930000000000000000e+03 7.414799499511718750e+01 -2.314247703552246094e+01 5.212374925613403320e-01 9.679623603820800781e+00 3.060258388519287109e+00 -7.724196910858154297e-01
1.931000000000000000e+03 7.605966949462890625e+01 -2.001848983764648438e+01 3.106653690338134766e-01 8.341542243957519531e+00 2.595662117004394531e+00 -4.460245072841644287e-01
1.932000000000000000e+03 7.414054870605468750e+01 9.422143936157226562e+00 -5.345192179083824158e-02 6.884052276611328125e+00 2.049180269241333008e+00 -6.442474126815795898e-01
1.933000000000000000e+03 7.436299896240234375e+01 1.163969159126281738e+00 -4.106830954551696777e-01 7.703740119934082031e+00 2.187917232513427734e+00 -1.200451850891113281e-01
1.934000000000000000e+03 7.438504028320312500e+01 2.548761844635009766e+00 -3.675158321857452393e-01 7.578578948974609375e+00 2.163318872451782227e+00 -2.649486958980560303e-01
1.935000000000000000e+03 7.555912780761718750e+01 3.946770906448364258e+00 -2.083333730697631836e-01 7.761715888977050781e+00 2.266014814376831055e+00 -2.825743257999420166e-01
1.936000000000000000e+03 7.338442993164062500e+01 2.666910171508789062e+01 1.215298920869827271e-01 6.044798851013183594e+00 1.849898576736450195e+00 -8.773944526910781860e-02
1.937000000000000000e+03 7.513674163818359375e+01 2.568010711669921875e+01 7.900527864694595337e-02 6.276942729949951172e+00 1.906784415245056152e+00 -9.659297764301300049e-02
1.938000000000000000e+03 7.417452239990234375e+01 -6.084971427917480469e+00 -2.893685102462768555e-01 8.372174263000488281e+00 2.424841642379760742e+00 6.112292408943176270e-01
1.939000000000000000e+03 7.469740295410156250e+01 -9.394579887390136719e+00 2.220273949205875397e-02 8.490129470825195312e+00 2.553699493408203125e+00 7.447492480278015137e-01
1.940000000000000000e+03 7.409832763671875000e+01 1.214975166320800781e+01 5.136394500732421875e-02 6.651414394378662109e+00 2.010833501815795898e+00 -6.330328583717346191e-01
1.941000000000000000e+03 7.241509246826171875e+01 -1.806867027282714844e+01 6.487532258033752441e-01 1.145313262939453125e+01 3.630565881729125977e+00 -5.615479946136474609e-01
1.942000000000000000e+03 7.574848175048828125e+01 -1.176035785675048828e+01 2.301258742809295654e-01 8.161223411560058594e+00 2.517404556274414062e+00 6.838668584823608398e-01
1.943000000000000000e+03 7.453409576416015625e+01 -1.333566284179687500e+01 5.491293072700500488e-01 8.951327323913574219e+00 2.850137233734130859e+00 4.389190673828125000e-01
1.944000000000000000e+03 7.579143524169921875e+01 -1.042352294921875000e+01 1.214471012353897095e-01 8.170431137084960938e+00 2.487563371658325195e+00 7.577204704284667969e-01
1.945000000000000000e+03 7.574478912353515625e+01 -9.090156555175781250e+00 1.883617416024208069e-02 8.204352378845214844e+00 2.466956377029418945e+00 7.885440587997436523e-01
1.946000000000000000e+03 7.493638610839843750e+01 -2.141385269165039062e+01 4.106605947017669678e-01 9.243962287902832031e+00 2.896386861801147461e+00 -6.352058649063110352e-01
1.947000000000000000e+03 7.600523376464843750e+01 -1.867984390258789062e+01 3.497115373611450195e-01 8.266057968139648438e+00 2.584730863571166992e+00 -3.201482892036437988e-01
1.948000000000000000e+03 7.247341918945312500e+01 -2.869138240814208984e+00 -5.724668502807617188e-01 7.832637786865234375e+00 2.178051233291625977e+00 1.293331533670425415e-01
1.949000000000000000e+03 7.431055450439453125e+01 -4.710490226745605469e+00 -3.498393595218658447e-01 8.177829742431640625e+00 2.348397254943847656e+00 5.044049620628356934e-01
1.950000000000000000e+03 7.428870391845703125e+01 5.309226036071777344e+00 -2.443797141313552856e-01 7.304236412048339844e+00 2.117957115173339844e+00 -4.863281250000000000e-01
1.951000000000000000e+03 7.402443695068359375e+01 -2.689646720886230469e+01 3.298402726650238037e-01 9.439689636230468750e+00 2.930858850479125977e+00 -1.259639739990234375e+00
1.952000000000000000e+03 7.504765319824218750e+01 -2.501453590393066406e+01 4.273442327976226807e-01 9.095106124877929688e+00 2.856734991073608398e+00 -1.092561721801757812e+00
1.953000000000000000e+03 7.546272277832031250e+01 1.896933555603027344e+01 9.472838789224624634e-02 6.528768539428710938e+00 1.987049102783203125e+00 -3.219183087348937988e-01
1.954000000000000000e+03 7.414752197265625000e+01 1.880107688903808594e+01 1.427456438541412354e-01 6.297201633453369141e+00 1.931984186172485352e+00 -3.851366639137268066e-01
1.955000000000000000e+03 7.601552581787109375e+01 -2.516958999633789062e+01 2.300986647605895996e-01 8.628546714782714844e+00 2.657593727111816406e+00 -1.067958116531372070e+00
1.956000000000000000e+03 7.360462951660156250e+01 -7.256771087646484375e+00 -1.990976333618164062e-01 8.548527717590332031e+00 2.504829168319702148e+00 5.866445302963256836e-01
1.957000000000000000e+03 7.410956573486328125e+01 -1.810251712799072266e+00 -4.542380571365356445e-01 7.906840801239013672e+00 2.235780715942382812e+00 1.997740864753723145e-01
1.958000000000000000e+03 7.420722961425781250e+01 -3.325874328613281250e+00 -4.291762411594390869e-01 8.052173614501953125e+00 2.286899328231811523e+00 3.676682114601135254e-01
1.959000000000000000e+03 7.419194030761718750e+01 8.040764808654785156e+00 -1.171591877937316895e-01 7.018453121185302734e+00 2.070388078689575195e+00 -6.137968897819519043e-01
1.960000000000000000e+03 7.174692535400390625e+01 3.571878051757812500e+01 -2.853678911924362183e-02 5.947304725646972656e+00 1.775630474090576172e+00 5.430956557393074036e-02
1.961000000000000000e+03 7.351154327392578125e+01 -3.162734603881835938e+01 -6.734338402748107910e-01 9.031183242797851562e+00 2.507324695587158203e+00 -9.545720219612121582e-01
1.962000000000000000e+03 7.417313385009765625e+01 1.481311798095703125e+01 1.086983084678649902e-01 6.493016719818115234e+00 1.980514526367187500e+00 -5.529672503471374512e-01
1.963000000000000000e+03 7.403291320800781250e+01 2.162148857116699219e+01 1.437873840332031250e-01 6.197483539581298828e+00 1.902381300926208496e+00 -2.686213850975036621e-01
1.964000000000000000e+03 7.295809173583984375e+01 -3.384611129760742188e+01 -8.336977362632751465e-01 8.547443389892578125e+00 2.314123630523681641e+00 -6.048622131347656250e-01
1.965000000000000000e+03 4.467118835449218750e+01 -2.659629821777343750e+01 7.293177843093872070e-01 3.255310773849487305e+00 1.195388555526733398e+00 -1.428626179695129395e+00
1.966000000000000000e+03 9.137516021728515625e+00 2.910937118530273438e+01 -2.795663475990295410e-01 3.505963802337646484e+00 9.679192304611206055e-01 -1.487665414810180664e+00
1.967000000000000000e+03 4.293749332427978516e+00 2.651102447509765625e+01 4.151693359017372131e-02 1.976320385932922363e+00 6.053512096405029297e-01 -1.210981130599975586e+00
1.968000000000000000e+03 6.022428512573242188e+00 2.865607833862304688e+01 -1.037163287401199341e-01 2.796642065048217773e+00 8.078777194023132324e-01 -1.436526298522949219e+00
1.969000000000000000e+03 5.250280380249023438e+00 -1.022949028015136719e+01 -3.437853455543518066e-01 1.852016329765319824e+00 4.524693191051483154e-01 9.266421198844909668e-01
1.970000000000000000e+03 1.816670989990234375e+01 -1.292631340026855469e+01 -1.115710377693176270e+00 9.626088738441467285e-01 -4.593042656779289246e-02 3.610641956329345703e-01
1.971000000000000000e+03 1.538306522369384766e+01 -1.186872959136962891e+01 -4.676440656185150146e-01 9.029471874237060547e-01 1.305909454822540283e-01 1.436124920845031738e+00
1.972000000000000000e+03 9.151226043701171875e+00 2.489015007019042969e+01 3.151323497295379639e-01 3.742834329605102539e+00 1.217389941215515137e+00 -1.498068571090698242e+00
1.973000000000000000e+03 1.191245841979980469e+01 2.593486785888671875e+01 2.327625006437301636e-01 4.800251960754394531e+00 1.509904265403747559e+00 -1.138064742088317871e+00
1.974000000000000000e+03 1.184092617034912109e+01 1.606800651550292969e+01 1.009609580039978027e+00 5.700756072998046875e+00 2.013109683990478516e+00 -1.152827382087707520e+00
1.975000000000000000e+03 1.130446624755859375e+01 1.837482643127441406e+01 9.337455630302429199e-01 5.433427810668945312e+00 1.910152077674865723e+00 -1.182101249694824219e+00
1.976000000000000000e+03 5.665328979492187500e+00 2.736158752441406250e+01 3.129351825919002295e-04 2.540497779846191406e+00 7.622432112693786621e-01 -1.416417717933654785e+00
1.977000000000000000e+03 5.559355258941650391e+00 1.725590896606445312e+01 4.237422347068786621e-01 1.407200217247009277e+00 5.492827296257019043e-01 -6.777521967887878418e-01
1.978000000000000000e+03 5.528901576995849609e+00 1.417444896697998047e+01 4.149767160415649414e-01 1.081379652023315430e+00 4.489068984985351562e-01 -2.956880927085876465e-01
1.979000000000000000e+03 4.422913074493408203e+00 -1.304127502441406250e+01 -4.718087315559387207e-01 2.597197294235229492e+00 6.376165747642517090e-01 3.008533120155334473e-01
1.980000000000000000e+03 6.770565509796142578e+00 -1.399874782562255859e+01 -7.672410607337951660e-01 4.167852401733398438e+00 1.020183324813842773e+00 1.422921419143676758e+00
1.981000000000000000e+03 3.791166305541992188e+01 -1.094317913055419922e+01 1.393295288085937500e+00 9.548834800720214844e+00 3.282638788223266602e+00 -3.461813032627105713e-01
1.982000000000000000e+03 5.314533233642578125e+00 2.252171134948730469e+01 2.765049040317535400e-01 1.847300291061401367e+00 6.371415257453918457e-01 -1.192025780677795410e+00
1.983000000000000000e+03 5.350669384002685547e+00 1.865773010253906250e+01 4.022063314914703369e-01 1.435636401176452637e+00 5.513528585433959961e-01 -8.242329955101013184e-01
1.984000000000000000e+03 5.440629482269287109e+00 2.119690895080566406e+01 3.220537900924682617e-01 1.736550450325012207e+00 6.175813078880310059e-01 -1.088016867637634277e+00
1.985000000000000000e+03 8.069147109985351562e+00 3.335072326660156250e+01 -6.130319833755493164e-01 3.278196811676025391e+00 7.995494604110717773e-01 -1.178734421730041504e+00
1.986000000000000000e+03 4.548860549926757812e+01 1.042211532592773438e+01 1.957765221595764160e+00 5.117343425750732422e+00 2.122532606124877930e+00 2.701623201370239258e+00
1.987000000000000000e+03 1.042473125457763672e+01 1.327062034606933594e+01 8.427052497863769531e-01 4.098326206207275391e+00 1.482309460639953613e+00 -8.219971656799316406e-01
1.988000000000000000e+03 3.561709165573120117e+00 8.957673072814941406e+00 1.764383167028427124e-01 -3.177773952484130859e-01 -4.240172728896141052e-02 3.302080333232879639e-01
1.989000000000000000e+03 4.772503376007080078e+00 9.780959129333496094e+00 2.970223128795623779e-01 2.836500406265258789e-01 1.742016971111297607e-01 2.045347094535827637e-01
1.990000000000000000e+03 5.224760055541992188e+00 9.012438774108886719e+00 3.536923527717590332e-01 5.078735947608947754e-01 2.584697902202606201e-01 2.530593872070312500e-01
1.991000000000000000e+03 4.456438541412353516e+00 4.732940196990966797e+00 -3.913589753210544586e-03 -8.880851417779922485e-02 -2.781663089990615845e-02 5.950152873992919922e-01
1.992000000000000000e+03 5.745374202728271484e+00 -1.386989593505859375e+01 -6.275928020477294922e-01 3.649788141250610352e+00 9.066586494445800781e-01 8.798719048500061035e-01
1.993000000000000000e+03 6.876770496368408203e+00 -1.271385097503662109e+01 -7.503820657730102539e-01 3.294742822647094727e+00 7.633082866668701172e-01 1.643312811851501465e+00
1.994000000000000000e+03 4.055231094360351562e+00 -7.590873241424560547e+00 6.927298754453659058e-02 8.199366331100463867e-01 2.667628824710845947e-01 5.770282745361328125e-01
1.995000000000000000e+03 3.203831100463867188e+01 -1.360541534423828125e+01 8.701396584510803223e-01 2.200318336486816406e+00 9.211374521255493164e-01 -1.780599594116210938e+00
1.996000000000000000e+03 5.136178493499755859e+00 -7.782305717468261719e+00 1.009579747915267944e-01 1.030075788497924805e+00 3.393101394176483154e-01 8.326303958892822266e-01
1.997000000000000000e+03 5.528553771972656250e+01 3.102315187454223633e+00 -1.456564784049987793e+00 3.922176361083984375e-01 -3.193041384220123291e-01 -7.636693306267261505e-03
1.998000000000000000e+03 5.341690063476562500e+01 4.979677200317382812e+00 -3.605424463748931885e-01 5.665829181671142578e-01 6.181213632225990295e-02 1.708704233169555664e-01
1.999000000000000000e+03 6.335238933563232422e+00 3.777798080444335938e+01 -5.301994085311889648e-01 3.339338064193725586e+00 8.427416086196899414e-01 -6.213919520378112793e-01
2.000000000000000000e+03 4.433889389038085938e+00 3.558151626586914062e+01 -3.177561759948730469e-01 3.332968950271606445e+00 9.045638442039489746e-01 -7.490762472152709961e-01
2.001000000000000000e+03 5.097652435302734375e+00 -8.990107536315917969e+00 -1.043221205472946167e-01 1.376600503921508789e+00 3.816834986209869385e-01 8.905336260795593262e-01
2.002000000000000000e+03 5.992386341094970703e+00 -8.056300163269042969e+00 1.339666545391082764e-01 1.209869384765625000e+00 4.031508266925811768e-01 1.136306881904602051e+00
2.003000000000000000e+03 4.894564437866210938e+01 2.082988357543945312e+01 9.678586125373840332e-01 4.289604663848876953e+00 1.577239036560058594e+00 1.385265946388244629e+00
2.004000000000000000e+03 3.912366104125976562e+01 -2.314437484741210938e+01 1.433663129806518555e+00 9.206714630126953125e+00 3.192113161087036133e+00 2.616295963525772095e-02
2.005000000000000000e+03 4.224268341064453125e+01 -2.507906913757324219e+01 9.133591055870056152e-01 5.312747478485107422e+00 1.867831945419311523e+00 -1.328711986541748047e+00
2.006000000000000000e+03 5.457834625244140625e+01 4.641076087951660156e+00 -5.965023040771484375e-01 5.838550925254821777e-01 -3.794167190790176392e-03 -5.886777117848396301e-02
2.007000000000000000e+03 6.305181026458740234e+00 -1.009241580963134766e+01 -2.953803241252899170e-01 1.972417593002319336e+00 5.031111836433410645e-01 1.363594770431518555e+00
2.008000000000000000e+03 1.369290924072265625e+01 8.739773750305175781e+00 4.074874818325042725e-01 5.493142604827880859e+00 1.770189046859741211e+00 -1.530586004257202148e+00
2.009000000000000000e+03 1.349158573150634766e+01 9.935038566589355469e+00 6.292728185653686523e-01 5.643564701080322266e+00 1.881851315498352051e+00 -1.484567403793334961e+00
2.010000000000000000e+03 4.785519027709960938e+01 1.998998832702636719e+01 9.448768496513366699e-01 4.579499244689941406e+00 1.657312750816345215e+00 1.458850264549255371e+00
2.011000000000000000e+03 1.000145912170410156e+01 -3.565154647827148438e+01 -3.475605547428131104e-01 2.709217071533203125e-01 -2.299165911972522736e-02 8.370494097471237183e-02
2.012000000000000000e+03 4.484151458740234375e+01 8.059334754943847656e+00 1.727646470069885254e+00 5.372591972351074219e+00 2.130071640014648438e+00 2.869102954864501953e+00
2.013000000000000000e+03 6.330519485473632812e+01 1.829470634460449219e+00 -1.153070092201232910e+00 3.102054834365844727e+00 5.846953988075256348e-01 -1.408349752426147461e+00
2.014000000000000000e+03 3.623500061035156250e+01 -1.270379066467285156e+01 7.973310351371765137e-01 7.801300048828125000e+00 2.579589366912841797e+00 -9.457178711891174316e-01
2.015000000000000000e+03 3.469443511962890625e+01 -1.616926002502441406e+01 -1.135162591934204102e+00 6.676009178161621094e+00 1.662253975868225098e+00 -1.658592462539672852e+00
2.016000000000000000e+03 4.661974716186523438e+01 1.352820301055908203e+01 1.743906378746032715e+00 4.745698928833007812e+00 1.946881532669067383e+00 2.266314268112182617e+00
2.017000000000000000e+03 4.652603149414062500e+01 2.651749992370605469e+01 2.781962752342224121e-01 4.244249343872070312e+00 1.356733679771423340e+00 7.824611067771911621e-01
2.018000000000000000e+03 4.547087097167968750e+01 1.544186115264892578e+01 1.320970654487609863e+00 5.646625041961669922e+00 2.090278863906860352e+00 2.083157539367675781e+00
2.019000000000000000e+03 6.749873352050781250e+01 -2.035957574844360352e+00 -1.013989567756652832e+00 6.148479461669921875e+00 1.540346980094909668e+00 -8.477759361267089844e-01
2.020000000000000000e+03 7.231794738769531250e+01 -1.671775627136230469e+01 8.997541069984436035e-01 1.132220363616943359e+01 3.666587114334106445e+00 -4.878799915313720703e-01
2.021000000000000000e+03 3.992259979248046875e+01 -1.831850814819335938e+01 3.134869933128356934e-01 1.031714439392089844e+01 3.189189434051513672e+00 3.074699938297271729e-01
2.022000000000000000e+03 3.811337280273437500e+01 -1.722758865356445312e+01 -2.244905233383178711e-01 1.079459476470947266e+01 3.171031236648559570e+00 3.903788924217224121e-01
2.023000000000000000e+03 7.160800933837890625e+01 -1.112886333465576172e+01 4.377254843711853027e-01 1.016186332702636719e+01 3.179876565933227539e+00 5.570991709828376770e-02
2.024000000000000000e+03 6.633338451385498047e+00 2.562014961242675781e+01 1.284247785806655884e-01 2.720601320266723633e+00 8.547078371047973633e-01 -1.499581813812255859e+00
2.025000000000000000e+03 6.210591125488281250e+01 2.192791700363159180e+00 -1.076898455619812012e+00 2.351578950881958008e+00 3.824041485786437988e-01 -1.320337414741516113e+00
2.026000000000000000e+03 1.319730281829833984e+01 -1.282929897308349609e+01 -6.674065589904785156e-01 6.430379152297973633e-01 -7.310595363378524780e-03 2.328440904617309570e+00
2.027000000000000000e+03 9.959877967834472656e+00 -5.658236980438232422e+00 1.420694708824157715e+00 7.817119359970092773e-01 6.607220172882080078e-01 1.802631139755249023e+00
2.028000000000000000e+03 6.234165573120117188e+01 -3.786214065551757812e+01 1.472778022289276123e-01 1.203555345535278320e+00 4.052499532699584961e-01 3.455199599266052246e-01
2.029000000000000000e+03 6.739453887939453125e+01 -4.107743072509765625e+01 -7.860094308853149414e-03 4.277955532073974609e+00 1.281028628349304199e+00 1.674564331769943237e-01
2.030000000000000000e+03 5.966099166870117188e+01 3.110793352127075195e+00 -9.290992617607116699e-01 1.252699255943298340e+00 9.707998484373092651e-02 -9.083923101425170898e-01
2.031000000000000000e+03 4.344747924804687500e+01 5.812490940093994141e+00 6.494984030723571777e-01 6.658881187438964844e+00 2.192513942718505859e+00 3.066466808319091797e+00
2.032000000000000000e+03 4.595146560668945312e+01 8.937155723571777344e+00 1.798358321189880371e+00 4.490808486938476562e+00 1.886750102043151855e+00 2.634595155715942383e+00
2.033000000000000000e+03 4.761488723754882812e+01 1.470497417449951172e+01 1.690419316291809082e+00 4.399747371673583984e+00 1.827049970626831055e+00 2.042124271392822266e+00
2.034000000000000000e+03 7.336248779296875000e+01 -2.377881050109863281e+01 6.749387383460998535e-01 1.011329269409179688e+01 3.236469507217407227e+00 -7.958284020423889160e-01
2.035000000000000000e+03 7.381153869628906250e+01 -2.147721481323242188e+01 5.590667724609375000e-01 1.006380081176757812e+01 3.186860322952270508e+00 -6.084482073783874512e-01
2.036000000000000000e+03 2.112696075439453125e+01 -2.998977661132812500e+00 5.004090785980224609e+00 2.048682212829589844e+00 2.115831851959228516e+00 -2.456827402114868164e+00
2.037000000000000000e+03 5.085513687133789062e+01 4.811545848846435547e+00 -4.304363429546356201e-01 4.944744706153869629e-01 1.921144127845764160e-02 5.643335580825805664e-01
2.038000000000000000e+03 4.426892471313476562e+01 5.303852558135986328e+00 3.070626854896545410e-01 5.729125499725341797e+00 1.810856461524963379e+00 2.953576803207397461e+00
2.039000000000000000e+03 4.266566467285156250e+01 5.108326911926269531e+00 2.069163620471954346e-01 7.868327140808105469e+00 2.422573089599609375e+00 3.014604091644287109e+00
2.040000000000000000e+03 5.475224685668945312e+01 7.049726963043212891e+00 5.523782372474670410e-01 9.901582598686218262e-01 4.627609550952911377e-01 -5.478917621076107025e-03
2.041000000000000000e+03 7.185202026367187500e+01 -1.247961425781250000e+01 7.742046713829040527e-01 1.052028846740722656e+01 3.388347864151000977e+00 -3.662656061351299286e-03
2.042000000000000000e+03 7.286303710937500000e+01 -1.075843143463134766e+01 2.836267054080963135e-01 9.456089019775390625e+00 2.921914577484130859e+00 4.263596832752227783e-01
2.043000000000000000e+03 1.529107093811035156e+01 3.595676803588867188e+01 -1.366089105606079102e+00 2.364492177963256836e+00 2.995209395885467529e-01 -3.182343542575836182e-01
2.044000000000000000e+03 8.741508483886718750e+00 2.186278533935546875e+01 5.955225229263305664e-01 3.575914859771728516e+00 1.251431226730346680e+00 -1.353534102439880371e+00
2.045000000000000000e+03 1.269002914428710938e+01 1.350575065612792969e+01 9.175115227699279785e-01 5.978289127349853516e+00 2.068740129470825195e+00 -1.303116321563720703e+00
2.046000000000000000e+03 3.927361679077148438e+01 -2.448503112792968750e+01 1.625993728637695312e+00 8.296231269836425781e+00 2.976667642593383789e+00 -3.422349393367767334e-01
2.047000000000000000e+03 2.910145759582519531e+01 -8.037439346313476562e+00 3.184844732284545898e+00 7.081238627433776855e-01 1.167890548706054688e+00 -1.910592198371887207e+00
2.048000000000000000e+03 3.077160644531250000e+01 -7.181223869323730469e+00 3.439285993576049805e+00 1.060204505920410156e+00 1.349847197532653809e+00 -1.757687091827392578e+00
2.049000000000000000e+03 3.941854095458984375e+01 -5.081527233123779297e+00 1.705958008766174316e+00 1.058277988433837891e+01 3.686621427536010742e+00 1.637387514114379883e+00
2.050000000000000000e+03 3.456700897216796875e+01 -4.550917148590087891e+00 2.682681560516357422e+00 2.994526386260986328e+00 1.703162431716918945e+00 9.805706143379211426e-02
2.051000000000000000e+03 3.792895507812500000e+01 -6.500248908996582031e+00 2.228473663330078125e+00 8.421347618103027344e+00 3.194946527481079102e+00 6.928097009658813477e-01
2.052000000000000000e+03 1.142050266265869141e+01 1.989626312255859375e+01 8.326441645622253418e-01 5.569421768188476562e+00 1.920619726181030273e+00 -1.215327739715576172e+00
2.053000000000000000e+03 6.839232444763183594e+00 1.713229942321777344e+01 5.959306955337524414e-01 2.146452903747558594e+00 8.227151036262512207e-01 -7.748193144798278809e-01
2.054000000000000000e+03 3.877633285522460938e+01 -7.370465397834777832e-01 3.681857138872146606e-02 8.182642936706542969e+00 2.465838432312011719e+00 1.602497577667236328e+00
2.055000000000000000e+03 3.814132308959960938e+01 -3.299740982055664062e+01 -1.388638257980346680e+00 6.081789970397949219e+00 1.407945513725280762e+00 -4.893763065338134766e-01
2.056000000000000000e+03 3.913193893432617188e+01 -3.024232864379882812e+01 -3.752541244029998779e-01 6.528438091278076172e+00 1.845955133438110352e+00 -1.041428685188293457e+00
2.057000000000000000e+03 2.075133705139160156e+01 -1.465144443511962891e+01 -1.953282594680786133e+00 7.700319290161132812e-01 -3.549752235412597656e-01 6.266579777002334595e-02
2.058000000000000000e+03 3.084419631958007812e+01 -5.119579792022705078e+00 3.594962120056152344e+00 4.024290740489959717e-01 1.199217438697814941e+00 -1.537731647491455078e+00
2.059000000000000000e+03 7.096888732910156250e+01 -3.314861679077148438e+01 -1.082049489021301270e+00 7.950569152832031250e+00 2.060555934906005859e+00 -1.365504860877990723e-01
2.060000000000000000e+03 4.114931488037109375e+01 3.465750885009765625e+01 -1.306577444076538086e+00 2.170186996459960938e+00 2.590829133987426758e-01 1.639329195022583008e-01
2.061000000000000000e+03 3.453867340087890625e+01 -6.221537590026855469e+00 3.016651153564453125e+00 3.335813045501708984e+00 1.905739307403564453e+00 -3.139885962009429932e-01
2.062000000000000000e+03 2.661811828613281250e+01 -8.921266555786132812e+00 2.427245140075683594e+00 6.294867396354675293e-01 9.170196056365966797e-01 -1.702512621879577637e+00
2.063000000000000000e+03 2.560634231567382812e+01 -1.148465633392333984e+01 9.623938798904418945e-01 4.887230694293975830e-01 4.353350698947906494e-01 -1.109943389892578125e+00
2.064000000000000000e+03 3.979950714111328125e+01 -3.157344436645507812e+01 -6.945709586143493652e-01 6.053928852081298828e+00 1.607807397842407227e+00 -9.110841155052185059e-01
2.065000000000000000e+03 7.232044982910156250e+01 4.103433990478515625e+01 -2.645708806812763214e-02 6.040279388427734375e+00 1.804146647453308105e+00 1.586367189884185791e-02
2.066000000000000000e+03 8.379908561706542969e+00 1.808447074890136719e+01 7.457675337791442871e-01 3.267769336700439453e+00 1.204061031341552734e+00 -1.017774343490600586e+00
2.067000000000000000e+03 1.148454570770263672e+01 2.138770294189453125e+01 7.120438814163208008e-01 5.486981868743896484e+00 1.859707713127136230e+00 -1.186317682266235352e+00
2.068000000000000000e+03 3.981580352783203125e+01 -2.599566650390625000e+01 1.196959376335144043e+00 7.467133522033691406e+00 2.599227905273437500e+00 -9.889355301856994629e-01
2.069000000000000000e+03 4.686117172241210938e+01 2.823841857910156250e+01 1.019697189331054688e-01 4.060142040252685547e+00 1.248633503913879395e+00 8.007584810256958008e-01
2.070000000000000000e+03 5.439749240875244141e+00 -3.485645294189453125e+01 -4.168197512626647949e-01 3.337378263473510742e+00 8.761675357818603516e-01 -1.484286189079284668e-01
2.071000000000000000e+03 7.172408294677734375e+01 -6.837667942047119141e+00 -2.955606877803802490e-01 8.547039031982421875e+00 2.475443601608276367e+00 1.455450952053070068e-01
2.072000000000000000e+03 6.963177490234375000e+01 -5.750432491302490234e+00 -3.323344886302947998e-01 7.969752788543701172e+00 2.291225433349609375e+00 -4.764381349086761475e-01
2.073000000000000000e+03 9.950592994689941406e+00 2.827972412109375000e+01 -1.882754713296890259e-01 3.773334026336669922e+00 1.075517535209655762e+00 -1.481056094169616699e+00
2.074000000000000000e+03 1.354038906097412109e+01 3.529536437988281250e+01 -1.225393891334533691e+00 2.869062900543212891e+00 4.931007325649261475e-01 -5.551873445510864258e-01
2.075000000000000000e+03 8.773994445800781250e+00 3.167470741271972656e+01 -5.283157229423522949e-01 3.367568731307983398e+00 8.517758846282958984e-01 -1.327330350875854492e+00
2.076000000000000000e+03 1.172274208068847656e+01 2.441203880310058594e+01 4.316581189632415771e-01 5.074907302856445312e+00 1.651969671249389648e+00 -1.129896879196166992e+00
2.077000000000000000e+03 1.028371047973632812e+01 2.312807273864746094e+01 5.369891524314880371e-01 4.453657627105712891e+00 1.497194051742553711e+00 -1.347067832946777344e+00
2.078000000000000000e+03 6.562242126464843750e+01 1.579711794853210449e+00 -1.116324782371520996e+00 4.517861366271972656e+00 1.020460963249206543e+00 -1.338642716407775879e+00
2.079000000000000000e+03 1.557267761230468750e+01 3.833672332763671875e+01 -1.462265253067016602e+00 2.073346138000488281e+00 1.833242326974868774e-01 -1.817649155855178833e-01
2.080000000000000000e+03 7.162374114990234375e+01 -3.457582855224609375e+01 -8.516305685043334961e-01 7.653926372528076172e+00 2.040688753128051758e+00 -1.389161199331283569e-01
2.081000000000000000e+03 4.198489761352539062e+01 -2.678289222717285156e+01 7.633360028266906738e-01 5.407887458801269531e+00 1.851366996765136719e+00 -1.439314961433410645e+00
2.082000000000000000e+03 1.390310668945312500e+01 3.254047012329101562e+01 -9.943324327468872070e-01 3.196639776229858398e+00 6.606922149658203125e-01 -6.147024035453796387e-01
2.083000000000000000e+03 7.615150928497314453e+00 2.901090621948242188e+01 -2.065820395946502686e-01 3.193975448608398438e+00 8.962180018424987793e-01 -1.517257571220397949e+00
2.084000000000000000e+03 2.742020606994628906e+01 -4.130606460571289062e+01 -7.276813983917236328e-01 1.471717238426208496e+00 2.232107371091842651e-01 1.954322904348373413e-01
2.085000000000000000e+03 2.837902259826660156e+01 -3.712435150146484375e+01 -8.020203709602355957e-01 1.654393196105957031e+00 2.557118535041809082e-01 7.196711897850036621e-01
2.086000000000000000e+03 3.233964920043945312e+01 -4.139944458007812500e+01 -1.512018442153930664e+00 3.558598995208740234e+00 6.139742136001586914e-01 1.395104080438613892e-01
2.087000000000000000e+03 1.574078750610351562e+01 -3.333748579025268555e+00 2.659105062484741211e+00 7.826653957366943359e+00 3.145727634429931641e+00 2.551890611648559570e+00
2.088000000000000000e+03 1.685208702087402344e+01 3.230814695358276367e+00 -9.419639706611633301e-01 8.428855895996093750e+00 2.246067762374877930e+00 -1.800522208213806152e+00
2.089000000000000000e+03 1.432822036743164062e+01 -2.654338598251342773e+00 4.594811916351318359e+00 2.368151664733886719e+00 2.088889122009277344e+00 3.041122198104858398e+00
2.090000000000000000e+03 1.430838489532470703e+01 -2.938090085983276367e+00 4.263261318206787109e+00 2.803008794784545898e+00 2.119881153106689453e+00 3.138119220733642578e+00
2.091000000000000000e+03 1.618499183654785156e+01 -4.322215557098388672e+00 2.028091669082641602e+00 6.714029788970947266e+00 2.622636318206787109e+00 1.323411345481872559e+00
2.092000000000000000e+03 1.483749771118164062e+01 3.411828041076660156e+00 -2.661460936069488525e-01 6.176796436309814453e+00 1.773195147514343262e+00 -3.003207921981811523e+00
2.093000000000000000e+03 1.180041122436523438e+01 -3.882003068923950195e+00 2.513071775436401367e+00 6.332933902740478516e-01 9.439095854759216309e-01 1.730299115180969238e+00
2.094000000000000000e+03 1.881741523742675781e+01 -3.737108707427978516e+00 3.941923141479492188e+00 5.407444000244140625e+00 2.804810047149658203e+00 -2.415209293365478516e+00
2.095000000000000000e+03 1.080580520629882812e+01 -4.358145236968994141e+00 1.978141307830810547e+00 5.399916768074035645e-01 7.554398775100708008e-01 1.604656577110290527e+00
2.096000000000000000e+03 9.164522171020507812e+00 -5.243854045867919922e+00 1.265725016593933105e+00 5.899689793586730957e-01 5.567082166671752930e-01 1.462281703948974609e+00
2.097000000000000000e+03 1.034783077239990234e+01 -4.976477622985839844e+00 1.698569297790527344e+00 6.432951092720031738e-01 7.025592923164367676e-01 1.699772357940673828e+00
2.098000000000000000e+03 1.556619071960449219e+01 3.447684288024902344e+00 -6.121454834938049316e-01 7.301856040954589844e+00 2.006913185119628906e+00 -2.786361217498779297e+00
2.099000000000000000e+03 8.816350936889648438e+00 -6.098889350891113281e+00 1.008971095085144043e+00 8.052245974540710449e-01 5.442587137222290039e-01 1.605201005935668945e+00
2.100000000000000000e+03 1.177229213714599609e+01 -4.367569923400878906e+00 2.354785442352294922e+00 8.337085247039794922e-01 9.565482139587402344e-01 1.938726782798767090e+00
2.101000000000000000e+03 1.720692634582519531e+01 2.335788726806640625e+00 -3.375542461872100830e-01 9.213466644287109375e+00 2.662773609161376953e+00 -1.448231101036071777e+00
2.102000000000000000e+03 5.402435779571533203e+00 5.975939273834228516e+00 2.113865911960601807e-01 2.429566830396652222e-01 1.363029778003692627e-01 4.772930145263671875e-01
2.103000000000000000e+03 1.269164562225341797e+01 5.591174602508544922e+00 2.344847768545150757e-01 3.939562082290649414e+00 1.252214074134826660e+00 -1.724176526069641113e+00
2.104000000000000000e+03 1.625217056274414062e+01 5.662069797515869141e+00 -5.996106266975402832e-01 7.100981712341308594e+00 1.950411319732666016e+00 -1.950787901878356934e+00
2.105000000000000000e+03 1.594180107116699219e+01 2.168106555938720703e+00 -3.806039988994598389e-01 9.014039039611816406e+00 2.590030431747436523e+00 -3.152473926544189453e+00
2.106000000000000000e+03 1.153069305419921875e+01 4.321384906768798828e+00 3.968074023723602295e-01 2.296408176422119141e+00 8.079646229743957520e-01 -1.333466768264770508e+00
2.107000000000000000e+03 1.536316871643066406e+01 6.275351524353027344e+00 -3.084910213947296143e-01 6.502996921539306641e+00 1.858351826667785645e+00 -1.975949525833129883e+00
2.108000000000000000e+03 1.477298641204833984e+01 6.186181068420410156e+00 -1.959977895021438599e-01 5.946590423583984375e+00 1.725177764892578125e+00 -1.988754272460937500e+00
2.109000000000000000e+03 1.441913986206054688e+01 7.059856414794921875e+00 3.919747471809387207e-02 5.797569274902343750e+00 1.751029968261718750e+00 -1.758819699287414551e+00
2.110000000000000000e+03 2.039154052734375000e+01 -3.203648328781127930e+00 4.970970153808593750e+00 3.054225683212280273e+00 2.407558679580688477e+00 -2.664004564285278320e+00
2.111000000000000000e+03 1.608690643310546875e+01 2.715986967086791992e+00 -6.609187722206115723e-01 8.580449104309082031e+00 2.375859260559082031e+00 -2.741163015365600586e+00
2.112000000000000000e+03 1.657419395446777344e+01 3.807540178298950195e+00 -9.717624187469482422e-01 7.960937500000000000e+00 2.096752405166625977e+00 -2.008236885070800781e+00
2.113000000000000000e+03 7.856624126434326172e+00 4.767451286315917969e+00 2.128396779298782349e-01 6.899361610412597656e-01 2.708327472209930420e-01 1.459690481424331665e-01
2.114000000000000000e+03 7.071832656860351562e+00 5.630873680114746094e+00 2.707969248294830322e-01 6.478508114814758301e-01 2.755943238735198975e-01 2.693632841110229492e-01
2.115000000000000000e+03 7.182003498077392578e+00 6.393158435821533203e+00 3.645497858524322510e-01 8.507843613624572754e-01 3.646002411842346191e-01 1.852472275495529175e-01
2.116000000000000000e+03 1.013944530487060547e+01 4.492353439331054688e+00 3.678559362888336182e-01 1.465725541114807129e+00 5.500744581222534180e-01 -6.537173986434936523e-01
2.117000000000000000e+03 7.830348968505859375e+00 5.518610000610351562e+00 3.241412341594696045e-01 8.983582854270935059e-01 3.667498528957366943e-01 8.578737825155258179e-02
2.118000000000000000e+03 5.618330001831054688e+00 -6.848711013793945312e+00 2.771339118480682373e-01 8.087885379791259766e-01 3.257767260074615479e-01 8.635210394859313965e-01
2.119000000000000000e+03 1.671186065673828125e+01 -4.435741424560546875e+00 2.010780334472656250e+00 6.627550601959228516e+00 2.591499328613281250e+00 4.567153751850128174e-01
2.120000000000000000e+03 1.759915924072265625e+01 -4.321623325347900391e+00 2.542058229446411133e+00 6.559166908264160156e+00 2.730367422103881836e+00 -9.697338342666625977e-01
2.121000000000000000e+03 8.278032302856445312e+00 -4.759798526763916016e+00 1.052469372749328613e+00 4.327834844589233398e-01 4.455758631229400635e-01 1.098600983619689941e+00
2.122000000000000000e+03 9.777456283569335938e+00 -5.088802814483642578e+00 1.497977972030639648e+00 5.720242261886596680e-01 6.210006475448608398e-01 1.572889924049377441e+00
2.123000000000000000e+03 6.392168521881103516e+00 -6.315488815307617188e+00 4.790352284908294678e-01 7.355322241783142090e-01 3.643702268600463867e-01 9.908332228660583496e-01
2.124000000000000000e+03 7.132435321807861328e+00 -5.958356380462646484e+00 6.525844335556030273e-01 6.625254154205322266e-01 3.945329487323760986e-01 1.100963830947875977e+00
2.125000000000000000e+03 8.589041709899902344e+00 5.442223072052001953e+00 3.790595829486846924e-01 1.132034301757812500e+00 4.533281624317169189e-01 -1.309735625982284546e-01
2.126000000000000000e+03 7.842308998107910156e+00 -5.676333427429199219e+00 8.450796604156494141e-01 6.444472670555114746e-01 4.468580782413482666e-01 1.234432339668273926e+00
2.127000000000000000e+03 1.664911270141601562e+01 2.575028657913208008e+00 -7.835741639137268066e-01 9.147738456726074219e+00 2.509249210357666016e+00 -2.054291725158691406e+00
2.128000000000000000e+03 2.037510299682617188e+01 -1.258214569091796875e+01 -8.008167743682861328e-01 1.090847969055175781e+00 8.700934797525405884e-02 -1.585830003023147583e-01
2.129000000000000000e+03 2.277576828002929688e+01 -1.389601135253906250e+01 -1.092374801635742188e+00 7.679910063743591309e-01 -9.731513261795043945e-02 -3.253356218338012695e-01
2.130000000000000000e+03 9.385970115661621094e+00 -1.342602729797363281e+01 -7.364343404769897461e-01 2.744743824005126953e+00 6.024928689002990723e-01 2.904613494873046875e+00
2.131000000000000000e+03 1.171120071411132812e+01 1.127485561370849609e+01 7.586449384689331055e-01 4.684254646301269531e+00 1.632869958877563477e+00 -1.021861791610717773e+00
2.132000000000000000e+03 1.957472419738769531e+01 -3.358350038528442383e+00 4.704750061035156250e+00 4.181638717651367188e+00 2.665916681289672852e+00 -2.686572074890136719e+00
2.133000000000000000e+03 2.056435775756835938e+01 -2.392055511474609375e+00 5.428233146667480469e+00 2.663869142532348633e+00 2.427630662918090820e+00 -2.547408103942871094e+00
2.134000000000000000e+03 4.719166183471679688e+01 2.357818603515625000e+01 5.195079445838928223e-01 4.507636070251464844e+00 1.508143186569213867e+00 1.024192094802856445e+00
2.135000000000000000e+03 4.670506668090820312e+01 1.970809555053710938e+01 8.260785937309265137e-01 4.914089679718017578e+00 1.722050547599792480e+00 1.441325068473815918e+00
2.136000000000000000e+03 1.008730792999267578e+01 -1.148734664916992188e+01 -3.491726219654083252e-01 1.952597498893737793e+00 4.810274839401245117e-01 2.794780015945434570e+00
2.137000000000000000e+03 9.715585708618164062e+00 -1.236894798278808594e+01 -6.638920307159423828e-01 2.350876092910766602e+00 5.060952305793762207e-01 2.783816576004028320e+00
2.138000000000000000e+03 1.116888618469238281e+01 -1.090325355529785156e+01 -8.682046085596084595e-02 1.606191039085388184e+00 4.558111727237701416e-01 2.780344486236572266e+00
2.139000000000000000e+03 8.148592948913574219e+00 -1.297487354278564453e+01 -8.694952726364135742e-01 3.245930910110473633e+00 7.129306793212890625e-01 2.258621215820312500e+00
2.140000000000000000e+03 2.002281379699707031e+01 -1.352514076232910156e+01 -1.287511348724365234e+00 9.503362178802490234e-01 -1.011525541543960571e-01 -3.900719821103848517e-05
2.141000000000000000e+03 1.837962341308593750e+01 -1.072729587554931641e+01 -2.843093872070312500e-02 1.709064602851867676e+00 5.041900873184204102e-01 1.802690923213958740e-01
2.142000000000000000e+03 3.708673477172851562e+01 -1.254005241394042969e+01 9.541964530944824219e-01 8.750255584716796875e+00 2.911335706710815430e+00 -7.914691567420959473e-01
2.143000000000000000e+03 7.449242401123046875e+01 -1.186743259429931641e+01 3.443771600723266602e-01 8.838015556335449219e+00 2.754717826843261719e+00 5.988634228706359863e-01
2.144000000000000000e+03 1.419313812255859375e+01 8.206014633178710938e+00 3.108678162097930908e-01 5.697283267974853516e+00 1.802445292472839355e+00 -1.633775234222412109e+00
2.145000000000000000e+03 6.023257827758789062e+01 4.316822052001953125e+00 -5.274983048439025879e-01 1.729220390319824219e+00 3.605166077613830566e-01 -1.060355067253112793e+00
2.146000000000000000e+03 1.597895145416259766e+01 -1.258333015441894531e+01 -8.385668992996215820e-01 7.340844273567199707e-01 -3.134474903345108032e-02 1.130835413932800293e+00
2.147000000000000000e+03 1.060645580291748047e+01 2.617440605163574219e+01 1.572793424129486084e-01 4.212914466857910156e+00 1.311058163642883301e+00 -1.394177079200744629e+00
2.148000000000000000e+03 2.239710044860839844e+01 -3.488144159317016602e+00 4.839336395263671875e+00 1.223893046379089355e+00 1.818968892097473145e+00 -2.096117734909057617e+00
2.149000000000000000e+03 5.393041610717773438e+01 6.099708557128906250e+00 1.802435815334320068e-01 7.687396407127380371e-01 2.846949696540832520e-01 9.972392767667770386e-02
2.150000000000000000e+03 5.582129669189453125e+01 4.348033428192138672e+00 -7.306320667266845703e-01 6.179852485656738281e-01 -3.379403799772262573e-02 -2.266813367605209351e-01
2.151000000000000000e+03 2.715979576110839844e+01 -7.787620067596435547e+00 3.004176616668701172e+00 6.630892157554626465e-01 1.100179791450500488e+00 -1.904302954673767090e+00
2.152000000000000000e+03 1.008454036712646484e+01 1.527866744995117188e+01 8.906446695327758789e-01 4.153859138488769531e+00 1.513351082801818848e+00 -9.278641939163208008e-01
2.153000000000000000e+03 4.729394149780273438e+01 2.471557044982910156e+01 4.315459728240966797e-01 4.385325908660888672e+00 1.445061564445495605e+00 9.428309798240661621e-01
2.154000000000000000e+03 4.610015869140625000e+01 2.369818115234375000e+01 4.023826718330383301e-01 4.697065353393554688e+00 1.529834508895874023e+00 8.956907987594604492e-01
2.155000000000000000e+03 4.208000946044921875e+01 3.499138832092285156e+00 -7.910658121109008789e-01 9.079528808593750000e+00 2.486538887023925781e+00 2.599737405776977539e+00
2.156000000000000000e+03 4.041791152954101562e+01 -2.308383941650390625e+01 1.267039656639099121e+00 7.708100318908691406e+00 2.692542076110839844e+00 -3.594430088996887207e-01
2.157000000000000000e+03 7.226037597656250000e+01 -3.238969039916992188e+01 -7.740594744682312012e-01 8.405533790588378906e+00 2.289442300796508789e+00 -5.922287702560424805e-01
2.158000000000000000e+03 7.570858955383300781e+00 3.096149444580078125e+01 -3.674823343753814697e-01 3.200333595275878906e+00 8.498553633689880371e-01 -1.402627587318420410e+00
2.159000000000000000e+03 3.785893249511718750e+01 -1.838875007629394531e+01 -1.944082677364349365e-01 1.085611438751220703e+01 3.198511838912963867e+00 9.098805189132690430e-01
2.160000000000000000e+03 3.777517700195312500e+01 -1.952249336242675781e+01 5.785860419273376465e-01 1.071882438659667969e+01 3.389223098754882812e+00 9.102470278739929199e-01
2.161000000000000000e+03 3.400156021118164062e+01 -1.458650779724121094e+01 3.217048477381467819e-03 4.983602523803710938e+00 1.496045827865600586e+00 -1.778287649154663086e+00
2.162000000000000000e+03 3.500123214721679688e+01 -1.493729877471923828e+01 -3.445173501968383789e-01 6.748560428619384766e+00 1.921212911605834961e+00 -1.545123457908630371e+00
2.163000000000000000e+03 4.859043121337890625e+01 5.825940132141113281e+00 6.775843501091003418e-01 1.164376258850097656e+00 5.525881648063659668e-01 1.506760716438293457e+00
2.164000000000000000e+03 7.194775390625000000e+01 2.599116325378417969e+01 1.847468912601470947e-01 5.838985443115234375e+00 1.807119727134704590e+00 -1.039026305079460144e-01
2.165000000000000000e+03 7.148609161376953125e+01 1.843462562561035156e+01 2.825561165809631348e-01 5.758054733276367188e+00 1.812183260917663574e+00 -4.662769734859466553e-01
2.166000000000000000e+03 7.284321594238281250e+01 1.601746749877929688e+01 1.948866993188858032e-01 6.127630710601806641e+00 1.896755218505859375e+00 -5.549374222755432129e-01
2.167000000000000000e+03 6.953668212890625000e+01 -4.131575524806976318e-01 -9.418362379074096680e-01 6.760121345520019531e+00 1.745485424995422363e+00 -5.831311941146850586e-01
2.168000000000000000e+03 7.143851470947265625e+01 9.189550399780273438e+00 -6.691753119230270386e-02 6.113104820251464844e+00 1.813856244087219238e+00 -8.743823766708374023e-01
2.169000000000000000e+03 7.278713989257812500e+01 9.340136528015136719e+00 -7.153436541557312012e-02 6.502413272857666016e+00 1.929263710975646973e+00 -7.656021714210510254e-01
2.170000000000000000e+03 7.427060699462890625e+01 -8.243764877319335938e+00 -8.166500180959701538e-02 8.565184593200683594e+00 2.545055866241455078e+00 7.213485240936279297e-01
2.171000000000000000e+03 6.850402069091796875e+01 3.653187513351440430e+00 -7.458998560905456543e-01 5.656135559082031250e+00 1.473070621490478516e+00 -1.103110194206237793e+00
2.172000000000000000e+03 7.325112915039062500e+01 2.538951396942138672e+00 -4.672578573226928711e-01 7.302240371704101562e+00 2.050494670867919922e+00 -3.792909383773803711e-01
2.173000000000000000e+03 7.460700988769531250e+01 -1.477240467071533203e+01 6.129546761512756348e-01 9.045724868774414062e+00 2.897603750228881836e+00 1.781452447175979614e-01
2.174000000000000000e+03 1.143992519378662109e+01 3.411573028564453125e+01 -9.528419375419616699e-01 3.287461996078491211e+00 7.003859877586364746e-01 -8.926444053649902344e-01
2.175000000000000000e+03 7.236132621765136719e+00 3.537280273437500000e+01 -5.949192643165588379e-01 3.302693843841552734e+00 8.123323321342468262e-01 -9.419527649879455566e-01
2.176000000000000000e+03 7.466384887695312500e+01 -1.053089237213134766e+01 1.971486657857894897e-01 8.650548934936523438e+00 2.654309272766113281e+00 7.207729220390319824e-01
2.177000000000000000e+03 7.333856964111328125e+01 -9.108101844787597656e+00 1.739877834916114807e-02 8.976096153259277344e+00 2.698048353195190430e+00 5.602967143058776855e-01
2.178000000000000000e+03 7.230337524414062500e+01 -5.273332595825195312e+00 -4.416559934616088867e-01 8.217247962951660156e+00 2.332677602767944336e+00 2.551218867301940918e-01
2.179000000000000000e+03 7.420954132080078125e+01 -2.638048529624938965e-01 -4.533360302448272705e-01 7.803376674652099609e+00 2.205012083053588867e+00 3.275800496339797974e-02
2.180000000000000000e+03 7.249535369873046875e+01 -8.324856162071228027e-01 -6.157629489898681641e-01 7.584003448486328125e+00 2.090472221374511719e+00 -7.519013434648513794e-02
2.181000000000000000e+03 7.424298095703125000e+01 6.669839859008789062e+00 -1.719649881124496460e-01 7.163551330566406250e+00 2.097476005554199219e+00 -5.662388205528259277e-01
2.182000000000000000e+03 6.931946563720703125e+01 -2.249065399169921875e+00 -8.812212347984313965e-01 6.998821735382080078e+00 1.835280179977416992e+00 -4.945138394832611084e-01
2.183000000000000000e+03 4.044373703002929688e+01 -2.976707077026367188e+01 -7.851074635982513428e-02 6.211618900299072266e+00 1.839932322502136230e+00 -1.215294241905212402e+00
2.184000000000000000e+03 7.413256835937500000e+01 1.348310375213623047e+01 8.158751577138900757e-02 6.565360546112060547e+00 1.994084477424621582e+00 -5.934962630271911621e-01
2.185000000000000000e+03 7.409181976318359375e+01 2.018695640563964844e+01 1.477246880531311035e-01 6.240803718566894531e+00 1.916558504104614258e+00 -3.271983861923217773e-01
2.186000000000000000e+03 7.172098541259765625e+01 2.827830505371093750e+01 1.431477814912796021e-01 5.830739974975585938e+00 1.792166352272033691e+00 -2.403929084539413452e-02
2.187000000000000000e+03 7.756961345672607422e+00 -1.092348861694335938e+01 -4.716009199619293213e-01 2.442008733749389648e+00 5.911223292350769043e-01 2.032418012619018555e+00
2.188000000000000000e+03 7.666961193084716797e+00 2.382872009277343750e+01 3.558121919631958008e-01 3.094560861587524414e+00 1.035111904144287109e+00 -1.468044877052307129e+00
2.189000000000000000e+03 6.058990001678466797e+00 -8.987243652343750000e+00 -6.654822081327438354e-02 1.512707829475402832e+00 4.338479042053222656e-01 1.183249831199645996e+00
2.190000000000000000e+03 4.025933456420898438e+01 -2.103302001953125000e+01 5.915107727050781250e-01 8.770294189453125000e+00 2.808541297912597656e+00 -4.736954718828201294e-02
2.191000000000000000e+03 3.778599929809570312e+01 -9.468388557434082031e+00 1.816701769828796387e+00 9.228189468383789062e+00 3.313467264175415039e+00 -5.650677159428596497e-02
2.192000000000000000e+03 3.472344970703125000e+01 -1.228226375579833984e+01 1.267388939857482910e+00 5.544295310974121094e+00 2.043505191802978516e+00 -1.284374117851257324e+00
2.193000000000000000e+03 5.544391155242919922e+00 1.569407176971435547e+01 4.565618336200714111e-01 1.258549928665161133e+00 5.145335197448730469e-01 -4.831854403018951416e-01
2.194000000000000000e+03 1.027332687377929688e+01 1.615439414978027344e+01 9.443663358688354492e-01 4.429677009582519531e+00 1.612213015556335449e+00 -1.008427143096923828e+00
2.195000000000000000e+03 8.008131027221679688e+00 2.646980285644531250e+01 6.921717524528503418e-02 3.250495910644531250e+00 9.959139227867126465e-01 -1.569811463356018066e+00
2.196000000000000000e+03 6.817368030548095703e+00 1.413432121276855469e+01 5.686185359954833984e-01 1.847708225250244141e+00 7.248980402946472168e-01 -4.209772050380706787e-01
2.197000000000000000e+03 5.334620952606201172e+00 1.281358146667480469e+01 3.929506242275238037e-01 8.419327735900878906e-01 3.704650104045867920e-01 -1.388927102088928223e-01
2.198000000000000000e+03 6.189828872680664062e+00 1.935734558105468750e+01 4.552710652351379395e-01 1.953219532966613770e+00 7.225471735000610352e-01 -9.817550778388977051e-01
2.199000000000000000e+03 5.241546630859375000e+00 1.986425590515136719e+01 3.529011011123657227e-01 1.495732069015502930e+00 5.545899868011474609e-01 -9.211071133613586426e-01
2.200000000000000000e+03 9.138604164123535156e+00 7.773982524871826172e+00 5.419231057167053223e-01 2.117285251617431641e+00 7.977625131607055664e-01 -3.813834488391876221e-01
2.201000000000000000e+03 5.684454441070556641e+00 1.037034797668457031e+01 3.873250484466552734e-01 7.652362585067749023e-01 3.457683920860290527e-01 7.593340426683425903e-02
2.202000000000000000e+03 4.111663818359375000e+01 -2.553116607666015625e+01 1.075212001800537109e+00 6.297031402587890625e+00 2.211673021316528320e+00 -1.141397118568420410e+00
2.203000000000000000e+03 5.838293838500976562e+01 3.565749168395996094e+00 -8.653783798217773438e-01 9.328573942184448242e-01 2.024369873106479645e-02 -6.605662703514099121e-01
2.204000000000000000e+03 1.180392551422119141e+01 3.612182235717773438e+01 -1.148704648017883301e+00 3.035493135452270508e+00 5.660365223884582520e-01 -6.615718007087707520e-01
2.205000000000000000e+03 6.297737121582031250e+00 8.366092681884765625e+00 4.296575188636779785e-01 8.556658029556274414e-01 3.855969905853271484e-01 1.687659621238708496e-01
2.206000000000000000e+03 4.524955749511718750e+00 7.872228145599365234e+00 2.449368089437484741e-01 4.316665604710578918e-02 8.643104135990142822e-02 4.264968633651733398e-01
2.207000000000000000e+03 6.279505252838134766e+00 -7.414625167846679688e+00 2.715784907341003418e-01 1.067640781402587891e+00 4.017657637596130371e-01 1.138933300971984863e+00
2.208000000000000000e+03 7.256228923797607422e+00 -9.818486213684082031e+00 -1.956634372472763062e-01 1.929982781410217285e+00 5.202957987785339355e-01 1.674578309059143066e+00
2.209000000000000000e+03 9.910869598388671875e+00 8.620442390441894531e+00 6.019008159637451172e-01 2.818876028060913086e+00 1.026233077049255371e+00 -6.159382462501525879e-01
2.210000000000000000e+03 5.291395568847656250e+01 6.597988128662109375e+00 4.468866884708404541e-01 8.042252659797668457e-01 3.753336071968078613e-01 3.392063677310943604e-01
2.211000000000000000e+03 1.129154109954833984e+01 1.446144008636474609e+01 9.596445560455322266e-01 4.975630283355712891e+00 1.780582427978515625e+00 -1.010702371597290039e+00
2.212000000000000000e+03 6.448368835449218750e+01 1.613181114196777344e+00 -1.162004590034484863e+00 3.839422225952148438e+00 8.032252788543701172e-01 -1.411563396453857422e+00
2.213000000000000000e+03 5.174271774291992188e+01 7.100872039794921875e+00 7.997605204582214355e-01 1.037643074989318848e+00 5.512210726737976074e-01 6.622892022132873535e-01
2.214000000000000000e+03 3.871416473388671875e+01 -1.636792945861816406e+01 -1.277931481599807739e-01 1.083195781707763672e+01 3.211249351501464844e+00 6.305141746997833252e-02
2.215000000000000000e+03 2.581282424926757812e+01 -1.303777885437011719e+01 7.244138419628143311e-02 3.621263802051544189e-01 1.303703337907791138e-01 -6.911898255348205566e-01
2.216000000000000000e+03 2.391057205200195312e+01 -1.019882678985595703e+01 1.284897446632385254e+00 9.196262955665588379e-01 6.613571047782897949e-01 -1.199582219123840332e+00
2.217000000000000000e+03 4.832765579223632812e+01 1.886878013610839844e+01 1.166911244392395020e+00 4.394703388214111328e+00 1.668484449386596680e+00 1.594096779823303223e+00
2.218000000000000000e+03 1.015515518188476562e+01 2.162823295593261719e+01 6.953322887420654297e-01 4.517408847808837891e+00 1.563822269439697266e+00 -1.307001233100891113e+00
2.219000000000000000e+03 2.187766265869140625e+01 -1.116246795654296875e+01 3.999895155429840088e-01 1.187077403068542480e+00 4.761200845241546631e-01 -7.331758737564086914e-01
2.220000000000000000e+03 2.144464492797851562e+01 -1.281378269195556641e+01 -7.464777827262878418e-01 1.040431141853332520e+00 8.818600326776504517e-02 -3.635445237159729004e-01
2.221000000000000000e+03 3.809368896484375000e+01 -5.081323623657226562e+00 2.020892381668090820e+00 8.301888465881347656e+00 3.096834182739257812e+00 1.201932668685913086e+00
2.222000000000000000e+03 3.682106018066406250e+01 -1.116409492492675781e+01 1.385925292968750000e+00 8.073757171630859375e+00 2.837904930114746094e+00 -7.026731371879577637e-01
2.223000000000000000e+03 3.594136428833007812e+01 -1.170878887176513672e+01 1.469807386398315430e+00 7.029581069946289062e+00 2.549816608428955078e+00 -9.102469086647033691e-01
2.224000000000000000e+03 3.683276367187500000e+01 -3.708581209182739258e+00 1.835317015647888184e+00 5.848171710968017578e+00 2.305046558380126953e+00 1.023106098175048828e+00
2.225000000000000000e+03 3.830817794799804688e+01 -3.692215204238891602e+00 1.625723242759704590e+00 8.144051551818847656e+00 2.930932283401489258e+00 1.389294624328613281e+00
2.226000000000000000e+03 7.267063903808593750e+01 -7.721981525421142578e+00 -1.701390892267227173e-01 8.832435607910156250e+00 2.598689079284667969e+00 3.969104886054992676e-01
2.227000000000000000e+03 5.597156143188476562e+01 7.982095718383789062e+00 7.431478500366210938e-01 1.326880097389221191e+00 6.210083961486816406e-01 -1.756193935871124268e-01
2.228000000000000000e+03 2.574599075317382812e+01 -6.857651233673095703e+00 3.171634435653686523e+00 8.992289304733276367e-01 1.221258997917175293e+00 -1.916539072990417480e+00
2.229000000000000000e+03 2.703856658935546875e+01 -6.585741996765136719e+00 3.354272127151489258e+00 7.492955327033996582e-01 1.231070280075073242e+00 -2.045528888702392578e+00
2.230000000000000000e+03 4.735866928100585938e+01 7.983923912048339844e+00 1.607657909393310547e+00 3.105125904083251953e+00 1.413835167884826660e+00 2.225193738937377930e+00
2.231000000000000000e+03 7.865820407867431641e+00 2.520460891723632812e+01 2.102282196283340454e-01 3.189994335174560547e+00 1.020066738128662109e+00 -1.537736415863037109e+00
2.232000000000000000e+03 7.256237792968750000e+01 -8.688384056091308594e+00 -5.788046121597290039e-02 9.092548370361328125e+00 2.710400581359863281e+00 3.824065029621124268e-01
2.233000000000000000e+03 7.250837707519531250e+01 -9.676345825195312500e+00 1.086638420820236206e-01 9.378887176513671875e+00 2.846265316009521484e+00 3.674916923046112061e-01
2.234000000000000000e+03 6.810242462158203125e+01 3.201516342163085938e+01 9.425806254148483276e-02 5.500846385955810547e+00 1.678531408309936523e+00 1.181948557496070862e-01
2.235000000000000000e+03 3.779710769653320312e+01 -7.974803924560546875e+00 2.209397077560424805e+00 8.755431175231933594e+00 3.289448499679565430e+00 3.486612439155578613e-01
2.236000000000000000e+03 3.435263061523437500e+01 -1.341985130310058594e+01 6.118507385253906250e-01 5.309596538543701172e+00 1.776434183120727539e+00 -1.601927638053894043e+00
2.237000000000000000e+03 3.221090698242187500e+01 -7.501892566680908203e+00 3.286190509796142578e+00 1.835629940032958984e+00 1.536546111106872559e+00 -1.415983915328979492e+00
2.238000000000000000e+03 4.970594787597656250e+01 8.772271156311035156e+00 1.611102342605590820e+00 1.951530814170837402e+00 1.068789958953857422e+00 1.485587954521179199e+00
2.239000000000000000e+03 5.179552841186523438e+01 4.289677619934082031e+00 -7.653728723526000977e-01 4.150730669498443604e-01 -1.050899326801300049e-01 3.942412137985229492e-01
2.240000000000000000e+03 1.091488265991210938e+01 2.893751716613769531e+01 -3.340815603733062744e-01 3.895411968231201172e+00 1.068399071693420410e+00 -1.329785466194152832e+00
2.241000000000000000e+03 1.054761695861816406e+01 3.043859481811523438e+01 -5.235526561737060547e-01 3.687499761581420898e+00 9.491841197013854980e-01 -1.314489722251892090e+00
2.242000000000000000e+03 6.901171112060546875e+01 -4.528285026550292969e+00 -5.035869479179382324e-01 7.350965976715087891e+00 2.054213762283325195e+00 -5.488958954811096191e-01
2.243000000000000000e+03 2.818883323669433594e+01 -6.769101142883300781e+00 3.470568180084228516e+00 6.326485872268676758e-01 1.230965018272399902e+00 -2.048061132431030273e+00
2.244000000000000000e+03 2.839888572692871094e+01 -1.376285934448242188e+01 1.271559149026870728e-01 1.929879337549209595e-01 9.604315459728240967e-02 -8.239296078681945801e-01
2.245000000000000000e+03 2.103294181823730469e+01 -1.075439929962158203e+01 3.744818270206451416e-01 1.378550887107849121e+00 5.259098410606384277e-01 -6.082631945610046387e-01
2.246000000000000000e+03 2.741054534912109375e+01 -1.421145820617675781e+01 -4.663726091384887695e-01 1.169193759560585022e-01 -1.048359721899032593e-01 -5.827826261520385742e-01
2.247000000000000000e+03 5.155499267578125000e+01 3.039808082580566406e+01 -8.593709766864776611e-02 4.124258995056152344e+00 1.211496591567993164e+00 8.718250989913940430e-01
2.248000000000000000e+03 4.721073532104492188e+01 3.022294616699218750e+01 -2.048368752002716064e-01 3.931483030319213867e+00 1.117993831634521484e+00 8.160670995712280273e-01
2.249000000000000000e+03 5.896732711791992188e+01 4.801776885986328125e+00 -3.661382198333740234e-01 1.352215647697448730e+00 2.958232164382934570e-01 -8.414688706398010254e-01
2.250000000000000000e+03 5.767672348022460938e+01 5.271029472351074219e+00 -2.283375859260559082e-01 1.104788780212402344e+00 2.629353404045104980e-01 -5.986615419387817383e-01
2.251000000000000000e+03 4.476504898071289062e+01 6.219296932220458984e+00 1.019141077995300293e+00 5.107713222503662109e+00 1.838056325912475586e+00 2.842821121215820312e+00
2.252000000000000000e+03 1.324271583557128906e+01 3.141138076782226562e+01 -7.852888107299804688e-01 3.521286010742187500e+00 8.207991719245910645e-01 -8.072694540023803711e-01
2.253000000000000000e+03 2.519340324401855469e+01 -1.431191539764404297e+01 -9.458869099617004395e-01 3.906238675117492676e-01 -1.665789037942886353e-01 -4.350685775279998779e-01
2.254000000000000000e+03 2.275912094116210938e+01 -4.519136428833007812e+00 4.291836738586425781e+00 1.288126468658447266e+00 1.673988938331604004e+00 -2.038008213043212891e+00
2.255000000000000000e+03 2.403925132751464844e+01 -5.601284503936767578e+00 3.712631225585937500e+00 1.229754567146301270e+00 1.482715725898742676e+00 -1.826214790344238281e+00
2.256000000000000000e+03 7.132204437255859375e+01 -5.960813999176025391e+00 -3.861945569515228271e-01 8.263285636901855469e+00 2.363127231597900391e+00 2.528444863855838776e-02
2.257000000000000000e+03 6.876747608184814453e+00 -3.827445220947265625e+01 2.148440182209014893e-01 2.146902799606323242e+00 7.085240483283996582e-01 -1.133643686771392822e-01
2.258000000000000000e+03 4.700790786743164062e+01 6.271946907043457031e+00 9.056226611137390137e-01 2.733248472213745117e+00 1.091661334037780762e+00 2.294093370437622070e+00
2.259000000000000000e+03 7.654132843017578125e+00 1.192280197143554688e+01 5.979743599891662598e-01 2.077655792236328125e+00 8.026890754699707031e-01 -3.115371763706207275e-01
2.260000000000000000e+03 3.537361145019531250e+01 -5.435168743133544922e+00 2.688983440399169922e+00 4.375836849212646484e+00 2.119446039199829102e+00 1.918531656265258789e-01
2.261000000000000000e+03 1.284430408477783203e+01 3.394426727294921875e+01 -1.066346526145935059e+00 3.216177940368652344e+00 6.449494361877441406e-01 -7.711902856826782227e-01
2.262000000000000000e+03 1.986314582824707031e+01 3.990078735351562500e+01 -1.609766244888305664e+00 6.354108452796936035e-01 -2.923066318035125732e-01 -7.979159802198410034e-02
2.263000000000000000e+03 7.125535583496093750e+01 2.115569305419921875e+01 2.787261307239532471e-01 5.714461326599121094e+00 1.797956228256225586e+00 -3.140990138053894043e-01
2.264000000000000000e+03 3.138077163696289062e+01 -6.608958721160888672e+00 3.466016054153442383e+00 1.003957271575927734e+00 1.340992093086242676e+00 -1.564194798469543457e+00
2.265000000000000000e+03 6.680687713623046875e+01 5.254791975021362305e-01 -1.185514807701110840e+00 5.335075855255126953e+00 1.244868278503417969e+00 -1.163989424705505371e+00
2.266000000000000000e+03 6.562904357910156250e+01 2.662205219268798828e+00 -9.636678695678710938e-01 4.416805744171142578e+00 1.035941362380981445e+00 -1.358363032341003418e+00
2.267000000000000000e+03 7.288918304443359375e+01 7.966160297393798828e+00 -1.524070650339126587e-01 6.665802478790283203e+00 1.954018592834472656e+00 -7.356388568878173828e-01
2.268000000000000000e+03 3.645285797119140625e+01 -8.056951522827148438e+00 2.431881904602050781e+00 6.723330020904541016e+00 2.746563673019409180e+00 -1.322121620178222656e-01
2.269000000000000000e+03 3.567129898071289062e+01 -3.635621261596679688e+01 -1.705489873886108398e+00 4.997612953186035156e+00 9.876369833946228027e-01 3.711672425270080566e-01
2.270000000000000000e+03 4.239233779907226562e+01 -3.148393440246582031e+01 -4.281596541404724121e-01 4.799757003784179688e+00 1.311479210853576660e+00 -1.340472579002380371e+00
2.271000000000000000e+03 7.054408264160156250e+01 2.897246170043945312e+01 1.545286029577255249e-01 5.689351081848144531e+00 1.753163814544677734e+00 1.595706678926944733e-02
2.272000000000000000e+03 7.159068298339843750e+01 2.964169311523437500e+01 1.148368343710899353e-01 5.843527793884277344e+00 1.787509322166442871e+00 9.315468370914459229e-03
2.273000000000000000e+03 4.775595474243164062e+01 2.603317642211914062e+01 3.433513641357421875e-01 4.240104675292968750e+00 1.375036716461181641e+00 9.194698333740234375e-01
2.274000000000000000e+03 4.829215621948242188e+01 2.765171432495117188e+01 1.893204152584075928e-01 4.097374439239501953e+00 1.286008477210998535e+00 9.235078692436218262e-01
2.275000000000000000e+03 4.091839599609375000e+01 -2.756319046020507812e+01 7.567386031150817871e-01 6.123371601104736328e+00 2.064033031463623047e+00 -1.383325099945068359e+00
2.276000000000000000e+03 4.205513000488281250e+01 -2.940685462951660156e+01 -2.531386353075504303e-02 5.109365463256835938e+00 1.525215387344360352e+00 -1.486850619316101074e+00
2.277000000000000000e+03 4.864962005615234375e+01 1.376729869842529297e+01 1.856865286827087402e+00 3.699548721313476562e+00 1.666924238204956055e+00 1.918759226799011230e+00
2.278000000000000000e+03 1.827832794189453125e+01 -3.481043624877929688e+01 -1.263842582702636719e+00 -3.292717933654785156e-01 -4.779343008995056152e-01 3.880523741245269775e-01
2.279000000000000000e+03 2.170097160339355469e+01 -3.876372909545898438e+01 -3.513315021991729736e-01 -7.601788640022277832e-02 -1.282048225402832031e-01 2.391833811998367310e-01
2.280000000000000000e+03 3.702800750732421875e+01 -3.389577865600585938e+01 -1.425474643707275391e+00 5.897809982299804688e+00 1.341700673103332520e+00 6.574027985334396362e-02
2.281000000000000000e+03 4.176107788085937500e+01 -3.449768066406250000e+01 -1.190311312675476074e+00 4.781052589416503906e+00 1.077222347259521484e+00 -9.089317321777343750e-01
2.282000000000000000e+03 1.355913352966308594e+01 -3.720930814743041992e+00 3.286253452301025391e+00 1.964441537857055664e+00 1.575208425521850586e+00 2.609952449798583984e+00
2.283000000000000000e+03 1.371461105346679688e+01 2.461683511734008789e+00 6.475353240966796875e-01 3.566319704055786133e+00 1.264156579971313477e+00 -2.883781909942626953e+00
2.284000000000000000e+03 1.436676120758056641e+01 2.175540208816528320e+00 6.403264999389648438e-01 4.790522098541259766e+00 1.629254579544067383e+00 -3.454284906387329102e+00
2.285000000000000000e+03 1.131407165527343750e+01 -4.351266384124755859e+00 2.200802326202392578e+00 6.463224887847900391e-01 8.541374802589416504e-01 1.765532135963439941e+00
2.286000000000000000e+03 1.255567932128906250e+01 -4.069847583770751953e+00 2.819047212600708008e+00 1.088239550590515137e+00 1.172186017036437988e+00 2.145499944686889648e+00
2.287000000000000000e+03 1.724018859863281250e+01 -4.713572502136230469e+00 2.029222249984741211e+00 6.345401287078857422e+00 2.512387037277221680e+00 -2.403874993324279785e-01
2.288000000000000000e+03 1.624182319641113281e+01 -5.337094306945800781e+00 1.644036412239074707e+00 5.276994705200195312e+00 2.076309204101562500e+00 1.180642604827880859e+00
2.289000000000000000e+03 1.473358821868896484e+01 1.744365572929382324e+00 9.279367923736572266e-01 5.495136260986328125e+00 1.926921963691711426e+00 -3.977228403091430664e+00
2.290000000000000000e+03 1.287199020385742188e+01 -3.196091890335083008e+00 3.294301271438598633e+00 8.793826103210449219e-01 1.252105236053466797e+00 1.929931044578552246e+00
2.291000000000000000e+03 1.541578388214111328e+01 5.024981975555419922e+00 -5.836762189865112305e-01 6.662485599517822266e+00 1.823642730712890625e+00 -2.228819131851196289e+00
2.292000000000000000e+03 1.427525043487548828e+01 2.670298337936401367e+00 3.452977538108825684e-01 4.881977081298828125e+00 1.568182468414306641e+00 -3.231328248977661133e+00
2.293000000000000000e+03 1.136049842834472656e+01 -4.864074707031250000e+00 2.062100172042846680e+00 8.596543073654174805e-01 8.765263557434082031e-01 1.969164609909057617e+00
2.294000000000000000e+03 9.403674125671386719e+00 -5.856589794158935547e+00 1.229860305786132812e+00 7.426012158393859863e-01 5.917384624481201172e-01 1.700720429420471191e+00
2.295000000000000000e+03 3.542778491973876953e+00 6.429884433746337891e+00 1.253217607736587524e-01 -2.995131909847259521e-01 -5.225742980837821960e-02 5.220279097557067871e-01
2.296000000000000000e+03 5.158038139343261719e+00 5.285240650177001953e+00 1.121752485632896423e-01 1.012359112501144409e-01 6.402334570884704590e-02 5.462515354156494141e-01
2.297000000000000000e+03 1.319202995300292969e+01 7.291934490203857422e+00 2.685253322124481201e-01 4.709734439849853516e+00 1.493477940559387207e+00 -1.541232228279113770e+00
2.298000000000000000e+03 1.354772281646728516e+01 3.081129789352416992e+00 3.739941120147705078e-01 3.723097801208496094e+00 1.229127526283264160e+00 -2.677446365356445312e+00
2.299000000000000000e+03 1.528238487243652344e+01 -3.687396526336669922e+00 2.738373994827270508e+00 5.909367084503173828e+00 2.594322204589843750e+00 2.860370159149169922e+00
2.300000000000000000e+03 8.536452293395996094e+00 6.212456226348876953e+00 4.328667521476745605e-01 1.338043451309204102e+00 5.312730669975280762e-01 -1.448086798191070557e-01
2.301000000000000000e+03 1.273038673400878906e+01 8.518596649169921875e+00 4.373629987239837646e-01 4.780495166778564453e+00 1.565357446670532227e+00 -1.350109696388244629e+00
2.302000000000000000e+03 5.619975090026855469e+00 6.729359149932861328e+00 2.643964290618896484e-01 3.634453117847442627e-01 1.883525252342224121e-01 4.166855216026306152e-01
2.303000000000000000e+03 6.270662307739257812e+00 5.758976459503173828e+00 2.345489859580993652e-01 4.177568852901458740e-01 1.956917643547058105e-01 3.941143155097961426e-01
2.304000000000000000e+03 6.437778949737548828e+00 6.615174293518066406e+00 3.236121833324432373e-01 6.278756856918334961e-01 2.854463458061218262e-01 2.974638938903808594e-01
2.305000000000000000e+03 8.519827842712402344e+00 -5.440581321716308594e+00 1.057578563690185547e+00 5.786032080650329590e-01 4.908545315265655518e-01 1.338842272758483887e+00
2.306000000000000000e+03 9.611199378967285156e+00 -7.297992706298828125e+00 8.834787011146545410e-01 1.182750582695007324e+00 6.198687553405761719e-01 2.100827932357788086e+00
2.307000000000000000e+03 9.342065811157226562e+00 5.361911773681640625e+00 4.075114130973815918e-01 1.439433813095092773e+00 5.540835857391357422e-01 -3.707873225212097168e-01
2.308000000000000000e+03 1.216133880615234375e+01 4.290421009063720703e+00 3.608939349651336670e-01 2.842700719833374023e+00 9.610783457756042480e-01 -1.687896490097045898e+00
2.309000000000000000e+03 1.147635078430175781e+01 5.054374217987060547e+00 3.980188071727752686e-01 2.622223377227783203e+00 9.060726761817932129e-01 -1.287585139274597168e+00
2.310000000000000000e+03 1.817790794372558594e+01 -4.089405536651611328e+00 3.050518751144409180e+00 6.187460422515869141e+00 2.771393775939941406e+00 -1.687498927116394043e+00
2.311000000000000000e+03 1.730895614624023438e+01 -3.732927322387695312e+00 2.712564706802368164e+00 7.635250568389892578e+00 3.104344606399536133e+00 -9.113809466361999512e-01
2.312000000000000000e+03 1.986606788635253906e+01 -4.286962985992431641e+00 3.795756340026855469e+00 3.702785968780517578e+00 2.249562740325927734e+00 -2.363016605377197266e+00
2.313000000000000000e+03 1.913364982604980469e+01 -4.508359909057617188e+00 3.323252439498901367e+00 4.486961364746093750e+00 2.343064069747924805e+00 -2.076622962951660156e+00
2.314000000000000000e+03 1.258648395538330078e+01 1.021241664886474609e+01 6.960130333900451660e-01 5.098714351654052734e+00 1.738418221473693848e+00 -1.235399484634399414e+00
2.315000000000000000e+03 8.593542098999023438e+00 -7.061738491058349609e+00 7.285550832748413086e-01 1.075402259826660156e+00 5.411871671676635742e-01 1.765428185462951660e+00
2.316000000000000000e+03 7.532246589660644531e+00 -6.680160522460937500e+00 6.043261289596557617e-01 9.114073514938354492e-01 4.547200500965118408e-01 1.367377400398254395e+00
2.317000000000000000e+03 1.622387123107910156e+01 3.292075157165527344e+00 -9.216659665107727051e-01 8.210449218750000000e+00 2.186635017395019531e+00 -2.437262773513793945e+00
2.318000000000000000e+03 1.862241363525390625e+01 -1.214533042907714844e+01 -6.982173323631286621e-01 1.184019804000854492e+00 1.457407474517822266e-01 1.937519162893295288e-01
2.319000000000000000e+03 1.501107311248779297e+01 6.759755611419677734e+00 -1.661112904548645020e-01 6.192916393280029297e+00 1.808041453361511230e+00 -1.875123381614685059e+00
2.320000000000000000e+03 1.270871829986572266e+01 4.960753917694091797e+00 2.406269162893295288e-01 3.732280969619750977e+00 1.191872358322143555e+00 -1.859248638153076172e+00
2.321000000000000000e+03 1.080329895019531250e+01 5.155241012573242188e+00 4.313207864761352539e-01 2.171699762344360352e+00 7.809062004089355469e-01 -9.763966798782348633e-01
2.322000000000000000e+03 1.377649211883544922e+01 7.178699016571044922e+00 1.710354238748550415e-01 5.324422359466552734e+00 1.648637294769287109e+00 -1.695112109184265137e+00
2.323000000000000000e+03 7.156367301940917969e+00 1.285811901092529297e+01 5.679230690002441406e-01 1.921267509460449219e+00 7.467572093009948730e-01 -3.341363072395324707e-01
2.324000000000000000e+03 6.825732707977294922e+00 1.045618820190429688e+01 4.857463240623474121e-01 1.420518279075622559e+00 5.718793869018554688e-01 -5.346876755356788635e-02
2.325000000000000000e+03 7.027597808837890625e+01 -3.914960145950317383e+00 -6.787380576133728027e-01 7.589005947113037109e+00 2.073080301284790039e+00 -2.105812728404998779e-01
2.326000000000000000e+03 2.149240303039550781e+01 -3.849402427673339844e+00 4.628046989440917969e+00 1.909005761146545410e+00 1.961115837097167969e+00 -2.399606943130493164e+00
2.327000000000000000e+03 8.743618965148925781e+00 1.122087097167968750e+01 6.697456836700439453e-01 2.618937969207763672e+00 9.866051077842712402e-01 -4.285016953945159912e-01
2.328000000000000000e+03 1.168539619445800781e+01 1.229248237609863281e+01 8.108676671981811523e-01 4.893608570098876953e+00 1.711342811584472656e+00 -1.038318991661071777e+00
2.329000000000000000e+03 9.293574333190917969e+00 6.158545494079589844e+00 4.609456956386566162e-01 1.702479004859924316e+00 6.490274071693420410e-01 -3.930261433124542236e-01
2.330000000000000000e+03 1.153920841217041016e+01 1.337124919891357422e+01 8.782837986946105957e-01 5.010083675384521484e+00 1.766510248184204102e+00 -1.012220382690429688e+00
2.331000000000000000e+03 7.306736755371093750e+01 -5.810202598571777344e+00 -3.506469130516052246e-01 8.347516059875488281e+00 2.399060726165771484e+00 4.011582136154174805e-01
2.332000000000000000e+03 1.201391696929931641e+01 -1.184600257873535156e+01 -3.122358322143554688e-01 1.281473875045776367e+00 2.907714247703552246e-01 2.763869524002075195e+00
2.333000000000000000e+03 1.011476993560791016e+01 -7.759044170379638672e+00 8.432742953300476074e-01 1.294440865516662598e+00 6.413145661354064941e-01 2.328145503997802734e+00
2.334000000000000000e+03 2.157297325134277344e+01 -1.189875602722167969e+01 -2.257636338472366333e-01 1.069801568984985352e+00 2.532113790512084961e-01 -4.407391846179962158e-01
2.335000000000000000e+03 2.267343902587890625e+01 -1.279378700256347656e+01 -5.433983206748962402e-01 8.089771270751953125e-01 7.967364788055419922e-02 -4.672989249229431152e-01
2.336000000000000000e+03 6.756500720977783203e+00 2.075629997253417969e+01 4.732543230056762695e-01 2.444249391555786133e+00 8.752511143684387207e-01 -1.183354973793029785e+00
2.337000000000000000e+03 1.044748210906982422e+01 2.464022254943847656e+01 3.710042536258697510e-01 4.359695911407470703e+00 1.419210076332092285e+00 -1.385974645614624023e+00
2.338000000000000000e+03 6.457974910736083984e+00 2.434303665161132812e+01 2.486527860164642334e-01 2.555442571640014648e+00 8.412286043167114258e-01 -1.454446196556091309e+00
2.339000000000000000e+03 7.001631259918212891e+00 1.138776779174804688e+01 5.506902933120727539e-01 1.644239544868469238e+00 6.584789156913757324e-01 -1.759644597768783569e-01
2.340000000000000000e+03 7.282578277587890625e+01 1.473497486114501953e+01 1.666664779186248779e-01 6.158193588256835938e+00 1.897457957267761230e+00 -6.282209753990173340e-01
2.341000000000000000e+03 1.678059196472167969e+01 -1.189278697967529297e+01 -5.831800699234008789e-01 1.133503317832946777e+00 1.650969833135604858e-01 8.578743338584899902e-01
2.342000000000000000e+03 4.645990753173828125e+01 7.524453639984130859e+00 1.555028080940246582e+00 3.518521785736083984e+00 1.522064924240112305e+00 2.542135238647460938e+00
2.343000000000000000e+03 1.623873901367187500e+01 -1.127628707885742188e+01 -2.949245572090148926e-01 1.316457509994506836e+00 3.064599037170410156e-01 1.116570353507995605e+00
2.344000000000000000e+03 1.303746032714843750e+01 -1.178330993652343750e+01 -2.115355134010314941e-01 1.067759037017822266e+00 2.568670511245727539e-01 2.462907075881958008e+00
2.345000000000000000e+03 1.202315425872802734e+01 -1.094094085693359375e+01 8.583664894104003906e-03 1.435752511024475098e+00 4.333008527755737305e-01 2.672937870025634766e+00
2.346000000000000000e+03 1.741364097595214844e+01 -1.246054077148437500e+01 -8.712255954742431641e-01 1.003018856048583984e+00 3.953798487782478333e-02 6.058693528175354004e-01
2.347000000000000000e+03 1.875949859619140625e+01 -1.138831996917724609e+01 -2.499958276748657227e-01 1.461428761482238770e+00 3.634299039840698242e-01 8.817877620458602905e-02
2.348000000000000000e+03 5.365279006958007812e+01 7.774751663208007812e+00 8.776448369026184082e-01 1.135422229766845703e+00 6.039201021194458008e-01 2.665773332118988037e-01
2.349000000000000000e+03 5.502322387695312500e+01 5.903302669525146484e+00 4.886234924197196960e-02 8.560261130332946777e-01 2.714665234088897705e-01 -1.086007505655288696e-01
2.350000000000000000e+03 3.525382995605468750e+01 -1.372905445098876953e+01 3.926720321178436279e-01 6.600149631500244141e+00 2.097846508026123047e+00 -1.287490487098693848e+00
2.351000000000000000e+03 2.064964485168457031e+01 -4.102069854736328125e+00 4.266782760620117188e+00 2.894302606582641602e+00 2.148325681686401367e+00 -2.511544227600097656e+00
2.352000000000000000e+03 2.367044448852539062e+01 -6.891436100006103516e+00 2.955332279205322266e+00 1.285894274711608887e+00 1.272367954254150391e+00 -1.790741086006164551e+00
2.353000000000000000e+03 3.664264678955078125e+01 -6.544500827789306641e+00 2.583211660385131836e+00 6.442963600158691406e+00 2.707852602005004883e+00 2.883626520633697510e-01
2.354000000000000000e+03 7.309362030029296875e+01 3.881094694137573242e+00 -4.039801359176635742e-01 7.133049488067626953e+00 2.018720865249633789e+00 -5.005484223365783691e-01
2.355000000000000000e+03 7.291125488281250000e+01 -1.868916153907775879e+00 -6.150392889976501465e-01 7.786461353302001953e+00 2.151426553726196289e+00 7.815449684858322144e-02
2.356000000000000000e+03 4.895162582397460938e+01 2.526298522949218750e+01 4.795947074890136719e-01 4.193956851959228516e+00 1.402065396308898926e+00 1.048868060111999512e+00
2.357000000000000000e+03 5.633692932128906250e+01 5.726765155792236328e+00 -3.334058076143264771e-02 9.234770536422729492e-01 2.670409381389617920e-01 -3.644578754901885986e-01
2.358000000000000000e+03 5.707828521728515625e+01 7.117154598236083984e+00 4.021460413932800293e-01 1.292185783386230469e+00 5.082995295524597168e-01 -4.447953402996063232e-01
2.359000000000000000e+03 2.731192588806152344e+01 -8.761263847351074219e+00 2.594230651855468750e+00 6.485864520072937012e-01 9.728450775146484375e-01 -1.766031503677368164e+00
2.360000000000000000e+03 2.901889038085937500e+01 -1.085144615173339844e+01 2.076283931732177734e+00 5.972582101821899414e-01 8.020626306533813477e-01 -1.478622794151306152e+00
2.361000000000000000e+03 7.417470550537109375e+01 2.408889198303222656e+01 1.213498637080192566e-01 6.171354293823242188e+00 1.887811303138732910e+00 -1.600549966096878052e-01
2.362000000000000000e+03 7.297103118896484375e+01 6.610692501068115234e+00 -2.305687963962554932e-01 6.811985969543457031e+00 1.974425077438354492e+00 -6.792098283767700195e-01
2.363000000000000000e+03 6.755070495605468750e+01 3.120501279830932617e+00 -8.478553891181945801e-01 5.360565662384033203e+00 1.353813052177429199e+00 -1.198404908180236816e+00
2.364000000000000000e+03 7.273746490478515625e+01 1.343494796752929688e+01 1.188406646251678467e-01 6.223578929901123047e+00 1.902725934982299805e+00 -6.916528940200805664e-01
2.365000000000000000e+03 7.121883392333984375e+01 1.058757019042968750e+01 3.505538776516914368e-02 5.960237026214599609e+00 1.798587799072265625e+00 -8.620254993438720703e-01
2.366000000000000000e+03 6.682006359100341797e+00 -1.135810375213623047e+01 -5.999144315719604492e-01 2.601587772369384766e+00 6.005020141601562500e-01 1.536353468894958496e+00
2.367000000000000000e+03 7.323213195800781250e+01 -4.811693191528320312e+00 -4.524544775485992432e-01 8.191704750061035156e+00 2.321775197982788086e+00 3.963808417320251465e-01
2.368000000000000000e+03 7.297986602783203125e+01 -3.727602958679199219e+00 -5.027740597724914551e-01 8.031963348388671875e+00 2.258756875991821289e+00 2.796500623226165771e-01
2.369000000000000000e+03 7.232436370849609375e+01 2.011043548583984375e+00 -5.918349027633666992e-01 7.146080493927001953e+00 1.966273665428161621e+00 -4.305020570755004883e-01
2.370000000000000000e+03 7.199700164794921875e+01 -2.160763740539550781e+00 -7.146180868148803711e-01 7.654531002044677734e+00 2.081973791122436523e+00 -2.573497593402862549e-02
2.371000000000000000e+03 8.752779006958007812e+00 1.921800994873046875e+01 7.318074703216552734e-01 3.549961805343627930e+00 1.284530758857727051e+00 -1.137301802635192871e+00
2.372000000000000000e+03 7.809450626373291016e+00 1.987981796264648438e+01 6.197209954261779785e-01 2.985922336578369141e+00 1.081692934036254883e+00 -1.150109529495239258e+00
2.373000000000000000e+03 6.090013504028320312e+01 2.640316247940063477e+00 -1.015960574150085449e+00 1.709477663040161133e+00 2.080551087856292725e-01 -1.135130763053894043e+00
2.374000000000000000e+03 5.962448120117187500e+01 6.077863216400146484e+00 -7.069719024002552032e-03 1.784703254699707031e+00 5.332900881767272949e-01 -9.275225996971130371e-01
2.375000000000000000e+03 3.294785308837890625e+01 -6.549535274505615234e+00 3.280896663665771484e+00 1.971150159835815430e+00 1.575614094734191895e+00 -9.817543625831604004e-01
2.376000000000000000e+03 6.251542282104492188e+01 3.331663131713867188e+00 -8.098550438880920410e-01 2.706902265548706055e+00 5.691142082214355469e-01 -1.350201725959777832e+00
2.377000000000000000e+03 7.106667327880859375e+01 1.211709022521972656e+01 1.414234191179275513e-01 5.828167438507080078e+00 1.790877223014831543e+00 -8.245540857315063477e-01
2.378000000000000000e+03 3.395919799804687500e+01 -7.272315502166748047e+00 3.107832431793212891e+00 3.206795930862426758e+00 1.894388556480407715e+00 -7.865263819694519043e-01
2.379000000000000000e+03 3.345362472534179688e+01 -1.300106525421142578e+01 1.070859670639038086e+00 3.970455169677734375e+00 1.512394428253173828e+00 -1.684792876243591309e+00
2.380000000000000000e+03 7.650528430938720703e+00 6.866144180297851562e+00 4.230103194713592529e-01 1.127135872840881348e+00 4.650438427925109863e-01 4.307884350419044495e-02
2.381000000000000000e+03 8.426988601684570312e+00 6.973438262939453125e+00 4.731457829475402832e-01 1.526414871215820312e+00 5.998681783676147461e-01 -1.608889102935791016e-01
2.382000000000000000e+03 2.757824516296386719e+01 -1.275408363342285156e+01 6.760730147361755371e-01 2.909055650234222412e-01 2.900935709476470947e-01 -9.621433019638061523e-01
2.383000000000000000e+03 2.935601997375488281e+01 -1.313737773895263672e+01 7.059280872344970703e-01 3.673217892646789551e-01 3.219749629497528076e-01 -1.093898653984069824e+00
2.384000000000000000e+03 2.659165191650390625e+01 -1.204961585998535156e+01 1.010466575622558594e+00 4.115736484527587891e-01 4.266120493412017822e-01 -1.029694080352783203e+00
2.385000000000000000e+03 4.714438247680664062e+01 9.153145790100097656e+00 1.878718852996826172e+00 3.563866853713989258e+00 1.632775783538818359e+00 2.324217081069946289e+00
2.386000000000000000e+03 5.063772201538085938e+01 7.828535079956054688e+00 1.250690937042236328e+00 1.348305940628051758e+00 7.796990871429443359e-01 1.048793196678161621e+00
2.387000000000000000e+03 7.263824462890625000e+01 2.142277717590332031e+01 2.076411396265029907e-01 5.970844268798828125e+00 1.853545546531677246e+00 -2.895511984825134277e-01
2.388000000000000000e+03 7.138997650146484375e+01 1.978615760803222656e+01 2.857557535171508789e-01 5.741746425628662109e+00 1.808250546455383301e+00 -3.791985809803009033e-01
2.389000000000000000e+03 1.094158267974853516e+01 1.547386074066162109e+01 9.535340070724487305e-01 4.812570095062255859e+00 1.729831218719482422e+00 -1.041341423988342285e+00
2.390000000000000000e+03 3.647705459594726562e+01 -9.660190582275390625e+00 2.155421018600463867e+00 7.136998176574707031e+00 2.787725687026977539e+00 -4.016515910625457764e-01
2.391000000000000000e+03 6.818273925781250000e+01 2.895491409301757812e+01 2.006843388080596924e-01 5.414320468902587891e+00 1.684501409530639648e+00 7.705638557672500610e-02
2.392000000000000000e+03 7.116519927978515625e+01 2.247298622131347656e+01 2.753144204616546631e-01 5.694033145904541016e+00 1.790804266929626465e+00 -2.469196468591690063e-01
2.393000000000000000e+03 3.253322219848632812e+01 -1.249536991119384766e+01 1.382158279418945312e+00 2.821881055831909180e+00 1.261211872100830078e+00 -1.659459590911865234e+00
2.394000000000000000e+03 6.860074615478515625e+01 -1.277484655380249023e+00 -1.011679172515869141e+00 6.502624511718750000e+00 1.647283673286437988e+00 -7.099904417991638184e-01
2.395000000000000000e+03 6.806872558593750000e+01 -2.921966016292572021e-01 -1.087274312973022461e+00 6.140889167785644531e+00 1.516084432601928711e+00 -8.687593340873718262e-01
2.396000000000000000e+03 3.003338432312011719e+01 -7.335714817047119141e+00 3.414969682693481445e+00 8.690423369407653809e-01 1.285203576087951660e+00 -1.851542830467224121e+00
2.397000000000000000e+03 2.814413833618164062e+01 -8.865526199340820312e+00 2.790795564651489258e+00 6.318890452384948730e-01 1.026805400848388672e+00 -1.799461603164672852e+00
2.398000000000000000e+03 3.016378021240234375e+01 -9.128442764282226562e+00 2.890298128128051758e+00 1.002082228660583496e+00 1.167714118957519531e+00 -1.804357051849365234e+00
2.399000000000000000e+03 9.259312629699707031e+00 -1.099593734741210938e+01 -3.122768998146057129e-01 2.100423812866210938e+00 5.364440679550170898e-01 2.539500474929809570e+00
2.400000000000000000e+03 3.667156600952148438e+01 -5.119537353515625000e+00 2.372045516967773438e+00 5.950566291809082031e+00 2.496783733367919922e+00 6.346409916877746582e-01
2.401000000000000000e+03 3.547567367553710938e+01 -6.549696445465087891e+00 2.799373388290405273e+00 5.026219844818115234e+00 2.347677946090698242e+00 -1.343228295445442200e-02
2.402000000000000000e+03 7.142871856689453125e+01 1.158350229263305664e+00 -7.375617027282714844e-01 7.032888889312744141e+00 1.888598203659057617e+00 -4.562193751335144043e-01
2.403000000000000000e+03 4.654449844360351562e+01 -2.902921867370605469e+01 2.998809814453125000e-01 2.493632555007934570e+00 8.380540609359741211e-01 -1.273768186569213867e+00
2.404000000000000000e+03 7.193907165527343750e+01 3.932466745376586914e+00 -5.108649730682373047e-01 6.826979637145996094e+00 1.894834399223327637e+00 -6.455100178718566895e-01
2.405000000000000000e+03 6.673455810546875000e+01 1.719252943992614746e+00 -1.089057207107543945e+00 5.116850852966308594e+00 1.208338141441345215e+00 -1.246863484382629395e+00
2.406000000000000000e+03 7.271126556396484375e+01 -6.779146671295166016e+00 -3.120433986186981201e-01 8.526494979858398438e+00 2.464335441589355469e+00 3.625556528568267822e-01
2.407000000000000000e+03 7.168928527832031250e+01 6.512526988983154297e+00 -2.869724333286285400e-01 6.476713180541992188e+00 1.856922268867492676e+00 -8.130452036857604980e-01
2.408000000000000000e+03 9.102831840515136719e+00 2.754463005065917969e+01 -6.375354528427124023e-02 3.596562147140502930e+00 1.059842586517333984e+00 -1.542138338088989258e+00
2.409000000000000000e+03 7.128632354736328125e+01 1.350358963012695312e+01 1.943560242652893066e-01 5.804252624511718750e+00 1.799582481384277344e+00 -7.496361136436462402e-01
2.410000000000000000e+03 3.256581878662109375e+01 -9.580859184265136719e+00 2.781042337417602539e+00 2.614055633544921875e+00 1.618529319763183594e+00 -1.465971231460571289e+00
2.411000000000000000e+03 8.478425979614257812e+00 2.833652305603027344e+01 -1.560812890529632568e-01 3.404856443405151367e+00 9.746325612068176270e-01 -1.540416598320007324e+00
2.412000000000000000e+03 1.089188003540039062e+01 2.760471534729003906e+01 -8.492802828550338745e-02 4.082226753234863281e+00 1.199189662933349609e+00 -1.365522146224975586e+00
2.413000000000000000e+03 5.836372375488281250e+01 6.585659503936767578e+00 1.839478015899658203e-01 1.486946105957031250e+00 5.012681484222412109e-01 -7.135167717933654785e-01
2.414000000000000000e+03 2.493497848510742188e+01 -1.235274982452392578e+01 3.078787624835968018e-01 5.253465175628662109e-01 2.499675899744033813e-01 -7.954030632972717285e-01
2.415000000000000000e+03 9.937667846679687500e+00 1.884089660644531250e+01 8.233366608619689941e-01 4.272828578948974609e+00 1.528849482536315918e+00 -1.141376733779907227e+00
2.416000000000000000e+03 8.074748039245605469e+00 1.682025337219238281e+01 7.521901130676269531e-01 2.938840150833129883e+00 1.107309103012084961e+00 -8.482795357704162598e-01
2.417000000000000000e+03 7.323526763916015625e+01 2.348928642272949219e+01 1.694007962942123413e-01 6.041199207305908203e+00 1.863180041313171387e+00 -2.103634178638458252e-01
2.418000000000000000e+03 4.096626663208007812e+01 -3.131651878356933594e+01 -6.262228488922119141e-01 5.657930374145507812e+00 1.509512186050415039e+00 -1.389670729637145996e+00
2.419000000000000000e+03 4.431943511962890625e+01 -3.233626937866210938e+01 -4.974201619625091553e-01 3.860541343688964844e+00 1.008936285972595215e+00 -1.303399682044982910e+00
2.420000000000000000e+03 6.142614746093750000e+01 3.820194482803344727e+00 -6.653716564178466797e-01 2.183757305145263672e+00 4.555156826972961426e-01 -1.255763888359069824e+00
2.421000000000000000e+03 9.289752960205078125e+00 3.022888374328613281e+01 -4.195981323719024658e-01 3.503217458724975586e+00 9.250857830047607422e-01 -1.426649451255798340e+00
2.422000000000000000e+03 8.336461067199707031e+00 2.983551788330078125e+01 -3.295113444328308105e-01 3.313214302062988281e+00 8.951109051704406738e-01 -1.458924531936645508e+00
2.423000000000000000e+03 7.022939300537109375e+01 -2.783674240112304688e+00 -7.830152511596679688e-01 7.353261947631835938e+00 1.971073985099792480e+00 -3.017354011535644531e-01
2.424000000000000000e+03 7.469342041015625000e+01 -1.617455482482910156e+01 6.229628324508666992e-01 9.134447097778320312e+00 2.927222967147827148e+00 -2.220373228192329407e-02
2.425000000000000000e+03 6.968224334716796875e+01 2.781407356262207031e+01 2.080125808715820312e-01 5.566541671752929688e+00 1.732366323471069336e+00 4.208910744637250900e-03
2.426000000000000000e+03 4.877366256713867188e+01 1.577006244659423828e+01 1.618191242218017578e+00 3.957183599472045898e+00 1.672612428665161133e+00 1.770595431327819824e+00
2.427000000000000000e+03 4.762601470947265625e+01 1.258250141143798828e+01 1.920717835426330566e+00 3.999270677566528320e+00 1.775996565818786621e+00 2.156773328781127930e+00
2.428000000000000000e+03 4.970365524291992188e+01 2.675775718688964844e+01 3.309992551803588867e-01 4.108473300933837891e+00 1.331841826438903809e+00 1.004054188728332520e+00
2.429000000000000000e+03 1.008703899383544922e+01 2.018727302551269531e+01 7.793766856193542480e-01 4.473387718200683594e+00 1.575829267501831055e+00 -1.252074122428894043e+00
2.430000000000000000e+03 2.534085464477539062e+01 -1.005498790740966797e+01 1.685588598251342773e+00 6.479349732398986816e-01 7.000570893287658691e-01 -1.369472026824951172e+00
2.431000000000000000e+03 6.821734428405761719e+00 2.685901832580566406e+01 3.279181569814682007e-02 2.877979993820190430e+00 8.732315301895141602e-01 -1.525486946105957031e+00
2.432000000000000000e+03 6.941954040527343750e+01 3.026152038574218750e+01 1.366252303123474121e-01 5.594966888427734375e+00 1.719477534294128418e+00 6.206277757883071899e-02
2.433000000000000000e+03 4.795138931274414062e+01 6.923965930938720703e+00 1.264505982398986816e+00 2.186217784881591797e+00 1.035217165946960449e+00 2.017835140228271484e+00
2.434000000000000000e+03 4.886537933349609375e+01 7.754102230072021484e+00 1.498696923255920410e+00 1.913035869598388672e+00 1.023519873619079590e+00 1.643213152885437012e+00
2.435000000000000000e+03 4.965719604492187500e+01 6.731262683868408203e+00 9.511995315551757812e-01 1.271018505096435547e+00 6.666653752326965332e-01 1.206171274185180664e+00
2.436000000000000000e+03 7.386622619628906250e+01 -2.242953109741210938e+01 5.023652315139770508e-01 1.001187896728515625e+01 3.154273271560668945e+00 -6.681095361709594727e-01
2.437000000000000000e+03 6.998179626464843750e+01 3.302600479125976562e+01 5.163275822997093201e-02 5.713443756103515625e+00 1.729522943496704102e+00 8.222291618585586548e-02
2.438000000000000000e+03 4.978606033325195312e+01 1.677269935607910156e+01 1.568664431571960449e+00 3.783476829528808594e+00 1.605642318725585938e+00 1.637600183486938477e+00
2.439000000000000000e+03 5.073189544677734375e+01 1.612496757507324219e+01 1.656591415405273438e+00 3.409081459045410156e+00 1.519701838493347168e+00 1.472442507743835449e+00
2.440000000000000000e+03 1.675174331665039062e+01 4.108443450927734375e+01 -1.534585833549499512e+00 1.557594656944274902e+00 6.902653258293867111e-03 -4.462137445807456970e-02
2.441000000000000000e+03 9.743524551391601562e+00 3.393838500976562500e+01 -7.979717850685119629e-01 3.297723531723022461e+00 7.499254941940307617e-01 -1.046562314033508301e+00
2.442000000000000000e+03 1.403087139129638672e+01 -3.405854701995849609e+00 3.632011890411376953e+00 2.615127086639404297e+00 1.874141693115234375e+00 2.872911691665649414e+00
2.443000000000000000e+03 1.495848178863525391e+01 -3.454269647598266602e+00 3.330086469650268555e+00 5.010751247406005859e+00 2.502251386642456055e+00 3.237408399581909180e+00
2.444000000000000000e+03 1.439942455291748047e+01 -3.327965259552001953e+00 3.686862945556640625e+00 3.323912382125854492e+00 2.103232622146606445e+00 3.120673179626464844e+00
2.445000000000000000e+03 1.517547893524169922e+01 2.042602300643920898e+00 2.694149315357208252e-01 7.046485900878906250e+00 2.194770336151123047e+00 -3.869728326797485352e+00
2.446000000000000000e+03 1.218183231353759766e+01 -4.387353897094726562e+00 2.541002273559570312e+00 1.022341132164001465e+00 1.069002985954284668e+00 2.109987735748291016e+00
2.447000000000000000e+03 1.087436294555664062e+01 -4.905249595642089844e+00 1.909390687942504883e+00 7.071854472160339355e-01 7.849728465080261230e-01 1.830277919769287109e+00
2.448000000000000000e+03 1.180729770660400391e+01 -4.834842681884765625e+00 2.238229036331176758e+00 9.992960691452026367e-01 9.712575674057006836e-01 2.111279010772705078e+00
2.449000000000000000e+03 1.048474788665771484e+01 -5.513936996459960938e+00 1.628252744674682617e+00 7.980305552482604980e-01 7.278850078582763672e-01 1.908564567565917969e+00
2.450000000000000000e+03 1.097651958465576172e+01 -5.419366836547851562e+00 1.779439210891723633e+00 9.124866127967834473e-01 8.075777292251586914e-01 2.018950700759887695e+00
2.451000000000000000e+03 1.415567970275878906e+01 3.239018678665161133e+00 1.703432202339172363e-01 4.859074592590332031e+00 1.508825302124023438e+00 -2.948204755783081055e+00
2.452000000000000000e+03 1.386502742767333984e+01 4.371791362762451172e+00 -1.100668497383594513e-02 4.857542514801025391e+00 1.453960776329040527e+00 -2.412551641464233398e+00
2.453000000000000000e+03 1.284526443481445312e+01 3.630101919174194336e+00 3.593848347663879395e-01 3.168474435806274414e+00 1.058357834815979004e+00 -2.151530027389526367e+00
2.454000000000000000e+03 1.549647998809814453e+01 2.782253026962280273e+00 -4.027723670005798340e-01 7.493998527526855469e+00 2.127367734909057617e+00 -3.265260696411132812e+00
2.455000000000000000e+03 1.779247093200683594e+01 -4.909723758697509766e+00 2.247147083282470703e+00 5.602589607238769531e+00 2.354921102523803711e+00 -8.463127613067626953e-01
2.456000000000000000e+03 1.571261119842529297e+01 -4.823425292968750000e+00 1.905489087104797363e+00 5.549218177795410156e+00 2.236412286758422852e+00 1.833105802536010742e+00
2.457000000000000000e+03 1.487578105926513672e+01 2.763545036315917969e+00 5.998317152261734009e-03 6.252257347106933594e+00 1.877476692199707031e+00 -3.348044872283935547e+00
2.458000000000000000e+03 1.482424068450927734e+01 2.206824541091918945e+00 3.093315958976745605e-01 6.110124588012695312e+00 1.925836801528930664e+00 -3.703368663787841797e+00
2.459000000000000000e+03 8.427073478698730469e+00 -8.162042617797851562e+00 3.979212343692779541e-01 1.410607695579528809e+00 5.425586700439453125e-01 1.931437492370605469e+00
2.460000000000000000e+03 1.005932331085205078e+01 6.068270683288574219e+00 4.740391671657562256e-01 2.107829093933105469e+00 7.745605111122131348e-01 -6.649481058120727539e-01
2.461000000000000000e+03 9.994840621948242188e+00 7.744544506072998047e+00 5.454161763191223145e-01 2.616443395614624023e+00 9.485578536987304688e-01 -6.264235973358154297e-01
2.462000000000000000e+03 1.434822082519531250e+01 4.470160007476806641e+00 -1.883375644683837891e-01 5.433917045593261719e+00 1.573673844337463379e+00 -2.445823431015014648e+00
2.463000000000000000e+03 2.009761810302734375e+01 -5.137422084808349609e+00 3.273646593093872070e+00 3.279430150985717773e+00 1.965923070907592773e+00 -2.039482831954956055e+00
2.464000000000000000e+03 1.483602809906005859e+01 5.633846759796142578e+00 -3.072195053100585938e-01 6.017821311950683594e+00 1.713180422782897949e+00 -2.145198345184326172e+00
2.465000000000000000e+03 1.210759449005126953e+01 4.982831954956054688e+00 3.396083414554595947e-01 3.133986473083496094e+00 1.042078375816345215e+00 -1.568375825881958008e+00
2.466000000000000000e+03 1.208056545257568359e+01 7.157654762268066406e+00 3.845872581005096436e-01 3.875513076782226562e+00 1.278030157089233398e+00 -1.296534299850463867e+00
2.467000000000000000e+03 8.189249038696289062e+00 -6.373809814453125000e+00 8.078661561012268066e-01 8.181890845298767090e-01 4.878165721893310547e-01 1.481546282768249512e+00
2.468000000000000000e+03 6.666983604431152344e+00 -8.017834663391113281e+00 1.992181390523910522e-01 1.255449891090393066e+00 4.364003837108612061e-01 1.310484409332275391e+00
2.469000000000000000e+03 9.230109214782714844e+00 6.960739612579345703e+00 5.063327550888061523e-01 1.928442955017089844e+00 7.304326891899108887e-01 -3.939081430435180664e-01
2.470000000000000000e+03 6.871731281280517578e+00 -7.015851497650146484e+00 4.145657122135162354e-01 9.476147294044494629e-01 4.086541235446929932e-01 1.214761734008789062e+00
2.471000000000000000e+03 7.304855346679687500e+00 -7.740462303161621094e+00 3.385879397392272949e-01 1.238913536071777344e+00 4.732504487037658691e-01 1.506483197212219238e+00
2.472000000000000000e+03 1.318431568145751953e+01 8.157014846801757812e+00 3.866114616394042969e-01 5.017121791839599609e+00 1.621119976043701172e+00 -1.463306069374084473e+00
2.473000000000000000e+03 1.166133880615234375e+01 7.841730117797851562e+00 4.735938906669616699e-01 3.783615827560424805e+00 1.277162909507751465e+00 -1.108217477798461914e+00
2.474000000000000000e+03 1.576382350921630859e+01 -5.416873455047607422e+00 1.636650323867797852e+00 4.873910427093505859e+00 1.953168153762817383e+00 1.630184173583984375e+00
2.475000000000000000e+03 1.843741798400878906e+01 -4.774150848388671875e+00 2.660413265228271484e+00 5.290623664855957031e+00 2.385311126708984375e+00 -1.485789656639099121e+00
2.476000000000000000e+03 8.552127838134765625e+00 1.212185096740722656e+01 6.489137411117553711e-01 2.636869668960571289e+00 9.857349991798400879e-01 -4.576385021209716797e-01
2.477000000000000000e+03 2.620996665954589844e+01 -8.004179000854492188e+00 2.758806228637695312e+00 7.397400736808776855e-01 1.049563884735107422e+00 -1.828060388565063477e+00
2.478000000000000000e+03 3.010368728637695312e+01 -1.232502937316894531e+01 1.495903611183166504e+00 9.273430109024047852e-01 7.269739508628845215e-01 -1.479126691818237305e+00
2.479000000000000000e+03 8.963081359863281250e+00 2.342137908935546875e+01 4.371635913848876953e-01 3.688597202301025391e+00 1.237728238105773926e+00 -1.447849750518798828e+00
2.480000000000000000e+03 7.155667114257812500e+01 2.922139406204223633e+00 -5.991671085357666016e-01 6.836376667022705078e+00 1.871162772178649902e+00 -6.063044071197509766e-01
2.481000000000000000e+03 1.357841491699218750e+01 6.566252231597900391e+00 1.014581918716430664e-01 5.030484676361083984e+00 1.539582848548889160e+00 -1.751190543174743652e+00
2.482000000000000000e+03 7.159126281738281250e+01 -1.341972947120666504e+00 -7.552143335342407227e-01 7.463807582855224609e+00 2.012578010559082031e+00 -1.565016955137252808e-01
2.483000000000000000e+03 1.079962825775146484e+01 5.951085567474365234e+00 4.448214769363403320e-01 2.513199090957641602e+00 8.874061703681945801e-01 -9.688717722892761230e-01
2.484000000000000000e+03 3.067812728881835938e+01 -1.142141532897949219e+01 1.941316008567810059e+00 1.307345390319824219e+00 9.745984077453613281e-01 -1.566494345664978027e+00
2.485000000000000000e+03 1.907760620117187500e+01 -1.005385589599609375e+01 3.547520637512207031e-01 1.910343766212463379e+00 6.795287728309631348e-01 -1.669887006282806396e-01
2.486000000000000000e+03 1.969281196594238281e+01 -1.139411449432373047e+01 -2.240104079246520996e-01 1.411882758140563965e+00 3.563617169857025146e-01 -1.384812295436859131e-01
2.487000000000000000e+03 7.116068267822265625e+01 -2.630717277526855469e+00 -7.248061299324035645e-01 7.612429618835449219e+00 2.066287040710449219e+00 -1.113554760813713074e-01
2.488000000000000000e+03 1.402986907958984375e+01 -1.152321147918701172e+01 -2.154575288295745850e-01 1.079534769058227539e+00 2.592231631278991699e-01 2.131240367889404297e+00
2.489000000000000000e+03 6.987823486328125000e+00 9.440668106079101562e+00 4.802678823471069336e-01 1.300480127334594727e+00 5.342243909835815430e-01 1.677028089761734009e-02
2.490000000000000000e+03 2.394086074829101562e+01 -1.273189067840576172e+01 -1.207773461937904358e-01 6.148933768272399902e-01 1.482348144054412842e-01 -6.103456616401672363e-01
2.491000000000000000e+03 2.260844421386718750e+01 -6.471596240997314453e+00 3.117659330368041992e+00 1.665990829467773438e+00 1.435095071792602539e+00 -1.796688318252563477e+00
2.492000000000000000e+03 1.007616233825683594e+01 -6.915815830230712891e+00 1.110939979553222656e+00 1.089808702468872070e+00 6.602246165275573730e-01 2.139659404754638672e+00
2.493000000000000000e+03 8.111780166625976562e+00 8.593276977539062500e+00 5.379666090011596680e-01 1.745058774948120117e+00 6.849076151847839355e-01 -1.559531390666961670e-01
2.494000000000000000e+03 1.235884857177734375e+01 9.381495475769042969e+00 5.734528303146362305e-01 4.686707019805908203e+00 1.578047990798950195e+00 -1.214571118354797363e+00
2.495000000000000000e+03 1.467852687835693359e+01 4.742712497711181641e+00 -3.292175531387329102e-01 5.867681503295898438e+00 1.661539196968078613e+00 -2.400509595870971680e+00
2.496000000000000000e+03 1.514481449127197266e+01 4.423967838287353516e+00 -5.018174648284912109e-01 6.501542091369628906e+00 1.799917340278625488e+00 -2.493710041046142578e+00
2.497000000000000000e+03 1.778150939941406250e+01 -1.017852878570556641e+01 2.024543434381484985e-01 1.961707592010498047e+00 6.492485404014587402e-01 3.907861113548278809e-01
2.498000000000000000e+03 1.754774284362792969e+01 -1.127083015441894531e+01 -3.254186809062957764e-01 1.440346360206604004e+00 3.344782888889312744e-01 5.626227259635925293e-01
2.499000000000000000e+03 7.181612396240234375e+01 5.202714920043945312e+00 -3.807297945022583008e-01 6.641077518463134766e+00 1.878104329109191895e+00 -7.389907836914062500e-01
2.500000000000000000e+03 6.901631927490234375e+01 2.500687360763549805e+00 -8.510073423385620117e-01 6.058378219604492188e+00 1.562211155891418457e+00 -9.421001076698303223e-01
2.501000000000000000e+03 5.634156227111816406e+00 7.410803794860839844e+00 3.083587586879730225e-01 4.435975551605224609e-01 2.255868911743164062e-01 3.493319451808929443e-01
2.502000000000000000e+03 7.374985694885253906e+00 7.616278171539306641e+00 4.606996476650238037e-01 1.178130507469177246e+00 4.916490614414215088e-01 5.199990421533584595e-02
2.503000000000000000e+03 2.463720130920410156e+01 -7.599339485168457031e+00 2.786065340042114258e+00 1.050371050834655762e+00 1.150930881500244141e+00 -1.760400176048278809e+00
2.504000000000000000e+03 6.660317230224609375e+01 2.792176723480224609e+00 -9.143679738044738770e-01 4.975536823272705078e+00 1.218350648880004883e+00 -1.270431041717529297e+00
2.505000000000000000e+03 6.461658477783203125e+01 2.723118305206298828e+00 -9.470618963241577148e-01 3.865029096603393555e+00 8.753901720046997070e-01 -1.435548901557922363e+00
2.506000000000000000e+03 2.066002845764160156e+01 -1.165370082855224609e+01 -1.845533996820449829e-01 1.299030303955078125e+00 3.343430757522583008e-01 -3.854059278964996338e-01
2.507000000000000000e+03 7.829884529113769531e+00 6.222592830657958984e+00 4.061583876609802246e-01 1.060516595840454102e+00 4.400025010108947754e-01 2.832945436239242554e-02
2.508000000000000000e+03 7.160507965087890625e+01 7.850802898406982422e+00 -1.928640455007553101e-01 6.284725666046142578e+00 1.827558517456054688e+00 -8.639885187149047852e-01
2.509000000000000000e+03 6.916011810302734375e+00 -8.841126441955566406e+00 3.051984682679176331e-02 1.578821539878845215e+00 4.828024208545684814e-01 1.523157358169555664e+00
2.510000000000000000e+03 2.291930580139160156e+01 -5.550629615783691406e+00 3.744222402572631836e+00 1.410097360610961914e+00 1.546295881271362305e+00 -1.913323640823364258e+00
2.511000000000000000e+03 2.179058074951171875e+01 -4.782544136047363281e+00 4.030672550201416016e+00 1.931191444396972656e+00 1.788559198379516602e+00 -2.187500715255737305e+00
2.512000000000000000e+03 7.003324890136718750e+01 1.954351234436035156e+01 3.630899488925933838e-01 5.468855857849121094e+00 1.749583840370178223e+00 -4.098260104656219482e-01
2.513000000000000000e+03 7.143162536621093750e+01 1.588327980041503906e+01 2.512052357196807861e-01 5.835827827453613281e+00 1.826110005378723145e+00 -6.144037246704101562e-01
2.514000000000000000e+03 3.548229598999023438e+01 -1.262067699432373047e+01 9.726290106773376465e-01 6.571187496185302734e+00 2.263144969940185547e+00 -1.216707825660705566e+00
2.515000000000000000e+03 2.202153205871582031e+01 -5.762673377990722656e+00 3.406178712844848633e+00 1.846554279327392578e+00 1.575819849967956543e+00 -1.979338765144348145e+00
2.516000000000000000e+03 2.804147720336914062e+01 -1.099778938293457031e+01 1.789510726928710938e+00 5.179682374000549316e-01 6.922436952590942383e-01 -1.374198555946350098e+00
2.517000000000000000e+03 9.274634361267089844e+00 2.631703186035156250e+01 9.954691678285598755e-02 3.710942029953002930e+00 1.143146634101867676e+00 -1.531901001930236816e+00
2.518000000000000000e+03 7.026617431640625000e+01 1.427019786834716797e+01 2.800033688545227051e-01 5.531365394592285156e+00 1.743410587310791016e+00 -7.358767390251159668e-01
2.519000000000000000e+03 8.779266357421875000e+00 2.040560531616210938e+01 6.683551669120788574e-01 3.565858840942382812e+00 1.270264148712158203e+00 -1.233598113059997559e+00
2.520000000000000000e+03 9.640378952026367188e+00 -8.340923309326171875e+00 5.449056625366210938e-01 1.444020867347717285e+00 5.966779589653015137e-01 2.287880897521972656e+00
2.521000000000000000e+03 8.613142013549804688e+00 -1.183443832397460938e+01 -5.665011405944824219e-01 2.540151357650756836e+00 5.920950770378112793e-01 2.415053606033325195e+00
2.522000000000000000e+03 3.123057556152343750e+01 -8.077307701110839844e+00 3.222385644912719727e+00 1.381236791610717773e+00 1.381086707115173340e+00 -1.655770421028137207e+00
2.523000000000000000e+03 3.012651252746582031e+01 -8.164277076721191406e+00 3.116552829742431641e+00 9.769983887672424316e-01 1.228065371513366699e+00 -1.833345890045166016e+00
2.524000000000000000e+03 7.197012901306152344e+00 1.860831069946289062e+01 5.892274975776672363e-01 2.466954469680786133e+00 9.168545603752136230e-01 -9.597260951995849609e-01
2.525000000000000000e+03 7.954049110412597656e+00 1.549563121795654297e+01 6.986229419708251953e-01 2.730634450912475586e+00 1.028777241706848145e+00 -6.798624396324157715e-01
2.526000000000000000e+03 6.132489681243896484e+00 2.310536766052246094e+01 2.895238399505615234e-01 2.260534763336181641e+00 7.650176286697387695e-01 -1.323354959487915039e+00
2.527000000000000000e+03 7.299561977386474609e+00 2.231471443176269531e+01 4.412421882152557373e-01 2.816172838211059570e+00 9.772245287895202637e-01 -1.339697480201721191e+00
2.528000000000000000e+03 7.043843841552734375e+01 4.229414165019989014e-01 -8.580566048622131348e-01 6.880384922027587891e+00 1.806698441505432129e+00 -5.272766351699829102e-01
2.529000000000000000e+03 7.965872764587402344e+00 9.476971626281738281e+00 5.500025153160095215e-01 1.882823705673217773e+00 7.298478484153747559e-01 -1.819604784250259399e-01
2.530000000000000000e+03 6.052746295928955078e+00 9.300168037414550781e+00 4.361463189125061035e-01 8.628209829330444336e-01 3.896901905536651611e-01 1.332498490810394287e-01
2.531000000000000000e+03 6.089055633544921875e+01 5.569596767425537109e+00 -1.820832937955856323e-01 2.192990779876708984e+00 6.032722592353820801e-01 -1.137341141700744629e+00
2.532000000000000000e+03 9.602608680725097656e+00 1.763773155212402344e+01 8.892558217048645020e-01 4.050480365753173828e+00 1.481920838356018066e+00 -1.054853200912475586e+00
2.533000000000000000e+03 6.968422698974609375e+01 1.391100645065307617e+00 -8.797830939292907715e-01 6.494954586029052734e+00 1.684551477432250977e+00 -7.341895699501037598e-01
2.534000000000000000e+03 3.521454620361328125e+01 -1.119358444213867188e+01 1.787624716758728027e+00 6.058585166931152344e+00 2.353863000869750977e+00 -9.765312075614929199e-01
2.535000000000000000e+03 1.059055519104003906e+01 1.226355457305908203e+01 7.837267518043518066e-01 4.060900211334228516e+00 1.453388094902038574e+00 -8.003305792808532715e-01
2.536000000000000000e+03 7.856042861938476562e+00 1.116529083251953125e+01 6.083112359046936035e-01 2.085283756256103516e+00 8.080785274505615234e-01 -2.916872799396514893e-01
2.537000000000000000e+03 4.962151336669921875e+01 1.079952430725097656e+01 1.925869703292846680e+00 2.599673986434936523e+00 1.357663154602050781e+00 1.678449630737304688e+00
2.538000000000000000e+03 7.056431579589843750e+01 4.999948501586914062e+00 -4.881292283535003662e-01 6.261535167694091797e+00 1.732021689414978027e+00 -8.803022503852844238e-01
2.539000000000000000e+03 1.022828674316406250e+01 1.429545593261718750e+01 8.637700080871582031e-01 4.099513053894042969e+00 1.488984942436218262e+00 -8.672416806221008301e-01
2.540000000000000000e+03 1.046196746826171875e+01 -1.012851047515869141e+01 8.855205029249191284e-02 1.681285262107849121e+00 5.309512019157409668e-01 2.662655353546142578e+00
2.541000000000000000e+03 1.066135692596435547e+01 -8.069201469421386719e+00 8.071720004081726074e-01 1.412920475006103516e+00 6.660277247428894043e-01 2.410822868347167969e+00
2.542000000000000000e+03 7.077501678466796875e+01 -1.928779006004333496e+00 -8.343976140022277832e-01 7.302387237548828125e+00 1.940396904945373535e+00 -2.647090554237365723e-01
2.543000000000000000e+03 7.017005920410156250e+01 -1.255668520927429199e+00 -8.812849521636962891e-01 7.051768779754638672e+00 1.851145148277282715e+00 -3.930330574512481689e-01
2.544000000000000000e+03 5.708666992187500000e+01 8.943033218383789062e+00 9.075525999069213867e-01 1.637529253959655762e+00 7.635245323181152344e-01 -3.158010542392730713e-01
2.545000000000000000e+03 5.245582199096679688e+01 8.304240226745605469e+00 1.232173204421997070e+00 1.264332652091979980e+00 7.489517331123352051e-01 6.385473012924194336e-01
2.546000000000000000e+03 9.085879325866699219e+00 1.538027095794677734e+01 8.088007569313049316e-01 3.494044303894042969e+00 1.290853500366210938e+00 -7.973760366439819336e-01
2.547000000000000000e+03 9.246568679809570312e+00 1.651859474182128906e+01 8.804454803466796875e-01 3.761782407760620117e+00 1.392668366432189941e+00 -9.305147528648376465e-01
2.548000000000000000e+03 2.197927665710449219e+01 -7.423598289489746094e+00 2.410098791122436523e+00 1.779729247093200684e+00 1.256948351860046387e+00 -1.570928096771240234e+00
2.549000000000000000e+03 4.767132186889648438e+01 1.043913745880126953e+01 1.959105491638183594e+00 3.530981779098510742e+00 1.647026181221008301e+00 2.230741739273071289e+00
2.550000000000000000e+03 4.808256530761718750e+01 8.650699615478515625e+00 1.736414074897766113e+00 2.694570302963256836e+00 1.329295277595520020e+00 2.018518686294555664e+00
2.551000000000000000e+03 5.104890060424804688e+01 2.561918830871582031e+01 5.218048095703125000e-01 4.064439773559570312e+00 1.375873327255249023e+00 1.060256719589233398e+00
2.552000000000000000e+03 7.075366973876953125e+01 -5.008756637573242188e+00 -4.861027598381042480e-01 7.936643123626708984e+00 2.235162258148193359e+00 -8.254170417785644531e-02
2.553000000000000000e+03 6.983351135253906250e+01 2.100269699096679688e+01 3.663246929645538330e-01 5.437510013580322266e+00 1.741150379180908203e+00 -3.131181597709655762e-01
2.554000000000000000e+03 7.053337097167968750e+01 2.576405715942382812e+01 2.391932904720306396e-01 5.642170429229736328e+00 1.764409065246582031e+00 -9.197448939085006714e-02
2.555000000000000000e+03 7.016099548339843750e+01 2.422376251220703125e+01 2.866976559162139893e-01 5.561983585357666016e+00 1.754604339599609375e+00 -1.528649628162384033e-01
2.556000000000000000e+03 3.005592346191406250e+01 -1.009998035430908203e+01 2.509752511978149414e+00 9.898574352264404297e-01 1.049883008003234863e+00 -1.650338530540466309e+00
2.557000000000000000e+03 4.900051879882812500e+01 1.773756408691406250e+01 1.390819311141967773e+00 4.112406253814697266e+00 1.650967717170715332e+00 1.645839810371398926e+00
2.558000000000000000e+03 8.263407707214355469e+00 1.310710334777832031e+01 6.815260648727416992e-01 2.631676912307739258e+00 9.939609169960021973e-01 -5.003255009651184082e-01
2.559000000000000000e+03 9.690815925598144531e+00 1.127716255187988281e+01 7.043208479881286621e-01 3.247522354125976562e+00 1.185552954673767090e+00 -5.919234156608581543e-01
2.560000000000000000e+03 2.698586273193359375e+01 -1.104022598266601562e+01 1.491092085838317871e+00 4.444450438022613525e-01 5.806611180305480957e-01 -1.324032306671142578e+00
2.561000000000000000e+03 4.791730499267578125e+01 1.668749237060546875e+01 1.448827981948852539e+00 4.389338493347167969e+00 1.751449942588806152e+00 1.832084178924560547e+00
2.562000000000000000e+03 4.973127746582031250e+01 1.492391586303710938e+01 1.787861585617065430e+00 3.504967927932739258e+00 1.587848901748657227e+00 1.688038468360900879e+00
2.563000000000000000e+03 1.014817714691162109e+01 3.211200714111328125e+01 -7.187690138816833496e-01 3.472312211990356445e+00 8.260629177093505859e-01 -1.191971898078918457e+00
2.564000000000000000e+03 4.968327713012695312e+01 1.972562408447265625e+01 1.176172375679016113e+00 4.049266815185546875e+00 1.567631721496582031e+00 1.429744958877563477e+00
2.565000000000000000e+03 5.009914016723632812e+01 2.424543762207031250e+01 6.350815296173095703e-01 4.115990161895751953e+00 1.425321459770202637e+00 1.111962795257568359e+00
2.566000000000000000e+03 9.831808090209960938e+00 -1.038409805297851562e+01 -4.336844757199287415e-02 1.796130061149597168e+00 5.258284807205200195e-01 2.619284152984619141e+00
2.567000000000000000e+03 7.022327423095703125e+01 1.826757621765136719e+01 3.605803847312927246e-01 5.512081623077392578e+00 1.761798620223999023e+00 -4.762760996818542480e-01
2.568000000000000000e+03 7.004998779296875000e+01 1.708300399780273438e+01 3.602693378925323486e-01 5.457521915435791016e+00 1.745337486267089844e+00 -5.712259411811828613e-01
2.569000000000000000e+03 6.158253860473632812e+01 6.862462043762207031e+00 6.716646999120712280e-02 2.584112882614135742e+00 7.953838109970092773e-01 -1.139381408691406250e+00
2.570000000000000000e+03 6.971649169921875000e+01 1.023866367340087891e+01 5.448146164417266846e-02 5.537711143493652344e+00 1.677657723426818848e+00 -9.652117490768432617e-01
2.571000000000000000e+03 7.039754486083984375e+01 7.721344947814941406e+00 -1.998135000467300415e-01 5.951378822326660156e+00 1.725469589233398438e+00 -9.661390781402587891e-01
2.572000000000000000e+03 2.325428962707519531e+01 -1.111286640167236328e+01 6.411080360412597656e-01 9.372459053993225098e-01 4.735061824321746826e-01 -9.266757369041442871e-01
2.573000000000000000e+03 2.473740768432617188e+01 -1.084843826293945312e+01 1.115895032882690430e+00 7.391760349273681641e-01 5.565212965011596680e-01 -1.153778791427612305e+00
2.574000000000000000e+03 6.590113067626953125e+01 4.353957653045654297e+00 -6.428517699241638184e-01 4.444565296173095703e+00 1.140514016151428223e+00 -1.341871500015258789e+00
2.575000000000000000e+03 6.213375854492187500e+01 5.051298618316650391e+00 -3.795302808284759521e-01 2.676095008850097656e+00 6.889694333076477051e-01 -1.293402791023254395e+00
2.576000000000000000e+03 5.053764343261718750e+01 2.847812843322753906e+01 1.433813571929931641e-01 4.078176498413085938e+00 1.266467332839965820e+00 9.579304456710815430e-01
2.577000000000000000e+03 4.388598251342773438e+01 -3.464617156982421875e+01 -8.412713408470153809e-01 3.982909440994262695e+00 9.424914121627807617e-01 -1.076291203498840332e+00
2.578000000000000000e+03 7.492390441894531250e+01 -2.015841293334960938e+01 4.254075586795806885e-01 9.190818786621093750e+00 2.884867906570434570e+00 -5.387298464775085449e-01
2.579000000000000000e+03 6.904132843017578125e+01 3.534105300903320312e+01 -2.782022207975387573e-02 5.666279315948486328e+00 1.691537737846374512e+00 1.107893511652946472e-01
2.580000000000000000e+03 5.095870971679687500e+01 2.067333412170410156e+01 1.127837181091308594e+00 3.892596721649169922e+00 1.506130099296569824e+00 1.286996960639953613e+00
2.581000000000000000e+03 5.007444000244140625e+01 2.188051605224609375e+01 9.209600090980529785e-01 4.092407703399658203e+00 1.504010319709777832e+00 1.261356592178344727e+00
2.582000000000000000e+03 6.885610961914062500e+01 4.635857343673706055e-01 -1.005138874053955078e+00 6.333895683288574219e+00 1.598627090454101562e+00 -8.011144399642944336e-01
2.583000000000000000e+03 7.067169952392578125e+01 2.171198129653930664e+00 -7.335124015808105469e-01 6.672230243682861328e+00 1.781615376472473145e+00 -6.584150195121765137e-01
2.584000000000000000e+03 6.793910980224609375e+01 7.745367884635925293e-01 -1.070207238197326660e+00 5.911951541900634766e+00 1.452523350715637207e+00 -9.751126766204833984e-01
2.585000000000000000e+03 3.365144729614257812e+01 -5.548534393310546875e+00 3.138049125671386719e+00 2.359258651733398438e+00 1.649192452430725098e+00 -6.195784211158752441e-01
2.586000000000000000e+03 5.302985763549804688e+01 9.349945068359375000e+00 1.373383164405822754e+00 1.487060308456420898e+00 8.581330776214599609e-01 6.124444007873535156e-01
2.587000000000000000e+03 7.478115844726562500e+01 -1.754075622558593750e+01 5.450784564018249512e-01 9.191298484802246094e+00 2.920912981033325195e+00 -2.600710690021514893e-01
2.588000000000000000e+03 8.073053359985351562e+00 4.114474487304687500e+01 -6.912981271743774414e-01 3.275942802429199219e+00 7.753933668136596680e-01 -1.794061064720153809e-01
2.589000000000000000e+03 9.390583038330078125e+00 3.603071212768554688e+01 -8.981620669364929199e-01 3.206512451171875000e+00 6.925050616264343262e-01 -8.330184817314147949e-01
2.590000000000000000e+03 5.538576126098632812e+01 9.214747428894042969e+00 1.107322454452514648e+00 1.480562210083007812e+00 7.763653993606567383e-01 3.848998248577117920e-02
2.591000000000000000e+03 1.223751640319824219e+01 3.859698486328125000e+01 -1.219143748283386230e+00 2.781527757644653320e+00 4.687151908874511719e-01 -3.877382278442382812e-01
2.592000000000000000e+03 6.464795684814453125e+01 3.255645751953125000e+01 7.708428800106048584e-02 5.172863960266113281e+00 1.574984431266784668e+00 2.290994077920913696e-01
2.593000000000000000e+03 6.765851593017578125e+01 4.101568603515625000e+01 -9.584958106279373169e-02 5.599480152130126953e+00 1.651089191436767578e+00 2.244197018444538116e-02
2.594000000000000000e+03 1.280080890655517578e+01 -4.233061313629150391e+00 2.828199625015258789e+00 1.403091907501220703e+00 1.269387483596801758e+00 2.372424364089965820e+00
2.595000000000000000e+03 1.253326416015625000e+01 -4.378796100616455078e+00 2.641302824020385742e+00 1.264872789382934570e+00 1.171852707862854004e+00 2.273271083831787109e+00
2.596000000000000000e+03 1.525335788726806641e+01 -4.221891403198242188e+00 2.456998825073242188e+00 5.334846496582031250e+00 2.337553739547729492e+00 2.551702022552490234e+00
2.597000000000000000e+03 1.461099243164062500e+01 -3.799495220184326172e+00 3.127735376358032227e+00 4.029619216918945312e+00 2.147206306457519531e+00 3.037086486816406250e+00
2.598000000000000000e+03 1.422919464111328125e+01 -4.180392742156982422e+00 2.914277553558349609e+00 3.210039377212524414e+00 1.837295055389404297e+00 2.856031656265258789e+00
2.599000000000000000e+03 1.266850090026855469e+01 6.138837814331054688e+00 2.611776590347290039e-01 4.107386112213134766e+00 1.310569047927856445e+00 -1.650158882141113281e+00
2.600000000000000000e+03 1.018059730529785156e+01 -6.172399997711181641e+00 1.356109380722045898e+00 9.197891354560852051e-01 6.827695369720458984e-01 2.000321149826049805e+00
2.601000000000000000e+03 1.108950901031494141e+01 -5.904204845428466797e+00 1.668285250663757324e+00 1.049835085868835449e+00 8.154360651969909668e-01 2.171983718872070312e+00
2.602000000000000000e+03 1.428190326690673828e+01 4.909978866577148438e+00 -1.618751585483551025e-01 5.380537986755371094e+00 1.565598726272583008e+00 -2.249782323837280273e+00
2.603000000000000000e+03 1.364137458801269531e+01 7.730581283569335938e+00 2.818774580955505371e-01 5.289504051208496094e+00 1.671414494514465332e+00 -1.600427985191345215e+00
2.604000000000000000e+03 1.527480697631835938e+01 -4.792396068572998047e+00 2.042022228240966797e+00 4.879707336425781250e+00 2.076518774032592773e+00 2.246200561523437500e+00
2.605000000000000000e+03 1.494357013702392578e+01 -1.110560894012451172e+01 -1.103465706110000610e-01 1.194176793098449707e+00 3.251490592956542969e-01 1.754199385643005371e+00
2.606000000000000000e+03 9.175068855285644531e+00 -6.726629257202148438e+00 9.551559686660766602e-01 9.658610820770263672e-01 5.763050913810729980e-01 1.856558084487915039e+00
2.607000000000000000e+03 1.341773891448974609e+01 3.700456619262695312e+00 2.558932900428771973e-01 3.942282676696777344e+00 1.259452819824218750e+00 -2.446985006332397461e+00
2.608000000000000000e+03 1.275467109680175781e+01 4.295534610748291016e+00 2.835933268070220947e-01 3.464824438095092773e+00 1.124525308609008789e+00 -1.988646864891052246e+00
2.609000000000000000e+03 1.400685691833496094e+01 3.809783935546875000e+00 3.997145965695381165e-02 4.838442325592041016e+00 1.463524103164672852e+00 -2.718935728073120117e+00
2.610000000000000000e+03 1.004343032836914062e+01 6.896262645721435547e+00 4.990120232105255127e-01 2.387368440628051758e+00 8.659141063690185547e-01 -6.511815190315246582e-01
2.611000000000000000e+03 1.332292842864990234e+01 4.323942184448242188e+00 1.599061042070388794e-01 4.123248577117919922e+00 1.284946441650390625e+00 -2.279282331466674805e+00
2.612000000000000000e+03 1.831121826171875000e+01 -5.827783584594726562e+00 2.020019769668579102e+00 4.556443214416503906e+00 1.972938895225524902e+00 -9.425699710845947266e-01
2.613000000000000000e+03 1.219418621063232422e+01 6.235648632049560547e+00 3.424428105354309082e-01 3.715407609939575195e+00 1.217355132102966309e+00 -1.437931299209594727e+00
2.614000000000000000e+03 2.091052818298339844e+01 -5.006417274475097656e+00 3.655111312866210938e+00 2.603605031967163086e+00 1.877614855766296387e+00 -2.229090690612792969e+00
2.615000000000000000e+03 2.293108367919921875e+01 -7.980835437774658203e+00 2.283559560775756836e+00 1.401769399642944336e+00 1.105598688125610352e+00 -1.539114952087402344e+00
2.616000000000000000e+03 1.220277500152587891e+01 8.686820983886718750e+00 5.183100700378417969e-01 4.399869918823242188e+00 1.475453972816467285e+00 -1.198452830314636230e+00
2.617000000000000000e+03 1.164551448822021484e+01 1.033999156951904297e+01 6.982579827308654785e-01 4.413065433502197266e+00 1.533396959304809570e+00 -1.011399507522583008e+00
2.618000000000000000e+03 7.962133884429931641e+00 -7.410145759582519531e+00 5.246301293373107910e-01 1.120107173919677734e+00 4.934211969375610352e-01 1.630661129951477051e+00
2.619000000000000000e+03 7.698310375213623047e+00 -8.545988082885742188e+00 1.998932361602783203e-01 1.476307034492492676e+00 5.028600692749023438e-01 1.729768633842468262e+00
2.620000000000000000e+03 8.121817588806152344e+00 -9.404765129089355469e+00 -3.214830160140991211e-02 1.847538590431213379e+00 5.446171164512634277e-01 2.028851032257080078e+00
2.621000000000000000e+03 8.616708755493164062e+00 -1.026362705230712891e+01 -1.582468152046203613e-01 1.973187565803527832e+00 5.444822311401367188e-01 2.298638820648193359e+00
2.622000000000000000e+03 2.158191108703613281e+01 -9.880432128906250000e+00 9.525005221366882324e-01 1.499664902687072754e+00 7.356495857238769531e-01 -9.307112693786621094e-01
2.623000000000000000e+03 1.377305793762207031e+01 -1.065958404541015625e+01 9.965474903583526611e-02 1.396741747856140137e+00 4.489189684391021729e-01 2.267879247665405273e+00
2.624000000000000000e+03 1.121053695678710938e+01 -1.012622356414794922e+01 2.034432291984558105e-01 1.580576539039611816e+00 5.352059006690979004e-01 2.667523145675659180e+00
2.625000000000000000e+03 7.003034973144531250e+01 3.225484609603881836e+00 -6.925814151763916016e-01 6.353162288665771484e+00 1.698174238204956055e+00 -8.275325298309326172e-01
2.626000000000000000e+03 1.702988433837890625e+01 -5.319244384765625000e+00 1.719393730163574219e+00 5.538619995117187500e+00 2.177404165267944336e+00 2.644259333610534668e-01
2.627000000000000000e+03 1.654894638061523438e+01 -4.981820106506347656e+00 1.762202978134155273e+00 5.831192970275878906e+00 2.278018712997436523e+00 7.730892300605773926e-01
2.628000000000000000e+03 1.087077999114990234e+01 6.800733566284179688e+00 4.760691225528717041e-01 2.908933162689208984e+00 1.015500664710998535e+00 -9.448866248130798340e-01
2.629000000000000000e+03 1.071359825134277344e+01 9.502427101135253906e+00 6.443256735801696777e-01 3.567352533340454102e+00 1.263503432273864746e+00 -7.962585091590881348e-01
2.630000000000000000e+03 6.401653289794921875e+01 4.912818431854248047e+00 -4.855776727199554443e-01 3.542666912078857422e+00 9.171267747879028320e-01 -1.378183484077453613e+00
2.631000000000000000e+03 6.638231658935546875e+01 3.709168434143066406e+00 -7.653921246528625488e-01 4.756455898284912109e+00 1.197319030761718750e+00 -1.302614927291870117e+00
2.632000000000000000e+03 7.095785522460937500e+01 3.801116704940795898e+00 -6.025822162628173828e-01 6.517717838287353516e+00 1.774540781974792480e+00 -7.660594582557678223e-01
2.633000000000000000e+03 2.003817176818847656e+01 -1.037171936035156250e+01 3.917079269886016846e-01 1.686639547348022461e+00 6.235042214393615723e-01 -4.251234531402587891e-01
2.634000000000000000e+03 1.798456001281738281e+01 -7.121782302856445312e+00 1.344910740852355957e+00 3.665973186492919922e+00 1.503265142440795898e+00 -1.836642175912857056e-01
2.635000000000000000e+03 9.028345108032226562e+00 8.622566223144531250e+00 5.757996439933776855e-01 2.291512489318847656e+00 8.601936101913452148e-01 -3.753955662250518799e-01
2.636000000000000000e+03 1.703207969665527344e+01 -1.071063804626464844e+01 -9.229072928428649902e-02 1.653547644615173340e+00 4.683770835399627686e-01 7.786361575126647949e-01
2.637000000000000000e+03 8.026715278625488281e+00 1.423404979705810547e+01 6.879708170890808105e-01 2.646413326263427734e+00 1.000315189361572266e+00 -5.625294446945190430e-01
2.638000000000000000e+03 5.148343658447265625e+01 1.097181034088134766e+01 1.796685695648193359e+00 2.115598201751708984e+00 1.173685193061828613e+00 1.157533288002014160e+00
2.639000000000000000e+03 9.342061042785644531e+00 1.320625686645507812e+01 7.621580958366394043e-01 3.327569723129272461e+00 1.226918339729309082e+00 -6.643075346946716309e-01
2.640000000000000000e+03 7.869301319122314453e+00 1.035721778869628906e+01 6.139208078384399414e-01 2.001371622085571289e+00 7.845877408981323242e-01 -2.499317675828933716e-01
2.641000000000000000e+03 1.068086624145507812e+01 1.129759502410888672e+01 7.408009767532348633e-01 3.939454317092895508e+00 1.404076576232910156e+00 -7.996652126312255859e-01
2.642000000000000000e+03 2.066353607177734375e+01 -9.385835647583007812e+00 9.872040152549743652e-01 1.833801388740539551e+00 8.463016152381896973e-01 -7.948127388954162598e-01
2.643000000000000000e+03 6.941004943847656250e+01 1.188232707977294922e+01 2.022636532783508301e-01 5.364585399627685547e+00 1.670054674148559570e+00 -8.904014229774475098e-01
2.644000000000000000e+03 3.512636566162109375e+01 -7.848977565765380859e+00 2.770444631576538086e+00 4.822042942047119141e+00 2.277746200561523438e+00 -4.221020638942718506e-01
2.645000000000000000e+03 2.534170150756835938e+01 -8.549666404724121094e+00 2.403309345245361328e+00 8.035345673561096191e-01 9.620531797409057617e-01 -1.685708761215209961e+00
2.646000000000000000e+03 2.309177589416503906e+01 -9.552138328552246094e+00 1.469576716423034668e+00 1.171355009078979492e+00 7.922795414924621582e-01 -1.241628289222717285e+00
2.647000000000000000e+03 2.245073318481445312e+01 -1.042349433898925781e+01 8.164496421813964844e-01 1.216692090034484863e+00 6.099425554275512695e-01 -9.578909873962402344e-01
2.648000000000000000e+03 1.199947261810302734e+01 -1.012075424194335938e+01 2.133276760578155518e-01 1.571335792541503906e+00 5.353990197181701660e-01 2.659813642501831055e+00
2.649000000000000000e+03 2.806109237670898438e+01 -9.874835968017578125e+00 2.239673852920532227e+00 5.722038149833679199e-01 8.435633182525634766e-01 -1.638585805892944336e+00
2.650000000000000000e+03 2.850110626220703125e+01 -1.211284732818603516e+01 1.305862903594970703e+00 4.462210536003112793e-01 5.256252288818359375e-01 -1.224735856056213379e+00
2.651000000000000000e+03 5.797116088867187500e+01 8.392326354980468750e+00 7.299481630325317383e-01 1.753734111785888672e+00 7.451046705245971680e-01 -5.219576954841613770e-01
2.652000000000000000e+03 5.343424224853515625e+01 1.020348167419433594e+01 1.518500685691833496e+00 1.680808782577514648e+00 9.597928524017333984e-01 5.815886259078979492e-01
2.653000000000000000e+03 3.303321456909179688e+01 -1.135291576385498047e+01 2.010798931121826172e+00 3.259961605072021484e+00 1.581228137016296387e+00 -1.593460679054260254e+00
2.654000000000000000e+03 3.323248672485351562e+01 -8.375079154968261719e+00 3.010241746902465820e+00 2.799178838729858398e+00 1.742826223373413086e+00 -1.135931253433227539e+00
2.655000000000000000e+03 3.525702285766601562e+01 -1.005019283294677734e+01 2.136317491531372070e+00 5.665566921234130859e+00 2.340565204620361328e+00 -8.452283143997192383e-01
2.656000000000000000e+03 7.035806274414062500e+01 6.383394718170166016e+00 -3.399202227592468262e-01 6.056518554687500000e+00 1.714979529380798340e+00 -9.529556035995483398e-01
2.657000000000000000e+03 6.909751892089843750e+01 1.777177619934082031e+01 4.265955984592437744e-01 5.257675647735595703e+00 1.705281376838684082e+00 -5.464407801628112793e-01
2.658000000000000000e+03 2.609988594055175781e+01 -1.070348739624023438e+01 1.468079686164855957e+00 5.644468069076538086e-01 6.097579598426818848e-01 -1.301758766174316406e+00
2.659000000000000000e+03 1.936052322387695312e+01 -5.247274398803710938e+00 2.837571382522583008e+00 4.008995056152343750e+00 2.053969860076904297e+00 -1.799655318260192871e+00
2.660000000000000000e+03 1.946908187866210938e+01 -5.946262836456298828e+00 2.417001247406005859e+00 3.532432079315185547e+00 1.784829974174499512e+00 -1.459909439086914062e+00
2.661000000000000000e+03 2.934902000427246094e+01 -1.162635421752929688e+01 1.693876147270202637e+00 6.183542013168334961e-01 6.936691403388977051e-01 -1.405633568763732910e+00
2.662000000000000000e+03 3.442426681518554688e+01 -9.087051391601562500e+00 2.688672542572021484e+00 4.507175445556640625e+00 2.158754348754882812e+00 -8.786756992340087891e-01
2.663000000000000000e+03 6.929209899902343750e+01 7.969839572906494141e+00 -1.558195501565933228e-01 5.561163902282714844e+00 1.621603250503540039e+00 -1.046364307403564453e+00
2.664000000000000000e+03 6.765059661865234375e+01 1.712467002868652344e+01 5.277350544929504395e-01 4.910343170166015625e+00 1.631423473358154297e+00 -5.333027243614196777e-01
2.665000000000000000e+03 2.011252212524414062e+01 -6.793693542480468750e+00 2.243996858596801758e+00 2.830993175506591797e+00 1.522497057914733887e+00 -1.405069828033447266e+00
2.666000000000000000e+03 1.070735073089599609e+01 1.038188266754150391e+01 6.953557133674621582e-01 3.769368886947631836e+00 1.339417338371276855e+00 -7.794457077980041504e-01
2.667000000000000000e+03 7.012692260742187500e+01 8.880646705627441406e+00 -8.638815581798553467e-02 5.732432842254638672e+00 1.693813323974609375e+00 -9.876121878623962402e-01
2.668000000000000000e+03 6.712672424316406250e+01 2.724876594543457031e+01 3.064763545989990234e-01 5.209197998046875000e+00 1.654702305793762207e+00 7.187002152204513550e-02
2.669000000000000000e+03 6.845685577392578125e+01 2.463793754577636719e+01 3.511800169944763184e-01 5.305472850799560547e+00 1.696995854377746582e+00 -7.504350692033767700e-02
2.670000000000000000e+03 9.545235633850097656e+00 1.221627044677734375e+01 7.362926006317138672e-01 3.312449455261230469e+00 1.214622616767883301e+00 -6.251903176307678223e-01
2.671000000000000000e+03 7.105199432373046875e+01 -4.999339580535888672e-01 -7.772998809814453125e-01 7.151401042938232422e+00 1.912230253219604492e+00 -3.531970977783203125e-01
2.672000000000000000e+03 6.286255645751953125e+01 6.385917186737060547e+00 -1.159756481647491455e-01 3.085988044738769531e+00 8.910037279129028320e-01 -1.275565505027770996e+00
2.673000000000000000e+03 5.035590362548828125e+01 1.858103561401367188e+01 1.350519776344299316e+00 3.816987514495849609e+00 1.550252199172973633e+00 1.435920000076293945e+00
2.674000000000000000e+03 6.981094360351562500e+01 2.258615875244140625e+01 3.413689434528350830e-01 5.476985931396484375e+00 1.745506405830383301e+00 -2.303651571273803711e-01
2.675000000000000000e+03 5.216591262817382812e+01 1.001482868194580078e+01 1.603654503822326660e+00 1.697608947753906250e+00 9.903790354728698730e-01 8.749757409095764160e-01
2.676000000000000000e+03 5.413060379028320312e+01 8.985651969909667969e+00 1.191905975341796875e+00 1.400090098381042480e+00 7.775988578796386719e-01 2.986622452735900879e-01
2.677000000000000000e+03 6.010346603393554688e+01 9.301275253295898438e+00 7.006121873855590820e-01 2.379588603973388672e+00 9.240602254867553711e-01 -7.529397010803222656e-01
2.678000000000000000e+03 5.934266281127929688e+01 1.019896602630615234e+01 8.921642303466796875e-01 2.310876607894897461e+00 9.609122276306152344e-01 -5.577371716499328613e-01
2.679000000000000000e+03 3.208808898925781250e+01 -1.082284927368164062e+01 2.179907321929931641e+00 2.352293968200683594e+00 1.359660506248474121e+00 -1.589422106742858887e+00
2.680000000000000000e+03 2.597772598266601562e+01 -9.400972366333007812e+00 2.187737941741943359e+00 6.651371121406555176e-01 8.558624982833862305e-01 -1.592357039451599121e+00
2.681000000000000000e+03 4.653156661987304688e+01 -3.321856689453125000e+01 -4.253871142864227295e-01 2.896681785583496094e+00 7.413883805274963379e-01 -1.167248129844665527e+00
2.682000000000000000e+03 4.704133987426757812e+01 -3.142991828918457031e+01 -2.018783539533615112e-01 2.609425783157348633e+00 7.222642302513122559e-01 -1.189077973365783691e+00
2.683000000000000000e+03 5.201706695556640625e+01 2.716763496398925781e+01 3.607605099678039551e-01 4.070960044860839844e+00 1.329516172409057617e+00 9.876037836074829102e-01
2.684000000000000000e+03 5.143432235717773438e+01 9.012566566467285156e+00 1.468278288841247559e+00 1.583567857742309570e+00 9.155538678169250488e-01 9.641044139862060547e-01
2.685000000000000000e+03 6.893955230712890625e+01 2.637166786193847656e+01 2.831539213657379150e-01 5.431996822357177734e+00 1.714545249938964844e+00 -3.588626906275749207e-02
2.686000000000000000e+03 6.817295837402343750e+01 2.267890548706054688e+01 4.347680807113647461e-01 5.178343772888183594e+00 1.683933496475219727e+00 -1.693013608455657959e-01
2.687000000000000000e+03 7.486188507080078125e+01 -1.886991310119628906e+01 4.787765443325042725e-01 9.240928649902343750e+00 2.915911674499511719e+00 -3.722633421421051025e-01
2.688000000000000000e+03 6.479929351806640625e+01 3.745524406433105469e+00 -7.611149549484252930e-01 3.912085056304931641e+00 9.452910423278808594e-01 -1.401610493659973145e+00
2.689000000000000000e+03 6.423033142089843750e+01 6.083571434020996094e+00 -2.479028701782226562e-01 3.648412466049194336e+00 1.020152807235717773e+00 -1.317017316818237305e+00
2.690000000000000000e+03 5.184029769897460938e+01 1.544416618347167969e+01 1.747874259948730469e+00 3.059558629989624023e+00 1.442229866981506348e+00 1.302007675170898438e+00
2.691000000000000000e+03 7.150589752197265625e+01 2.368103790283203125e+01 2.368913888931274414e-01 5.769331932067871094e+00 1.801867008209228516e+00 -1.822312176227569580e-01
2.692000000000000000e+03 5.074868011474609375e+01 1.411506175994873047e+01 1.865667581558227539e+00 3.038015127182006836e+00 1.471104741096496582e+00 1.509182572364807129e+00
2.693000000000000000e+03 4.967214202880859375e+01 1.287807941436767578e+01 1.932432055473327637e+00 3.127554893493652344e+00 1.517996072769165039e+00 1.733481764793395996e+00
2.694000000000000000e+03 8.934551239013671875e+00 3.846957778930664062e+01 -8.394475579261779785e-01 3.235102176666259766e+00 7.186963558197021484e-01 -5.584239363670349121e-01
2.695000000000000000e+03 6.881896209716796875e+01 1.354283332824707031e+01 3.353645801544189453e-01 5.191053867340087891e+00 1.657925486564636230e+00 -8.094151616096496582e-01
2.696000000000000000e+03 7.150039672851562500e+01 1.467737388610839844e+01 2.318875044584274292e-01 5.868978023529052734e+00 1.830259680747985840e+00 -6.557340025901794434e-01
2.697000000000000000e+03 5.123260879516601562e+01 2.303577232360839844e+01 8.447383642196655273e-01 3.990345001220703125e+00 1.450525045394897461e+00 1.151303768157958984e+00
2.698000000000000000e+03 1.361314964294433594e+01 -4.378444671630859375e+00 2.805136680603027344e+00 2.389088392257690430e+00 1.558267593383789062e+00 2.681350231170654297e+00
2.699000000000000000e+03 1.144235897064208984e+01 -5.354979991912841797e+00 1.951376557350158691e+00 1.017361998558044434e+00 8.906215429306030273e-01 2.137851238250732422e+00
2.700000000000000000e+03 1.264240169525146484e+01 -4.730158329010009766e+00 2.489727735519409180e+00 1.471898555755615234e+00 1.188487887382507324e+00 2.387062311172485352e+00
2.701000000000000000e+03 1.570891761779785156e+01 -4.270160675048828125e+00 2.165039539337158203e+00 6.174094200134277344e+00 2.501740217208862305e+00 2.078681230545043945e+00
2.702000000000000000e+03 1.393172931671142578e+01 5.608601093292236328e+00 -4.302395507693290710e-02 5.128197669982910156e+00 1.525552034378051758e+00 -2.037270069122314453e+00
2.703000000000000000e+03 1.414911270141601562e+01 6.315511703491210938e+00 -7.478208839893341064e-02 5.457842826843261719e+00 1.614918231964111328e+00 -1.926683187484741211e+00
2.704000000000000000e+03 1.526872539520263672e+01 -5.350643634796142578e+00 1.790661334991455078e+00 4.490951061248779297e+00 1.884483814239501953e+00 2.086444377899169922e+00
2.705000000000000000e+03 1.304998302459716797e+01 6.744106769561767578e+00 2.390421330928802490e-01 4.530378341674804688e+00 1.430826067924499512e+00 -1.556582331657409668e+00
2.706000000000000000e+03 1.251575469970703125e+01 6.636780261993408203e+00 3.035570383071899414e-01 4.114298343658447266e+00 1.325356602668762207e+00 -1.490540385246276855e+00
2.707000000000000000e+03 1.043812370300292969e+01 -6.603224754333496094e+00 1.263919353485107422e+00 1.106700778007507324e+00 7.111859917640686035e-01 2.149245023727416992e+00
2.708000000000000000e+03 1.063834285736083984e+01 -6.002863883972167969e+00 1.509419918060302734e+00 9.929203987121582031e-01 7.507020831108093262e-01 2.077241897583007812e+00
2.709000000000000000e+03 1.463425254821777344e+01 4.003281593322753906e+00 -3.017333447933197021e-01 5.890029907226562500e+00 1.676488876342773438e+00 -2.678833723068237305e+00
2.710000000000000000e+03 1.328649902343750000e+01 4.969549655914306641e+00 1.063832119107246399e-01 4.359453678131103516e+00 1.339751124382019043e+00 -2.071383714675903320e+00
2.711000000000000000e+03 9.067304611206054688e+00 -7.729196071624755859e+00 6.460176110267639160e-01 1.240311264991760254e+00 5.658986568450927734e-01 2.044558763504028320e+00
2.712000000000000000e+03 9.438640594482421875e+00 -9.695621490478515625e+00 1.003358140587806702e-01 1.753160238265991211e+00 5.560488104820251465e-01 2.453011035919189453e+00
2.713000000000000000e+03 1.155716896057128906e+01 9.477270126342773438e+00 6.327688097953796387e-01 4.155436992645263672e+00 1.436461687088012695e+00 -9.792356491088867188e-01
2.714000000000000000e+03 1.655097770690917969e+01 -1.012861347198486328e+01 1.574925035238265991e-01 1.883052587509155273e+00 6.121634840965270996e-01 1.002786278724670410e+00
2.715000000000000000e+03 1.767996978759765625e+01 -5.591464042663574219e+00 1.834966897964477539e+00 5.084332942962646484e+00 2.075789928436279297e+00 -4.364327788352966309e-01
2.716000000000000000e+03 1.382382297515869141e+01 4.960352420806884766e+00 -4.111769422888755798e-02 4.868691444396972656e+00 1.448272109031677246e+00 -2.221832513809204102e+00
2.717000000000000000e+03 1.210727882385253906e+01 5.648093700408935547e+00 3.229703307151794434e-01 3.442681789398193359e+00 1.129695653915405273e+00 -1.491812944412231445e+00
2.718000000000000000e+03 1.032532024383544922e+01 -9.426580429077148438e+00 3.375647664070129395e-01 1.571186900138854980e+00 5.726255178451538086e-01 2.550226449966430664e+00
2.719000000000000000e+03 1.290438652038574219e+01 -1.086450195312500000e+01 5.851525347679853439e-03 1.391113519668579102e+00 4.190895259380340576e-01 2.520619153976440430e+00
2.720000000000000000e+03 1.085735034942626953e+01 7.710063934326171875e+00 5.112552642822265625e-01 3.192239761352539062e+00 1.111048460006713867e+00 -9.053128361701965332e-01
2.721000000000000000e+03 1.075217247009277344e+01 8.622058868408203125e+00 5.825893282890319824e-01 3.398211479187011719e+00 1.194240212440490723e+00 -8.125995397567749023e-01
2.722000000000000000e+03 1.279224300384521484e+01 -1.004621982574462891e+01 3.018128275871276855e-01 1.549807667732238770e+00 5.554861426353454590e-01 2.529198408126831055e+00
2.723000000000000000e+03 1.200837802886962891e+01 -7.383856296539306641e+00 1.186570763587951660e+00 1.625475049018859863e+00 8.436137437820434570e-01 2.528465747833251953e+00
2.724000000000000000e+03 1.039667415618896484e+01 -8.689927101135253906e+00 5.571763515472412109e-01 1.493281126022338867e+00 6.151372790336608887e-01 2.500186204910278320e+00
2.725000000000000000e+03 1.975955772399902344e+01 -7.530433654785156250e+00 1.694163441658020020e+00 2.751657485961914062e+00 1.333746194839477539e+00 -1.011132121086120605e+00
2.726000000000000000e+03 1.841905975341796875e+01 -9.663073539733886719e+00 3.790217638015747070e-01 2.191698312759399414e+00 7.712159752845764160e-01 8.928032219409942627e-02
2.727000000000000000e+03 8.964807510375976562e+00 -8.919470787048339844e+00 2.892147898674011230e-01 1.552098512649536133e+00 5.523939728736877441e-01 2.228362321853637695e+00
2.728000000000000000e+03 1.577710056304931641e+01 -1.062498378753662109e+01 -2.533396333456039429e-02 1.543398380279541016e+00 4.554193317890167236e-01 1.360974788665771484e+00
2.729000000000000000e+03 1.539152717590332031e+01 -9.955273628234863281e+00 2.557085454463958740e-01 1.793626070022583008e+00 6.148003935813903809e-01 1.601101160049438477e+00
2.730000000000000000e+03 3.362017059326171875e+01 -1.019712543487548828e+01 2.303352117538452148e+00 3.741826295852661133e+00 1.813553452491760254e+00 -1.280153036117553711e+00
2.731000000000000000e+03 9.774171829223632812e+00 1.037958049774169922e+01 6.855947375297546387e-01 3.130852222442626953e+00 1.144934058189392090e+00 -5.929834246635437012e-01
2.732000000000000000e+03 8.922793388366699219e+00 9.492512702941894531e+00 6.301096081733703613e-01 2.420494794845581055e+00 9.151813387870788574e-01 -4.024786353111267090e-01
2.733000000000000000e+03 2.021281242370605469e+01 -5.972911834716796875e+00 2.698850393295288086e+00 3.032118797302246094e+00 1.719290733337402344e+00 -1.757832050323486328e+00
2.734000000000000000e+03 2.135892677307128906e+01 -8.440565109252929688e+00 1.662482857704162598e+00 1.898994922637939453e+00 1.068443417549133301e+00 -1.228761434555053711e+00
2.735000000000000000e+03 6.476704406738281250e+01 7.434082508087158203e+00 -4.893203452229499817e-02 3.871764898300170898e+00 1.146849870681762695e+00 -1.250260114669799805e+00
2.736000000000000000e+03 6.826895904541015625e+01 9.916749000549316406e+00 8.146321773529052734e-02 5.139391422271728516e+00 1.566256403923034668e+00 -1.035871505737304688e+00
2.737000000000000000e+03 5.611879730224609375e+01 1.102665233612060547e+01 1.359561681747436523e+00 1.908239722251892090e+00 9.803404211997985840e-01 7.666549831628799438e-02
2.738000000000000000e+03 6.988800811767578125e+01 1.571772956848144531e+01 3.463491201400756836e-01 5.433776855468750000e+00 1.734037876129150391e+00 -6.531449556350708008e-01
2.739000000000000000e+03 8.837810516357421875e+00 1.035554599761962891e+01 6.560058593750000000e-01 2.537407159805297852e+00 9.580239057540893555e-01 -4.050945341587066650e-01
2.740000000000000000e+03 6.699180603027343750e+01 2.012528610229492188e+01 5.688732266426086426e-01 4.880184650421142578e+00 1.634717345237731934e+00 -2.830902636051177979e-01
2.741000000000000000e+03 6.810047912597656250e+01 1.529327392578125000e+01 4.587964415550231934e-01 4.982439994812011719e+00 1.632370948791503906e+00 -6.768380403518676758e-01
2.742000000000000000e+03 6.699062347412109375e+01 1.013568782806396484e+01 1.922442913055419922e-01 4.655466079711914062e+00 1.454313158988952637e+00 -1.050387740135192871e+00
2.743000000000000000e+03 1.742554473876953125e+01 -6.771238803863525391e+00 1.322955846786499023e+00 4.005122184753417969e+00 1.598423361778259277e+00 1.617922335863113403e-01
2.744000000000000000e+03 2.719602394104003906e+01 -9.577803611755371094e+00 2.324733734130859375e+00 6.082203388214111328e-01 8.798862695693969727e-01 -1.633525252342224121e+00
2.745000000000000000e+03 2.665921401977539062e+01 -1.014811515808105469e+01 1.945131540298461914e+00 5.221723318099975586e-01 7.401911616325378418e-01 -1.440563917160034180e+00
2.746000000000000000e+03 1.522399616241455078e+01 -5.894531250000000000e+00 1.558096408843994141e+00 4.072421550750732422e+00 1.689155459403991699e+00 2.012015581130981445e+00
2.747000000000000000e+03 6.794358062744140625e+01 4.608984947204589844e+00 -6.453030705451965332e-01 5.341377258300781250e+00 1.408822178840637207e+00 -1.186872124671936035e+00
2.748000000000000000e+03 6.712374877929687500e+01 4.130571842193603516e+00 -7.021145820617675781e-01 5.101241111755371094e+00 1.319737911224365234e+00 -1.245757102966308594e+00
2.749000000000000000e+03 3.135323715209960938e+01 -9.233435630798339844e+00 2.874795436859130859e+00 1.650554180145263672e+00 1.357604861259460449e+00 -1.615409612655639648e+00
2.750000000000000000e+03 3.108118820190429688e+01 -1.039167308807373047e+01 2.493780612945556641e+00 1.638754010200500488e+00 1.239760398864746094e+00 -1.652704119682312012e+00
2.751000000000000000e+03 2.380125045776367188e+01 -8.605904579162597656e+00 2.089455127716064453e+00 1.124068498611450195e+00 9.640570878982543945e-01 -1.524111151695251465e+00
2.752000000000000000e+03 5.656816482543945312e+01 9.907831192016601562e+00 1.108777642250061035e+00 1.718362212181091309e+00 8.481419682502746582e-01 -1.496913433074951172e-01
2.753000000000000000e+03 5.508326339721679688e+01 1.041261482238769531e+01 1.381966471672058105e+00 1.764142394065856934e+00 9.438326954841613770e-01 2.616214752197265625e-01
2.754000000000000000e+03 5.094460678100585938e+01 1.737606620788574219e+01 1.541982412338256836e+00 3.543228149414062500e+00 1.525563120841979980e+00 1.419852972030639648e+00
2.755000000000000000e+03 5.233428955078125000e+01 1.797677803039550781e+01 1.486369490623474121e+00 3.416941404342651367e+00 1.470993280410766602e+00 1.223529219627380371e+00
2.756000000000000000e+03 6.112210083007812500e+01 8.650193214416503906e+00 4.649506807327270508e-01 2.601374387741088867e+00 9.198975563049316406e-01 -9.541305303573608398e-01
2.757000000000000000e+03 9.835559844970703125e+00 9.503419876098632812e+00 6.448890566825866699e-01 2.997984170913696289e+00 1.092862010002136230e+00 -5.847539305686950684e-01
2.758000000000000000e+03 6.872647857666015625e+01 1.918461418151855469e+01 4.726653397083282471e-01 5.151133060455322266e+00 1.687139511108398438e+00 -4.390611648559570312e-01
2.759000000000000000e+03 5.053391265869140625e+01 9.889658927917480469e+00 1.741100192070007324e+00 2.003404855728149414e+00 1.123351573944091797e+00 1.322608113288879395e+00
2.760000000000000000e+03 5.068267822265625000e+01 1.198279285430908203e+01 1.916015982627868652e+00 2.542000293731689453e+00 1.337404847145080566e+00 1.433004379272460938e+00
2.761000000000000000e+03 5.176574325561523438e+01 1.327827739715576172e+01 1.843906283378601074e+00 2.649147272109985352e+00 1.347916126251220703e+00 1.246431708335876465e+00
2.762000000000000000e+03 9.153090476989746094e+00 1.426214122772216797e+01 7.841976284980773926e-01 3.365767240524291992e+00 1.244989395141601562e+00 -7.165659666061401367e-01
2.763000000000000000e+03 5.235124588012695312e+01 2.432075500488281250e+01 7.134429216384887695e-01 3.977564573287963867e+00 1.407302260398864746e+00 1.057954549789428711e+00
2.764000000000000000e+03 5.317123794555664062e+01 2.880870819091796875e+01 1.910209655761718750e-01 4.145172119140625000e+00 1.300857901573181152e+00 8.937460780143737793e-01
2.765000000000000000e+03 4.003001403808593750e+01 -3.278842163085937500e+01 -1.203545570373535156e+00 5.633508205413818359e+00 1.328988790512084961e+00 -9.821749329566955566e-01
2.766000000000000000e+03 4.632178878784179688e+01 -3.540029525756835938e+01 -7.416687011718750000e-01 3.159822225570678711e+00 7.254461050033569336e-01 -1.059152722358703613e+00
2.767000000000000000e+03 4.858988571166992188e+01 -3.361235809326171875e+01 -4.618023931980133057e-01 2.262851953506469727e+00 5.403148531913757324e-01 -9.854442477226257324e-01
2.768000000000000000e+03 5.021329498291015625e+01 -3.216392135620117188e+01 -3.040310740470886230e-01 1.567649602890014648e+00 3.790855407714843750e-01 -7.840021848678588867e-01
2.769000000000000000e+03 6.900770568847656250e+01 6.546751976013183594e+00 -3.403105139732360840e-01 5.578521251678466797e+00 1.571463227272033691e+00 -1.071231365203857422e+00
2.770000000000000000e+03 6.659925079345703125e+01 8.589501380920410156e+00 2.443471923470497131e-02 4.540793418884277344e+00 1.369568467140197754e+00 -1.148263096809387207e+00
2.771000000000000000e+03 6.372028350830078125e+01 2.691916847229003906e+01 4.088084399700164795e-01 4.783383369445800781e+00 1.557657599449157715e+00 2.348968535661697388e-01
2.772000000000000000e+03 6.801826477050781250e+01 8.362782478332519531e+00 -8.007240295410156250e-02 5.096352577209472656e+00 1.504884123802185059e+00 -1.115038275718688965e+00
2.773000000000000000e+03 6.715287780761718750e+01 1.269803142547607422e+01 3.923465907573699951e-01 4.735054492950439453e+00 1.538220286369323730e+00 -8.716684579849243164e-01
2.774000000000000000e+03 6.788175964355468750e+01 1.127041053771972656e+01 2.520019114017486572e-01 4.931122779846191406e+00 1.554937362670898438e+00 -9.719702601432800293e-01
2.775000000000000000e+03 5.804228591918945312e+01 -4.093599700927734375e+01 5.134969353675842285e-01 3.420627415180206299e-01 2.566679120063781738e-01 -1.218884959816932678e-01
2.776000000000000000e+03 3.199899864196777344e+01 -3.911001205444335938e+01 -1.419730186462402344e+00 3.494733333587646484e+00 6.225009560585021973e-01 5.262369513511657715e-01
2.777000000000000000e+03 3.712650680541992188e+01 -4.129013824462890625e+01 -1.895705342292785645e+00 4.729395866394042969e+00 8.501071929931640625e-01 4.543650150299072266e-02
2.778000000000000000e+03 2.239485931396484375e+01 -3.448599624633789062e+01 -1.119794964790344238e+00 -8.306987583637237549e-02 -3.608594536781311035e-01 1.636240482330322266e-01
2.779000000000000000e+03 6.528366088867187500e+01 -3.720388793945312500e+01 -1.365114450454711914e-01 2.902072906494140625e+00 8.296684026718139648e-01 5.717878937721252441e-01
2.780000000000000000e+03 1.742418098449707031e+01 -4.122286987304687500e+01 1.315602064132690430e-01 -6.005407571792602539e-01 -1.406941711902618408e-01 1.190100684762001038e-01
2.781000000000000000e+03 1.388784694671630859e+01 -5.909745216369628906e+00 1.842031717300415039e+00 2.764726400375366211e+00 1.382027387619018555e+00 2.556214570999145508e+00
2.782000000000000000e+03 1.188014984130859375e+01 -5.294091701507568359e+00 2.050538539886474609e+00 1.212134718894958496e+00 9.788019657135009766e-01 2.249441385269165039e+00
2.783000000000000000e+03 1.330124282836914062e+01 -4.817817687988281250e+00 2.506481647491455078e+00 2.101728439331054688e+00 1.382462978363037109e+00 2.614180803298950195e+00
2.784000000000000000e+03 1.485515213012695312e+01 -4.763007164001464844e+00 2.220010042190551758e+00 4.330138206481933594e+00 1.965044498443603516e+00 2.543676853179931641e+00
2.785000000000000000e+03 1.451471614837646484e+01 -4.557743072509765625e+00 2.539951086044311523e+00 3.738527297973632812e+00 1.883543491363525391e+00 2.798326492309570312e+00
2.786000000000000000e+03 1.330077648162841797e+01 5.636997699737548828e+00 1.003401502966880798e-01 4.542065143585205078e+00 1.392721533775329590e+00 -1.907614469528198242e+00
2.787000000000000000e+03 1.153604602813720703e+01 -5.835259437561035156e+00 1.760991096496582031e+00 1.210788846015930176e+00 8.915339708328247070e-01 2.266691446304321289e+00
2.788000000000000000e+03 1.118143749237060547e+01 -6.371196746826171875e+00 1.489568948745727539e+00 1.206562161445617676e+00 8.088393807411193848e-01 2.275593042373657227e+00
2.789000000000000000e+03 1.268008995056152344e+01 7.636139392852783203e+00 3.565974533557891846e-01 4.494315147399902344e+00 1.455273747444152832e+00 -1.387363791465759277e+00
2.790000000000000000e+03 1.054279232025146484e+01 -7.288566589355468750e+00 1.091946244239807129e+00 1.272496819496154785e+00 7.093328833580017090e-01 2.301945209503173828e+00
2.791000000000000000e+03 1.571585655212402344e+01 -6.023120403289794922e+00 1.459877371788024902e+00 4.352515220642089844e+00 1.743717789649963379e+00 1.583053469657897949e+00
2.792000000000000000e+03 1.664054870605468750e+01 -5.830558776855468750e+00 1.490810990333557129e+00 4.897906780242919922e+00 1.916615247726440430e+00 7.563859820365905762e-01
2.793000000000000000e+03 2.223421287536621094e+01 -8.966201782226562500e+00 1.569701075553894043e+00 1.501296162605285645e+00 9.212991595268249512e-01 -1.255939841270446777e+00
2.794000000000000000e+03 1.119014930725097656e+01 -9.410790443420410156e+00 4.097224771976470947e-01 1.590217471122741699e+00 5.999819636344909668e-01 2.649101972579956055e+00
2.795000000000000000e+03 1.162559509277343750e+01 6.553624153137207031e+00 4.065710902214050293e-01 3.351818084716796875e+00 1.127516746520996094e+00 -1.222577929496765137e+00
2.796000000000000000e+03 1.152947711944580078e+01 8.658394813537597656e+00 5.449731945991516113e-01 3.903566837310791016e+00 1.334561944007873535e+00 -1.025361776351928711e+00
2.797000000000000000e+03 1.506430149078369141e+01 -9.277213096618652344e+00 4.465138614177703857e-01 2.106807947158813477e+00 7.659965157508850098e-01 1.799291014671325684e+00
2.798000000000000000e+03 1.986860656738281250e+01 -8.784069061279296875e+00 1.088243246078491211e+00 2.258263111114501953e+00 1.003951907157897949e+00 -7.160130143165588379e-01
2.799000000000000000e+03 1.820575332641601562e+01 -6.492687225341796875e+00 1.610358834266662598e+00 4.156739234924316406e+00 1.730129361152648926e+00 -5.740091800689697266e-01
2.800000000000000000e+03 1.870212364196777344e+01 -5.409540176391601562e+00 2.371732950210571289e+00 4.490163326263427734e+00 2.058568954467773438e+00 -1.310404777526855469e+00
2.801000000000000000e+03 1.507431507110595703e+01 -7.728280067443847656e+00 9.485720992088317871e-01 2.849203109741210938e+00 1.139332532882690430e+00 1.851963043212890625e+00
2.802000000000000000e+03 1.229874610900878906e+01 8.119014739990234375e+00 4.447145462036132812e-01 4.321161746978759766e+00 1.429762959480285645e+00 -1.281850099563598633e+00
2.803000000000000000e+03 1.357311725616455078e+01 -9.873793601989746094e+00 3.120526373386383057e-01 1.669872879981994629e+00 5.945776700973510742e-01 2.348947763442993164e+00
2.804000000000000000e+03 1.196388244628906250e+01 -9.386608123779296875e+00 4.880131185054779053e-01 1.600906848907470703e+00 6.266760230064392090e-01 2.613420724868774414e+00
2.805000000000000000e+03 1.103914260864257812e+01 -7.624111175537109375e+00 1.032139778137207031e+00 1.395333290100097656e+00 7.282419204711914062e-01 2.450118541717529297e+00
2.806000000000000000e+03 1.433258247375488281e+01 -9.606420516967773438e+00 4.081037044525146484e-01 1.818202257156372070e+00 6.678918004035949707e-01 2.097754001617431641e+00
2.807000000000000000e+03 1.909821701049804688e+01 -9.289269447326660156e+00 7.318797111511230469e-01 2.150999784469604492e+00 8.648638129234313965e-01 -2.996005713939666748e-01
2.808000000000000000e+03 5.621436309814453125e+01 1.428220653533935547e+01 1.552854657173156738e+00 2.582614898681640625e+00 1.240640878677368164e+00 3.918741941452026367e-01
2.809000000000000000e+03 6.864048004150390625e+01 5.333159446716308594e+00 -4.950284957885742188e-01 5.555573940277099609e+00 1.518163561820983887e+00 -1.100048899650573730e+00
2.810000000000000000e+03 6.558518218994140625e+01 5.798285007476806641e+00 -3.704176843166351318e-01 4.286573410034179688e+00 1.174846768379211426e+00 -1.315624475479125977e+00
2.811000000000000000e+03 2.458520507812500000e+01 -9.327276229858398438e+00 1.923128962516784668e+00 9.107062220573425293e-01 8.501505255699157715e-01 -1.467694163322448730e+00
2.812000000000000000e+03 6.788162231445312500e+01 1.975799441337585449e+00 -9.859987497329711914e-01 5.685576438903808594e+00 1.409873366355895996e+00 -1.090505480766296387e+00
2.813000000000000000e+03 5.814209747314453125e+01 9.528200149536132812e+00 8.995355963706970215e-01 1.965216636657714844e+00 8.594256639480590820e-01 -4.532895982265472412e-01
2.814000000000000000e+03 5.274459075927734375e+01 1.453357982635498047e+01 1.763455152511596680e+00 2.769788980484008789e+00 1.359973192214965820e+00 1.092405319213867188e+00
2.815000000000000000e+03 6.225438690185546875e+01 8.141790390014648438e+00 2.819045186042785645e-01 2.949214696884155273e+00 9.693357348442077637e-01 -1.106159567832946777e+00
2.816000000000000000e+03 6.507716369628906250e+01 4.733460903167724609e+00 -5.587436556816101074e-01 4.065602779388427734e+00 1.052057862281799316e+00 -1.375202298164367676e+00
2.817000000000000000e+03 6.615561676025390625e+01 7.102680683135986328e+00 -1.872779428958892822e-01 4.443728923797607422e+00 1.276935219764709473e+00 -1.247858047485351562e+00
2.818000000000000000e+03 6.945518493652343750e+01 4.409441471099853516e+00 -6.147012710571289062e-01 5.946022033691406250e+00 1.599396109580993652e+00 -9.942567348480224609e-01
2.819000000000000000e+03 6.832702636718750000e+01 2.079297447204589844e+01 4.742576181888580322e-01 5.130499362945556641e+00 1.681427121162414551e+00 -2.843073010444641113e-01
2.820000000000000000e+03 5.585951995849609375e+01 2.919379425048828125e+01 2.307069897651672363e-01 4.310707569122314453e+00 1.362424373626708984e+00 7.364221215248107910e-01
2.821000000000000000e+03 5.287591934204101562e+01 1.269074249267578125e+01 1.787436366081237793e+00 2.297441959381103516e+00 1.225463509559631348e+00 9.366635084152221680e-01
2.822000000000000000e+03 5.309479904174804688e+01 2.032942771911621094e+01 1.231494784355163574e+00 3.620113372802734375e+00 1.455482482910156250e+00 1.114940643310546875e+00
2.823000000000000000e+03 5.170071792602539062e+01 1.939768981933593750e+01 1.303968071937561035e+00 3.683215856552124023e+00 1.496155261993408203e+00 1.270127177238464355e+00
2.824000000000000000e+03 5.249888992309570312e+01 1.153474426269531250e+01 1.756680846214294434e+00 2.104153871536254883e+00 1.158250451087951660e+00 9.468036293983459473e-01
2.825000000000000000e+03 6.661251831054687500e+01 2.516280364990234375e+01 4.078043401241302490e-01 5.053570747375488281e+00 1.638412475585937500e+00 2.625450305640697479e-02
2.826000000000000000e+03 6.429560852050781250e+01 1.790073585510253906e+01 8.027374148368835449e-01 4.209246158599853516e+00 1.503594994544982910e+00 -3.097512722015380859e-01
2.827000000000000000e+03 5.462201309204101562e+01 1.142010211944580078e+01 1.553675293922424316e+00 1.975988626480102539e+00 1.058899164199829102e+00 4.534429907798767090e-01
2.828000000000000000e+03 5.722341918945312500e+01 1.165322971343994141e+01 1.302439689636230469e+00 2.148452281951904297e+00 1.035267591476440430e+00 -8.871101588010787964e-02
2.829000000000000000e+03 6.655326080322265625e+01 3.054405021667480469e+01 1.602918803691864014e-01 5.288190364837646484e+00 1.634544730186462402e+00 1.563607752323150635e-01
2.830000000000000000e+03 6.066709518432617188e+01 2.679042434692382812e+01 5.108077526092529297e-01 4.424090385437011719e+00 1.480469465255737305e+00 4.319835901260375977e-01
2.831000000000000000e+03 6.636672973632812500e+01 1.433845806121826172e+01 5.638825893402099609e-01 4.531479835510253906e+00 1.528608679771423340e+00 -7.096184492111206055e-01
2.832000000000000000e+03 6.496049499511718750e+01 1.324572181701660156e+01 6.254811286926269531e-01 4.112078666687011719e+00 1.421267986297607422e+00 -7.664957046508789062e-01
2.833000000000000000e+03 4.296565246582031250e+01 -3.668080139160156250e+01 -1.298593997955322266e+00 4.252805709838867188e+00 8.862635493278503418e-01 -7.003206610679626465e-01
2.834000000000000000e+03 1.269692516326904297e+01 -5.124763011932373047e+00 2.296428918838500977e+00 1.664818406105041504e+00 1.188374161720275879e+00 2.474061727523803711e+00
2.835000000000000000e+03 1.337995338439941406e+01 -5.998814105987548828e+00 1.823777556419372559e+00 2.317399263381958008e+00 1.242353081703186035e+00 2.570626974105834961e+00
2.836000000000000000e+03 1.197857570648193359e+01 -5.764375209808349609e+00 1.898379683494567871e+00 1.366562366485595703e+00 9.794826507568359375e-01 2.366061210632324219e+00
2.837000000000000000e+03 1.229622650146484375e+01 -5.218213081359863281e+00 2.203062534332275391e+00 1.374577283859252930e+00 1.073291897773742676e+00 2.361169338226318359e+00
2.838000000000000000e+03 1.552806186676025391e+01 -6.604021549224853516e+00 1.262389898300170898e+00 3.747241258621215820e+00 1.502889394760131836e+00 1.676896095275878906e+00
2.839000000000000000e+03 1.301832294464111328e+01 -4.510150909423828125e+00 2.647380352020263672e+00 1.761863827705383301e+00 1.322773337364196777e+00 2.483459234237670898e+00
2.840000000000000000e+03 1.277210807800292969e+01 -5.491997241973876953e+00 2.077115774154663086e+00 1.774502754211425781e+00 1.155485630035400391e+00 2.510375499725341797e+00
2.841000000000000000e+03 1.146030044555664062e+01 -7.230218410491943359e+00 1.212546229362487793e+00 1.454003572463989258e+00 7.999649643898010254e-01 2.439151525497436523e+00
2.842000000000000000e+03 1.622320938110351562e+01 -6.297735214233398438e+00 1.345252156257629395e+00 4.284066677093505859e+00 1.688795685768127441e+00 1.192126870155334473e+00
2.843000000000000000e+03 1.757124900817871094e+01 -6.256919384002685547e+00 1.507287621498107910e+00 4.443217277526855469e+00 1.785151481628417969e+00 -2.999871410429477692e-02
2.844000000000000000e+03 1.705059814453125000e+01 -6.342920303344726562e+00 1.390077352523803711e+00 4.455509662628173828e+00 1.753676056861877441e+00 3.806644976139068604e-01
2.845000000000000000e+03 1.269569206237792969e+01 -9.314525604248046875e+00 4.860586225986480713e-01 1.708996295928955078e+00 6.585164666175842285e-01 2.546558141708374023e+00
2.846000000000000000e+03 1.210781288146972656e+01 -6.792383193969726562e+00 1.475534439086914062e+00 1.589765906333923340e+00 9.195901155471801758e-01 2.479415416717529297e+00
2.847000000000000000e+03 1.942033958435058594e+01 -6.595799922943115234e+00 2.079644203186035156e+00 3.304140567779541016e+00 1.615135431289672852e+00 -1.240281701087951660e+00
2.848000000000000000e+03 1.885179328918457031e+01 -5.963995456695556641e+00 2.172117233276367188e+00 3.991491794586181641e+00 1.849082708358764648e+00 -1.177806496620178223e+00
2.849000000000000000e+03 1.746274757385253906e+01 -8.618942260742187500e+00 7.073277235031127930e-01 2.740570783615112305e+00 1.034369587898254395e+00 4.369837939739227295e-01
2.850000000000000000e+03 1.612889671325683594e+01 -9.529465675354003906e+00 3.302628397941589355e-01 2.150035381317138672e+00 7.440894842147827148e-01 1.220435738563537598e+00
2.851000000000000000e+03 1.575698757171630859e+01 -8.908376693725585938e+00 5.625043511390686035e-01 2.410986423492431641e+00 8.920472264289855957e-01 1.444862961769104004e+00
2.852000000000000000e+03 1.408663082122802734e+01 -8.905211448669433594e+00 6.065452694892883301e-01 2.057754278182983398e+00 7.992898821830749512e-01 2.207360982894897461e+00
2.853000000000000000e+03 1.340013504028320312e+01 -9.166460990905761719e+00 5.712227225303649902e-01 1.807633519172668457e+00 7.136569023132324219e-01 2.405211687088012695e+00
2.854000000000000000e+03 1.727106285095214844e+01 -9.633676528930664062e+00 3.123358488082885742e-01 2.210261344909667969e+00 7.567791938781738281e-01 6.131378412246704102e-01
2.855000000000000000e+03 2.052055740356445312e+01 -7.962474822998046875e+00 1.691272616386413574e+00 2.247502326965332031e+00 1.181632518768310547e+00 -1.131329298019409180e+00
2.856000000000000000e+03 1.922699928283691406e+01 -8.151565551757812500e+00 1.250575780868530273e+00 2.692149639129638672e+00 1.182817578315734863e+00 -6.289959549903869629e-01
2.857000000000000000e+03 6.346802139282226562e+01 7.744726181030273438e+00 1.003413870930671692e-01 3.392850399017333984e+00 1.047957539558410645e+00 -1.190917491912841797e+00
2.858000000000000000e+03 6.567140197753906250e+01 1.037725830078125000e+01 3.063702583312988281e-01 4.249921798706054688e+00 1.366887569427490234e+00 -1.035258889198303223e+00
2.859000000000000000e+03 5.395236206054687500e+01 1.527600574493408203e+01 1.681249022483825684e+00 2.779238700866699219e+00 1.338146328926086426e+00 8.712711334228515625e-01
2.860000000000000000e+03 5.389897155761718750e+01 1.220099639892578125e+01 1.663025617599487305e+00 2.141913175582885742e+00 1.141481637954711914e+00 6.654152274131774902e-01
2.861000000000000000e+03 5.685396957397460938e+01 1.295115375518798828e+01 1.447205901145935059e+00 2.364110708236694336e+00 1.143395066261291504e+00 1.322051882743835449e-01
2.862000000000000000e+03 5.438489532470703125e+01 1.759695816040039062e+01 1.493233919143676758e+00 3.184662342071533203e+00 1.403368830680847168e+00 8.958510160446166992e-01
2.863000000000000000e+03 5.513910675048828125e+01 1.963279724121093750e+01 1.292936801910400391e+00 3.439510107040405273e+00 1.419734120368957520e+00 8.325378894805908203e-01
2.864000000000000000e+03 6.559146881103515625e+01 1.192183685302734375e+01 4.724001586437225342e-01 4.256670475006103516e+00 1.418721199035644531e+00 -9.010776877403259277e-01
2.865000000000000000e+03 6.117670059204101562e+01 1.042855358123779297e+01 7.547540664672851562e-01 2.833124876022338867e+00 1.076363682746887207e+00 -7.625463604927062988e-01
2.866000000000000000e+03 6.625233459472656250e+01 1.885995101928710938e+01 6.307609081268310547e-01 4.692425727844238281e+00 1.596956014633178711e+00 -3.337551653385162354e-01
2.867000000000000000e+03 6.401287078857421875e+01 1.427010154724121094e+01 7.750185728073120117e-01 3.919363498687744141e+00 1.408314585685729980e+00 -6.261162161827087402e-01
2.868000000000000000e+03 6.232147216796875000e+01 1.086967372894287109e+01 6.761752963066101074e-01 3.202043056488037109e+00 1.163465499877929688e+00 -8.352824449539184570e-01
2.869000000000000000e+03 6.754106140136718750e+01 5.574141025543212891e+00 -4.381714761257171631e-01 5.053781509399414062e+00 1.384683012962341309e+00 -1.216114997863769531e+00
2.870000000000000000e+03 5.956516647338867188e+01 2.815266036987304688e+01 3.805918097496032715e-01 4.431697368621826172e+00 1.443686723709106445e+00 5.365313291549682617e-01
2.871000000000000000e+03 4.966920852661132812e+01 3.168229293823242188e+01 -3.508411943912506104e-01 4.036078929901123047e+00 1.105571269989013672e+00 8.216733336448669434e-01
2.872000000000000000e+03 4.891419601440429688e+01 2.953564834594726562e+01 -5.897812172770500183e-02 4.034475326538085938e+00 1.192649126052856445e+00 8.935034871101379395e-01
2.873000000000000000e+03 6.188460922241210938e+01 9.769777297973632812e+00 5.824264287948608398e-01 2.954058408737182617e+00 1.060945391654968262e+00 -9.374148845672607422e-01
2.874000000000000000e+03 5.375369262695312500e+01 1.395094680786132812e+01 1.718092799186706543e+00 2.557693958282470703e+00 1.282736063003540039e+00 8.311706185340881348e-01
2.875000000000000000e+03 5.370548629760742188e+01 2.293012809753417969e+01 9.338226318359375000e-01 3.829675197601318359e+00 1.429049372673034668e+00 1.004325866699218750e+00
2.876000000000000000e+03 5.674789428710937500e+01 2.382938194274902344e+01 8.402324318885803223e-01 3.918164730072021484e+00 1.427519083023071289e+00 7.392227649688720703e-01
2.877000000000000000e+03 5.227470397949218750e+01 2.172127532958984375e+01 1.050996422767639160e+00 3.811300277709960938e+00 1.458688974380493164e+00 1.147654652595520020e+00
2.878000000000000000e+03 6.576290893554687500e+01 2.111091041564941406e+01 6.131205558776855469e-01 4.734884738922119141e+00 1.604401707649230957e+00 -1.712418943643569946e-01
2.879000000000000000e+03 6.348769760131835938e+01 2.016991615295410156e+01 8.053719997406005859e-01 4.263081550598144531e+00 1.520536065101623535e+00 -7.815628498792648315e-02
2.880000000000000000e+03 6.092678833007812500e+01 2.337083053588867188e+01 7.646418213844299316e-01 4.183369636535644531e+00 1.484403491020202637e+00 3.246996700763702393e-01
2.881000000000000000e+03 6.330156707763671875e+01 3.050798606872558594e+01 1.709565818309783936e-01 4.925328254699707031e+00 1.528885483741760254e+00 3.181890845298767090e-01
2.882000000000000000e+03 1.421986103057861328e+01 -4.922505855560302734e+00 2.383058309555053711e+00 3.271634340286254883e+00 1.696407794952392578e+00 2.699182033538818359e+00
2.883000000000000000e+03 1.480097675323486328e+01 -5.287065505981445312e+00 1.945391297340393066e+00 3.971987009048461914e+00 1.775213479995727539e+00 2.422822475433349609e+00
2.884000000000000000e+03 1.472941589355468750e+01 -6.269698619842529297e+00 1.509324550628662109e+00 3.412209033966064453e+00 1.476460099220275879e+00 2.216709852218627930e+00
2.885000000000000000e+03 1.207979488372802734e+01 -6.255709171295166016e+00 1.654602169990539551e+00 1.548843145370483398e+00 9.610335826873779297e-01 2.452338218688964844e+00
2.886000000000000000e+03 1.362411308288574219e+01 -5.128499031066894531e+00 2.288716316223144531e+00 2.540663719177246094e+00 1.448814034461975098e+00 2.642419576644897461e+00
2.887000000000000000e+03 1.240336418151855469e+01 -5.658634185791015625e+00 1.970533967018127441e+00 1.610602736473083496e+00 1.074341058731079102e+00 2.457437038421630859e+00
2.888000000000000000e+03 1.478347301483154297e+01 -5.813061237335205078e+00 1.700741529464721680e+00 3.680823087692260742e+00 1.614469408988952637e+00 2.266723632812500000e+00
2.889000000000000000e+03 1.079552555084228516e+01 -6.857496261596679688e+00 1.246938109397888184e+00 1.222102165222167969e+00 7.407120466232299805e-01 2.297659635543823242e+00
2.890000000000000000e+03 1.126316738128662109e+01 -8.111840248107910156e+00 8.598859310150146484e-01 1.521518588066101074e+00 7.144213914871215820e-01 2.531727075576782227e+00
2.891000000000000000e+03 1.417829227447509766e+01 -7.356857299804687500e+00 1.146778583526611328e+00 2.653921127319335938e+00 1.140209913253784180e+00 2.274204969406127930e+00
2.892000000000000000e+03 1.535335254669189453e+01 -7.201313972473144531e+00 1.090407252311706543e+00 3.245097398757934570e+00 1.300651431083679199e+00 1.726129055023193359e+00
2.893000000000000000e+03 1.640190505981445312e+01 -8.520337104797363281e+00 6.492601633071899414e-01 2.753804683685302734e+00 1.020919442176818848e+00 1.079814791679382324e+00
2.894000000000000000e+03 1.121381473541259766e+01 -8.740934371948242188e+00 6.437458395957946777e-01 1.554777145385742188e+00 6.595569252967834473e-01 2.581913471221923828e+00
2.895000000000000000e+03 1.194269752502441406e+01 -8.705159187316894531e+00 6.788684725761413574e-01 1.653117060661315918e+00 6.995956897735595703e-01 2.601860761642456055e+00
2.896000000000000000e+03 1.262239742279052734e+01 -8.642372131347656250e+00 7.549304962158203125e-01 1.763679742813110352e+00 7.555831074714660645e-01 2.546321392059326172e+00
2.897000000000000000e+03 1.259264278411865234e+01 -7.996597766876220703e+00 9.648439884185791016e-01 1.835642933845520020e+00 8.401460647583007812e-01 2.550094604492187500e+00
2.898000000000000000e+03 1.806398582458496094e+01 -8.127837181091308594e+00 9.896553158760070801e-01 2.981346845626831055e+00 1.191300630569458008e+00 3.319465555250644684e-03
2.899000000000000000e+03 1.860601997375488281e+01 -7.594660758972167969e+00 1.326758027076721191e+00 3.211138010025024414e+00 1.361368775367736816e+00 -4.668044745922088623e-01
2.900000000000000000e+03 1.477338123321533203e+01 -8.605743408203125000e+00 7.034686803817749023e-01 2.315805196762084961e+00 9.057821631431579590e-01 1.967995285987854004e+00
2.901000000000000000e+03 1.911006546020507812e+01 -7.106311321258544922e+00 1.696321845054626465e+00 3.286885499954223633e+00 1.494962215423583984e+00 -9.003109335899353027e-01
2.902000000000000000e+03 1.681830596923828125e+01 -9.085485458374023438e+00 4.964364171028137207e-01 2.460776329040527344e+00 8.871638774871826172e-01 8.489634394645690918e-01
2.903000000000000000e+03 5.549440765380859375e+01 1.567911338806152344e+01 1.563420891761779785e+00 2.838224172592163086e+00 1.320493578910827637e+00 6.312702298164367676e-01
2.904000000000000000e+03 5.985363769531250000e+01 1.966762351989746094e+01 1.078209042549133301e+00 3.693799972534179688e+00 1.431602716445922852e+00 2.355322092771530151e-01
2.905000000000000000e+03 6.526802062988281250e+01 8.832836151123046875e+00 1.296760141849517822e-01 4.086525917053222656e+00 1.264860510826110840e+00 -1.166914343833923340e+00
2.906000000000000000e+03 6.337246322631835938e+01 1.053978061676025391e+01 5.473157167434692383e-01 3.497157812118530273e+00 1.213342070579528809e+00 -9.258832931518554688e-01
2.907000000000000000e+03 6.437105560302734375e+01 1.030726242065429688e+01 4.172363281250000000e-01 3.798967599868774414e+00 1.264861226081848145e+00 -1.013547539710998535e+00
2.908000000000000000e+03 5.545683288574218750e+01 1.828925895690917969e+01 1.383883953094482422e+00 3.281870841979980469e+00 1.399726390838623047e+00 7.645123600959777832e-01
2.909000000000000000e+03 5.468574905395507812e+01 2.130842208862304688e+01 1.111211061477661133e+00 3.652182102203369141e+00 1.429017901420593262e+00 9.160538315773010254e-01
2.910000000000000000e+03 6.760681152343750000e+01 6.843811511993408203e+00 -2.941479384899139404e-01 4.999810695648193359e+00 1.411698818206787109e+00 -1.193919301033020020e+00
2.911000000000000000e+03 6.287389373779296875e+01 9.365497589111328125e+00 4.280238747596740723e-01 3.221283674240112305e+00 1.094792246818542480e+00 -1.017572045326232910e+00
2.912000000000000000e+03 6.143901443481445312e+01 1.246493244171142578e+01 9.187034368515014648e-01 3.091375589370727539e+00 1.203023672103881836e+00 -5.991942882537841797e-01
2.913000000000000000e+03 6.511782836914062500e+01 1.559505748748779297e+01 7.012711167335510254e-01 4.284038066864013672e+00 1.495592713356018066e+00 -5.602270960807800293e-01
2.914000000000000000e+03 5.904248428344726562e+01 1.279352283477783203e+01 1.193536162376403809e+00 2.691164255142211914e+00 1.165410161018371582e+00 -2.233342677354812622e-01
2.915000000000000000e+03 5.826164627075195312e+01 1.213613319396972656e+01 1.242810487747192383e+00 2.402156114578247070e+00 1.093490004539489746e+00 -1.746806651353836060e-01
2.916000000000000000e+03 6.400566864013671875e+01 9.050887107849121094e+00 2.720412313938140869e-01 3.652283430099487305e+00 1.177297353744506836e+00 -1.095730066299438477e+00
2.917000000000000000e+03 6.641970062255859375e+01 2.297853088378906250e+01 5.300056338310241699e-01 4.899689674377441406e+00 1.628908514976501465e+00 -8.844276517629623413e-02
2.918000000000000000e+03 6.194390487670898438e+01 2.083768844604492188e+01 8.739657402038574219e-01 4.086425781250000000e+00 1.488117456436157227e+00 1.059915199875831604e-01
2.919000000000000000e+03 5.483392333984375000e+01 1.328033447265625000e+01 1.650928616523742676e+00 2.330801010131835938e+00 1.194518923759460449e+00 5.673998594284057617e-01
2.920000000000000000e+03 5.855817794799804688e+01 2.175317955017089844e+01 9.910759329795837402e-01 3.811539649963378906e+00 1.440784692764282227e+00 4.799657464027404785e-01
2.921000000000000000e+03 6.278074264526367188e+01 1.499293804168701172e+01 9.058160185813903809e-01 3.708173513412475586e+00 1.384196877479553223e+00 -4.541980326175689697e-01
2.922000000000000000e+03 6.373855209350585938e+01 1.237846660614013672e+01 6.697227954864501953e-01 3.724586963653564453e+00 1.318292975425720215e+00 -8.008175492286682129e-01
2.923000000000000000e+03 6.348154449462890625e+01 2.409815597534179688e+01 6.123914718627929688e-01 4.537370204925537109e+00 1.544928550720214844e+00 1.624700576066970825e-01
2.924000000000000000e+03 5.063920974731445312e+01 3.413878250122070312e+01 -6.080511808395385742e-01 4.113267421722412109e+00 1.051564931869506836e+00 6.891987919807434082e-01
2.925000000000000000e+03 5.889015579223632812e+01 2.578330612182617188e+01 6.202197670936584473e-01 4.209795951843261719e+00 1.449004650115966797e+00 5.540465712547302246e-01
2.926000000000000000e+03 1.331018543243408203e+01 -5.515834331512451172e+00 2.128240108489990234e+00 2.268586635589599609e+00 1.319048047065734863e+00 2.615986585617065430e+00
2.927000000000000000e+03 1.258256626129150391e+01 -6.136150836944580078e+00 1.774090051651000977e+00 1.759949445724487305e+00 1.060211896896362305e+00 2.511223316192626953e+00
2.928000000000000000e+03 1.542163753509521484e+01 -8.263271331787109375e+00 7.556130290031433105e-01 2.715623140335083008e+00 1.041370868682861328e+00 1.654041051864624023e+00
2.929000000000000000e+03 1.603123283386230469e+01 -7.921236038208007812e+00 8.622499704360961914e-01 3.049978494644165039e+00 1.173668503761291504e+00 1.318150997161865234e+00
2.930000000000000000e+03 1.665476989746093750e+01 -6.731918334960937500e+00 1.206470608711242676e+00 4.126501083374023438e+00 1.599891543388366699e+00 8.094817996025085449e-01
2.931000000000000000e+03 1.163799381256103516e+01 -6.784622669219970703e+00 1.400989770889282227e+00 1.453062772750854492e+00 8.562157750129699707e-01 2.449824810028076172e+00
2.932000000000000000e+03 1.267195510864257812e+01 -6.715141296386718750e+00 1.513014078140258789e+00 1.875638484954833984e+00 1.016595840454101562e+00 2.539811849594116211e+00
2.933000000000000000e+03 1.396978187561035156e+01 -5.342552661895751953e+00 2.132145404815673828e+00 2.812614440917968750e+00 1.483428001403808594e+00 2.628933191299438477e+00
2.934000000000000000e+03 1.753999137878417969e+01 -7.642048835754394531e+00 1.066232919692993164e+00 3.343245029449462891e+00 1.322843432426452637e+00 2.405309677124023438e-01
2.935000000000000000e+03 1.706264495849609375e+01 -7.188106536865234375e+00 1.141009330749511719e+00 3.737142801284790039e+00 1.463445663452148438e+00 4.713940918445587158e-01
2.936000000000000000e+03 2.099895858764648438e+01 -7.022652626037597656e+00 2.400674343109130859e+00 2.307330608367919922e+00 1.412401437759399414e+00 -1.557961225509643555e+00
2.937000000000000000e+03 1.262274265289306641e+01 -7.359357357025146484e+00 1.229175090789794922e+00 1.878099799156188965e+00 9.321824312210083008e-01 2.538141727447509766e+00
2.938000000000000000e+03 1.193244743347167969e+01 -8.030913352966308594e+00 9.511789083480834961e-01 1.636140584945678711e+00 7.761958241462707520e-01 2.554117202758789062e+00
2.939000000000000000e+03 1.700265693664550781e+01 -8.103883743286132812e+00 8.391867876052856445e-01 3.072271823883056641e+00 1.173437595367431641e+00 6.549597382545471191e-01
2.940000000000000000e+03 5.672566223144531250e+01 1.850115966796875000e+01 1.350140929222106934e+00 3.286865711212158203e+00 1.391101956367492676e+00 6.070843338966369629e-01
2.941000000000000000e+03 6.209218215942382812e+01 1.701616096496582031e+01 9.970066547393798828e-01 3.732711553573608398e+00 1.418915510177612305e+00 -1.882821321487426758e-01
2.942000000000000000e+03 6.420913696289062500e+01 1.138079071044921875e+01 5.529284477233886719e-01 3.783023118972778320e+00 1.300785422325134277e+00 -9.035921692848205566e-01
2.943000000000000000e+03 6.253661727905273438e+01 1.207617664337158203e+01 7.757787108421325684e-01 3.353703260421752930e+00 1.238844633102416992e+00 -7.338962554931640625e-01
2.944000000000000000e+03 6.052660369873046875e+01 1.126673793792724609e+01 8.998783826828002930e-01 2.768920183181762695e+00 1.100639581680297852e+00 -6.356565356254577637e-01
2.945000000000000000e+03 5.658742904663085938e+01 2.182058143615722656e+01 1.039764165878295898e+00 3.717307329177856445e+00 1.427121400833129883e+00 7.169190645217895508e-01
2.946000000000000000e+03 5.767005538940429688e+01 1.530520248413085938e+01 1.409080862998962402e+00 2.862273693084716797e+00 1.281406402587890625e+00 2.253756970167160034e-01
2.947000000000000000e+03 5.664103698730468750e+01 1.725323486328125000e+01 1.442084908485412598e+00 3.076964378356933594e+00 1.355714797973632812e+00 5.399613380432128906e-01
2.948000000000000000e+03 5.703776168823242188e+01 2.570712661743164062e+01 6.309899687767028809e-01 4.094934940338134766e+00 1.417777419090270996e+00 7.172148227691650391e-01
2.949000000000000000e+03 5.484835815429687500e+01 2.449619102478027344e+01 7.657889723777770996e-01 3.931535243988037109e+00 1.409197330474853516e+00 8.904224634170532227e-01
2.950000000000000000e+03 5.862698745727539062e+01 3.039023590087890625e+01 1.597066819667816162e-01 4.517851829528808594e+00 1.403267502784729004e+00 5.605999231338500977e-01
2.951000000000000000e+03 6.037709045410156250e+01 2.980731773376464844e+01 2.541674673557281494e-01 4.593507289886474609e+00 1.454302430152893066e+00 4.684795737266540527e-01
2.952000000000000000e+03 6.206580734252929688e+01 2.528964233398437500e+01 5.920751690864562988e-01 4.430965423583984375e+00 1.506912112236022949e+00 3.019556105136871338e-01
2.953000000000000000e+03 1.326085090637207031e+01 -6.662405014038085938e+00 1.541518568992614746e+00 2.217247724533081055e+00 1.127629876136779785e+00 2.533896923065185547e+00
2.954000000000000000e+03 1.510460758209228516e+01 -6.421519756317138672e+00 1.400760889053344727e+00 3.640352725982666016e+00 1.512334108352661133e+00 1.961088657379150391e+00
2.955000000000000000e+03 1.400418758392333984e+01 -6.400605678558349609e+00 1.559549331665039062e+00 2.816300868988037109e+00 1.312755107879638672e+00 2.442446231842041016e+00
2.956000000000000000e+03 1.299183368682861328e+01 -5.847544670104980469e+00 1.888880729675292969e+00 1.990028142929077148e+00 1.163672685623168945e+00 2.522687911987304688e+00
2.957000000000000000e+03 1.594985866546630859e+01 -6.795980453491210938e+00 1.209523558616638184e+00 3.811665534973144531e+00 1.506356716156005859e+00 1.397734165191650391e+00
2.958000000000000000e+03 1.659816360473632812e+01 -7.592113971710205078e+00 9.456781744956970215e-01 3.434323549270629883e+00 1.314000487327575684e+00 9.115881919860839844e-01
2.959000000000000000e+03 1.325203990936279297e+01 -8.539251327514648438e+00 7.454887628555297852e-01 1.957256555557250977e+00 8.108236193656921387e-01 2.451922416687011719e+00
2.960000000000000000e+03 1.382054901123046875e+01 -8.351630210876464844e+00 8.163767457008361816e-01 2.155441045761108398e+00 8.915452957153320312e-01 2.327753543853759766e+00
2.961000000000000000e+03 1.460229396820068359e+01 -7.988362312316894531e+00 8.601346015930175781e-01 2.548505544662475586e+00 1.022592067718505859e+00 2.080724477767944336e+00
2.962000000000000000e+03 1.628507995605468750e+01 -7.115861892700195312e+00 1.090052723884582520e+00 3.676402568817138672e+00 1.429936647415161133e+00 1.113825321197509766e+00
2.963000000000000000e+03 6.068601989746093750e+01 1.757363128662109375e+01 1.104020118713378906e+00 3.572038650512695312e+00 1.402817606925964355e+00 -8.591731078922748566e-03
2.964000000000000000e+03 5.982321929931640625e+01 1.375841808319091797e+01 1.169282555580139160e+00 2.926183462142944336e+00 1.228639721870422363e+00 -2.623569965362548828e-01
2.965000000000000000e+03 5.830870819091796875e+01 1.997750473022460938e+01 1.149746537208557129e+00 3.573781251907348633e+00 1.417058348655700684e+00 4.536010324954986572e-01
2.966000000000000000e+03 5.670412826538085938e+01 2.000344085693359375e+01 1.217331528663635254e+00 3.498820781707763672e+00 1.414845705032348633e+00 6.538267135620117188e-01
2.967000000000000000e+03 6.208735275268554688e+01 1.372158813476562500e+01 9.284864664077758789e-01 3.453949689865112305e+00 1.314730763435363770e+00 -5.232717990875244141e-01
2.968000000000000000e+03 5.891599273681640625e+01 2.377682304382324219e+01 8.018716573715209961e-01 4.033504009246826172e+00 1.450612664222717285e+00 5.144865512847900391e-01
2.969000000000000000e+03 5.336354446411132812e+01 2.578188705444335938e+01 5.742599368095397949e-01 4.020347595214843750e+00 1.378382325172424316e+00 9.836696982383728027e-01
2.970000000000000000e+03 5.549071502685546875e+01 2.610130882263183594e+01 5.956438183784484863e-01 4.071397781372070312e+00 1.400112509727478027e+00 8.200549483299255371e-01
2.971000000000000000e+03 6.261919021606445312e+01 2.253221893310546875e+01 7.439956068992614746e-01 4.315450191497802734e+00 1.517833709716796875e+00 1.393535882234573364e-01
2.972000000000000000e+03 5.713653564453125000e+01 2.879180908203125000e+01 3.212741315364837646e-01 4.343063354492187500e+00 1.399301290512084961e+00 6.528680920600891113e-01
2.973000000000000000e+03 6.652674102783203125e+01 3.425646209716796875e+01 1.717735640704631805e-02 5.390023708343505859e+00 1.622160196304321289e+00 1.700463443994522095e-01
2.974000000000000000e+03 1.438580703735351562e+01 -6.263975620269775391e+00 1.580486178398132324e+00 3.116758108139038086e+00 1.409173250198364258e+00 2.376034498214721680e+00
2.975000000000000000e+03 1.317292499542236328e+01 -7.939530372619628906e+00 1.013778448104858398e+00 2.032437562942504883e+00 9.138647913932800293e-01 2.484018802642822266e+00
2.976000000000000000e+03 1.411451816558837891e+01 -7.938066482543945312e+00 9.398674368858337402e-01 2.382999181747436523e+00 9.968600273132324219e-01 2.229800939559936523e+00
2.977000000000000000e+03 1.584492015838623047e+01 -7.319520473480224609e+00 1.016977548599243164e+00 3.346565723419189453e+00 1.309062957763671875e+00 1.469937443733215332e+00
2.978000000000000000e+03 5.935867691040039062e+01 1.807519531250000000e+01 1.194802522659301758e+00 3.433603048324584961e+00 1.388521671295166016e+00 1.941418051719665527e-01
2.979000000000000000e+03 5.869302368164062500e+01 1.661564064025878906e+01 1.300387740135192871e+00 3.167073488235473633e+00 1.340238332748413086e+00 1.666598021984100342e-01
2.980000000000000000e+03 5.813796615600585938e+01 1.323121547698974609e+01 1.336676120758056641e+00 2.566685438156127930e+00 1.171008467674255371e+00 -3.543144837021827698e-02
2.981000000000000000e+03 5.885695648193359375e+01 1.453150463104248047e+01 1.309939861297607422e+00 2.866159915924072266e+00 1.252829909324645996e+00 -3.240725770592689514e-02
2.982000000000000000e+03 6.092361068725585938e+01 1.412076759338378906e+01 1.077606081962585449e+00 3.177392721176147461e+00 1.276499629020690918e+00 -3.585681915283203125e-01
2.983000000000000000e+03 5.804687118530273438e+01 1.842980766296386719e+01 1.279926300048828125e+00 3.341151475906372070e+00 1.386323332786560059e+00 3.866005837917327881e-01
2.984000000000000000e+03 6.280455780029296875e+01 1.856634140014648438e+01 9.069113135337829590e-01 4.007792949676513672e+00 1.474411249160766602e+00 -1.338811218738555908e-01
2.985000000000000000e+03 6.480967712402343750e+01 2.340028953552246094e+01 5.879730582237243652e-01 4.701227188110351562e+00 1.586760044097900391e+00 1.347231213003396988e-02
2.986000000000000000e+03 6.053348922729492188e+01 1.302017784118652344e+01 1.054589629173278809e+00 2.961490869522094727e+00 1.204824090003967285e+00 -4.581817686557769775e-01
2.987000000000000000e+03 6.308768844604492188e+01 1.318891048431396484e+01 8.081257939338684082e-01 3.611412525177001953e+00 1.325861454010009766e+00 -6.442834734916687012e-01
2.988000000000000000e+03 1.318263053894042969e+01 -7.323430538177490234e+00 1.202429294586181641e+00 2.111216068267822266e+00 9.940935969352722168e-01 2.509677648544311523e+00
2.989000000000000000e+03 1.375167560577392578e+01 -6.763409614562988281e+00 1.441092491149902344e+00 2.517032861709594727e+00 1.187437653541564941e+00 2.486133575439453125e+00
2.990000000000000000e+03 1.465712928771972656e+01 -7.444718837738037109e+00 1.105475425720214844e+00 2.869670867919921875e+00 1.192543864250183105e+00 2.095804452896118164e+00
2.991000000000000000e+03 1.416754341125488281e+01 -6.825479984283447266e+00 1.353143453598022461e+00 2.815975189208984375e+00 1.250735521316528320e+00 2.327983617782592773e+00
2.992000000000000000e+03 6.133339691162109375e+01 1.917197418212890625e+01 1.000812530517578125e+00 3.825672149658203125e+00 1.447945356369018555e+00 5.591199174523353577e-02
2.993000000000000000e+03 6.134367752075195312e+01 1.548647689819335938e+01 1.074519276618957520e+00 3.428194046020507812e+00 1.350813984870910645e+00 -2.679959833621978760e-01
2.994000000000000000e+03 5.990967178344726562e+01 1.599673366546630859e+01 1.206325650215148926e+00 3.238546609878540039e+00 1.333461642265319824e+00 -4.325881972908973694e-02
2.995000000000000000e+03 5.704797363281250000e+01 2.733324432373046875e+01 4.486635923385620117e-01 4.251266002655029297e+00 1.409978866577148438e+00 6.757088303565979004e-01
2.996000000000000000e+03 6.032936859130859375e+01 2.141385841369628906e+01 9.430589675903320312e-01 3.916571378707885742e+00 1.457889080047607422e+00 2.978442311286926270e-01
2.997000000000000000e+03 1.368762779235839844e+01 -7.330941200256347656e+00 1.209375381469726562e+00 2.350714206695556641e+00 1.068026900291442871e+00 2.430415391921997070e+00
2.998000000000000000e+03 5.840639114379882812e+01 2.872343254089355469e+01 3.315543234348297119e-01 4.405679225921630859e+00 1.421169996261596680e+00 6.058735251426696777e-01
2.999000000000000000e+03 4.789901351928710938e+01 3.504612731933593750e+01 -8.891397118568420410e-01 3.825797080993652344e+00 8.809972405433654785e-01 5.748765468597412109e-01
3.000000000000000000e+03 2.239109611511230469e+01 -4.124790191650390625e+01 -2.395900338888168335e-01 5.206606350839138031e-03 -7.031502574682235718e-02 5.875382944941520691e-02
3.001000000000000000e+03 1.261832904815673828e+01 -4.125559234619140625e+01 4.264973700046539307e-01 -1.732941567897796631e-01 7.596097141504287720e-02 4.257846623659133911e-02
3.002000000000000000e+03 1.118930816650390625e+01 -3.682845687866210938e+01 -1.294948458671569824e-01 6.551297381520271301e-03 -3.688306361436843872e-02 1.699099242687225342e-01
3.003000000000000000e+03 6.205635070800781250e+01 3.483147811889648438e+01 -1.185937151312828064e-01 4.999676704406738281e+00 1.464324951171875000e+00 2.955606281757354736e-01
3.004000000000000000e+03 7.063060760498046875e+01 -3.598838806152343750e+01 -7.037460207939147949e-01 6.806307315826416016e+00 1.830768346786499023e+00 6.923061609268188477e-02
3.005000000000000000e+03 5.700249099731445312e+01 3.021877288818359375e+01 1.216117888689041138e-01 4.428000450134277344e+00 1.364883661270141602e+00 6.609004139900207520e-01
3.006000000000000000e+03 5.859442520141601562e+01 3.270718383789062500e+01 -2.966858260333538055e-02 4.630450248718261719e+00 1.380234479904174805e+00 5.140242576599121094e-01
3.007000000000000000e+03 6.109684371948242188e+01 3.204354858398437500e+01 3.532586991786956787e-02 4.762372493743896484e+00 1.439309477806091309e+00 4.200693070888519287e-01
3.008000000000000000e+03 5.488359832763671875e+01 3.481945037841796875e+01 -4.174553155899047852e-01 4.469783782958984375e+00 1.215698480606079102e+00 5.423824191093444824e-01
3.009000000000000000e+03 5.267281341552734375e+01 -3.429039764404296875e+01 -5.169498324394226074e-01 1.016389608383178711e+00 1.498319208621978760e-01 -5.804625749588012695e-01
3.010000000000000000e+03 5.224665069580078125e+01 -3.710960769653320312e+01 -3.470233976840972900e-01 1.301611542701721191e+00 2.863764464855194092e-01 -5.929152369499206543e-01
3.011000000000000000e+03 5.136012268066406250e+01 -4.084397125244140625e+01 -2.103292047977447510e-01 1.463878154754638672e+00 3.760646879673004150e-01 -2.200191766023635864e-01
3.012000000000000000e+03 4.966996765136718750e+01 -3.791668701171875000e+01 -5.200288891792297363e-01 2.028776407241821289e+00 4.526242613792419434e-01 -6.161828041076660156e-01
3.013000000000000000e+03 8.178044319152832031e+00 -4.127243804931640625e+01 4.665529429912567139e-01 1.770973443984985352e+00 6.712579131126403809e-01 -1.861284486949443817e-02
3.014000000000000000e+03 3.551476287841796875e+01 -3.444715499877929688e+01 -1.593418478965759277e+00 5.592346191406250000e+00 1.199678301811218262e+00 4.362737536430358887e-01
3.015000000000000000e+03 4.457001495361328125e+01 3.795541763305664062e+01 -1.419958591461181641e+00 3.033965587615966797e+00 4.842021167278289795e-01 1.898876279592514038e-01
3.016000000000000000e+03 4.331233596801757812e+01 4.092595672607421875e+01 -1.564083814620971680e+00 2.499058246612548828e+00 2.804923355579376221e-01 3.959653899073600769e-02
3.017000000000000000e+03 5.262555694580078125e+01 4.053798294067382812e+01 -8.847830891609191895e-01 4.367055416107177734e+00 1.044681668281555176e+00 1.727587431669235229e-01
3.018000000000000000e+03 6.447795867919921875e+01 3.707128524780273438e+01 -1.350062191486358643e-01 5.254615306854248047e+00 1.535882711410522461e+00 1.670356094837188721e-01
3.019000000000000000e+03 5.101440048217773438e+01 -3.516886520385742188e+01 -4.767234623432159424e-01 1.552934288978576660e+00 3.228632509708404541e-01 -7.141118645668029785e-01
3.020000000000000000e+03 3.639425659179687500e+01 3.821127700805664062e+01 -1.751688122749328613e+00 7.491474598646163940e-02 -5.030320286750793457e-01 2.345691621303558350e-01
3.021000000000000000e+03 4.024979400634765625e+01 -3.811334991455078125e+01 -1.623942017555236816e+00 4.766848087310791016e+00 9.428718686103820801e-01 -3.891580402851104736e-01
3.022000000000000000e+03 1.302431869506835938e+01 -2.092737436294555664e+00 3.240561962127685547e+00 2.597273886203765869e-01 1.050086855888366699e+00 1.022819876670837402e+00
3.023000000000000000e+03 1.304237461090087891e+01 -2.252462387084960938e+00 3.425159692764282227e+00 2.571048140525817871e-01 1.104679346084594727e+00 1.111345767974853516e+00
3.024000000000000000e+03 1.368813991546630859e+01 -3.324216842651367188e+00 3.600085973739624023e+00 1.835826635360717773e+00 1.630773782730102539e+00 2.590861320495605469e+00
3.025000000000000000e+03 1.421077156066894531e+01 -2.307677745819091797e+00 4.805218696594238281e+00 1.487995505332946777e+00 1.887964248657226562e+00 2.482435941696166992e+00
3.026000000000000000e+03 1.483686923980712891e+01 -2.412969589233398438e+00 4.906135082244873047e+00 3.955411672592163086e+00 2.658463954925537109e+00 3.621050834655761719e+00
3.027000000000000000e+03 1.543252944946289062e+01 -2.455516099929809570e+00 4.445638179779052734e+00 7.484198093414306641e+00 3.578950881958007812e+00 4.038859367370605469e+00
3.028000000000000000e+03 1.562432289123535156e+01 -2.463448524475097656e+00 4.004807472229003906e+00 9.158049583435058594e+00 3.948857069015502930e+00 4.287690162658691406e+00
3.029000000000000000e+03 1.505744552612304688e+01 1.308978676795959473e+00 1.229124188423156738e+00 6.356101512908935547e+00 2.275567770004272461e+00 -4.358851909637451172e+00
3.030000000000000000e+03 1.589280796051025391e+01 7.816624045372009277e-01 9.385226964950561523e-01 1.190787696838378906e+01 3.853919744491577148e+00 -4.545465946197509766e+00
3.031000000000000000e+03 1.610721778869628906e+01 7.973569035530090332e-01 8.904734253883361816e-01 1.222924804687500000e+01 3.935916423797607422e+00 -3.688529253005981445e+00
3.032000000000000000e+03 6.675374603271484375e+01 -6.177608013153076172e+00 6.094002127647399902e-01 6.577686309814453125e+00 2.156126022338867188e+00 -1.670663833618164062e+00
3.033000000000000000e+03 2.593569183349609375e+01 3.843879699707031250e+01 -2.369714975357055664e+00 -2.932367026805877686e-01 -7.988854646682739258e-01 -4.068479835987091064e-01
3.034000000000000000e+03 1.582125377655029297e+01 -2.645924568176269531e+00 3.253467559814453125e+00 1.006488800048828125e+01 3.995506525039672852e+00 3.202411890029907227e+00
3.035000000000000000e+03 1.542678356170654297e+01 -2.784493446350097656e+00 3.723475217819213867e+00 7.433691024780273438e+00 3.347149848937988281e+00 3.734279870986938477e+00
3.036000000000000000e+03 1.518224430084228516e+01 -2.816282272338867188e+00 3.978831052780151367e+00 5.879296779632568359e+00 2.957438230514526367e+00 3.667439222335815430e+00
3.037000000000000000e+03 1.550648212432861328e+01 -3.133202552795410156e+00 3.282243490219116211e+00 6.992269039154052734e+00 3.082353830337524414e+00 3.087127208709716797e+00
3.038000000000000000e+03 1.390196132659912109e+01 -2.523889541625976562e+00 4.295430183410644531e+00 1.312455534934997559e+00 1.682365655899047852e+00 2.275146961212158203e+00
3.039000000000000000e+03 1.375008964538574219e+01 -2.870559453964233398e+00 4.045499324798583984e+00 1.572353720664978027e+00 1.685356020927429199e+00 2.413601398468017578e+00
3.040000000000000000e+03 1.404649639129638672e+01 -2.955719232559204102e+00 4.187023162841796875e+00 2.228338718414306641e+00 1.924608588218688965e+00 2.863799333572387695e+00
3.041000000000000000e+03 1.274600124359130859e+01 -2.872250318527221680e+00 3.222381830215454102e+00 5.559151172637939453e-01 1.133489012718200684e+00 1.565292596817016602e+00
3.042000000000000000e+03 1.837102127075195312e+01 -3.161462068557739258e+00 4.261483669281005859e+00 6.425796508789062500e+00 3.206184148788452148e+00 -2.466227054595947266e+00
3.043000000000000000e+03 1.958460617065429688e+01 -5.122636556625366211e-01 5.527798175811767578e+00 4.026242733001708984e+00 2.866212368011474609e+00 -1.521433711051940918e+00
3.044000000000000000e+03 1.625335311889648438e+01 -3.035383701324462891e+00 2.977209806442260742e+00 9.076101303100585938e+00 3.615993261337280273e+00 9.865630269050598145e-01
3.045000000000000000e+03 1.595899868011474609e+01 -2.989661455154418945e+00 2.824619054794311523e+00 9.834648132324218750e+00 3.797780036926269531e+00 2.171356201171875000e+00
3.046000000000000000e+03 1.535666561126708984e+01 1.347489714622497559e+00 8.274503350257873535e-01 7.741021633148193359e+00 2.570541620254516602e+00 -4.361835956573486328e+00
3.047000000000000000e+03 1.504088878631591797e+01 1.686391234397888184e+00 7.717636823654174805e-01 6.357084751129150391e+00 2.138654470443725586e+00 -4.057373046875000000e+00
3.048000000000000000e+03 1.415230274200439453e+01 1.412472128868103027e+00 1.283797860145568848e+00 3.464183330535888672e+00 1.424394369125366211e+00 -3.344463825225830078e+00
3.049000000000000000e+03 1.393670940399169922e+01 1.987731695175170898e+00 8.345948457717895508e-01 3.574254274368286133e+00 1.322654724121093750e+00 -3.124100208282470703e+00
3.050000000000000000e+03 1.250698661804199219e+01 -3.157734632492065430e+00 3.040129423141479492e+00 6.036506891250610352e-01 1.093134045600891113e+00 1.678714752197265625e+00
3.051000000000000000e+03 3.459285974502563477e+00 -2.079633331298828125e+01 1.000952601432800293e+00 4.280404090881347656e+00 1.584406971931457520e+00 1.075428247451782227e+00
3.052000000000000000e+03 1.299211692810058594e+01 -3.562410116195678711e+00 3.166889429092407227e+00 1.222226738929748535e+00 1.316734910011291504e+00 2.174477100372314453e+00
3.053000000000000000e+03 1.335613536834716797e+01 -3.404109954833984375e+00 3.431128263473510742e+00 1.472056627273559570e+00 1.470955491065979004e+00 2.362309932708740234e+00
3.054000000000000000e+03 4.009433269500732422e+00 -2.022079849243164062e+01 1.200129508972167969e+00 5.074553012847900391e+00 1.882404804229736328e+00 1.088760256767272949e+00
3.055000000000000000e+03 1.545172500610351562e+01 3.396360397338867188e+01 -1.195895671844482422e+00 2.533543109893798828e+00 4.012942612171173096e-01 -3.653354346752166748e-01
3.056000000000000000e+03 5.091632843017578125e+00 -3.289320755004882812e+01 -8.856998682022094727e-01 3.673740625381469727e+00 8.364122509956359863e-01 2.197813987731933594e-02
3.057000000000000000e+03 3.392847061157226562e+01 -3.186697959899902344e+01 -8.285329937934875488e-01 5.719512939453125000e+00 1.467293977737426758e+00 1.371493458747863770e+00
3.058000000000000000e+03 4.154989624023437500e+01 -2.000960159301757812e+01 4.111863970756530762e-01 8.137946128845214844e+00 2.564739704132080078e+00 -6.196249127388000488e-01
3.059000000000000000e+03 7.775257873535156250e+01 -3.560657882690429688e+01 -1.562934368848800659e-01 1.022858333587646484e+01 3.021687030792236328e+00 -2.711381018161773682e-01
3.060000000000000000e+03 1.190398120880126953e+01 -3.389896869659423828e+00 2.576588869094848633e+00 4.598829746246337891e-01 9.109416007995605469e-01 1.505421400070190430e+00
3.061000000000000000e+03 3.374710464477539062e+01 3.811244964599609375e+01 -2.205986261367797852e+00 -3.131089806556701660e-01 -7.557285428047180176e-01 4.465796351432800293e-01
3.062000000000000000e+03 3.501395034790039062e+01 3.739140701293945312e+01 -2.082243919372558594e+00 -3.085546493530273438e-01 -7.172395586967468262e-01 5.791680216789245605e-01
3.063000000000000000e+03 3.756074905395507812e+01 3.635969161987304688e+01 -1.697526335716247559e+00 1.388433128595352173e-01 -4.676049053668975830e-01 2.735857069492340088e-01
3.064000000000000000e+03 3.911067581176757812e+01 -1.773100852966308594e+01 1.331410259008407593e-01 1.086627483367919922e+01 3.299824714660644531e+00 5.559734702110290527e-01
3.065000000000000000e+03 4.015201950073242188e+01 3.639276885986328125e+01 -1.534142613410949707e+00 1.554889678955078125e+00 6.224100477993488312e-03 1.052456572651863098e-01
3.066000000000000000e+03 3.104063224792480469e+01 -1.299958133697509766e+01 1.121303915977478027e+00 1.309620618820190430e+00 7.292773127555847168e-01 -1.513712406158447266e+00
3.067000000000000000e+03 1.917316627502441406e+01 -3.604874420166015625e+01 -8.327610492706298828e-01 -3.094724118709564209e-01 -3.426700234413146973e-01 3.500396013259887695e-01
3.068000000000000000e+03 1.483490657806396484e+01 -4.274513721466064453e+00 2.601595401763916016e+00 4.532238960266113281e+00 2.140150308609008789e+00 2.790003776550292969e+00
3.069000000000000000e+03 7.241626739501953125e+01 -3.606584930419921875e+01 -6.141464114189147949e-01 7.914293289184570312e+00 2.190044164657592773e+00 -3.201898932456970215e-01
3.070000000000000000e+03 4.525571823120117188e+00 -3.421025848388671875e+01 -5.625093579292297363e-01 4.105803966522216797e+00 1.062988400459289551e+00 -1.845051199197769165e-01
3.071000000000000000e+03 5.072636127471923828e+00 -1.992354202270507812e+01 1.751930236816406250e+00 7.126608848571777344e+00 2.663561820983886719e+00 1.718409895896911621e+00
3.072000000000000000e+03 1.440993690490722656e+01 1.768057942390441895e+00 9.322828650474548340e-01 4.534617900848388672e+00 1.640070319175720215e+00 -3.630025625228881836e+00
3.073000000000000000e+03 1.412079811096191406e+01 1.691245436668395996e+00 1.064741134643554688e+00 3.707007169723510742e+00 1.431524395942687988e+00 -3.321548700332641602e+00
3.074000000000000000e+03 3.006817340850830078e+00 -3.287878799438476562e+01 -3.241816461086273193e-01 5.346965312957763672e+00 1.506835103034973145e+00 1.287412792444229126e-01
3.075000000000000000e+03 4.870963096618652344e+00 -3.174794006347656250e+01 -1.256530046463012695e+00 3.949588298797607422e+00 8.079174757003784180e-01 3.096800744533538818e-01
3.076000000000000000e+03 4.275418281555175781e+00 -3.258055114746093750e+01 -6.897986531257629395e-01 4.438122272491455078e+00 1.124497175216674805e+00 1.994598954916000366e-01
3.077000000000000000e+03 2.763148307800292969e+00 5.033203125000000000e+00 2.390483859926462173e-03 -4.199121892452239990e-01 -1.252565085887908936e-01 5.223158597946166992e-01
3.078000000000000000e+03 1.759502792358398438e+01 2.955722570419311523e+00 -8.863819241523742676e-01 8.493096351623535156e+00 2.282014131546020508e+00 -1.302164196968078613e+00
3.079000000000000000e+03 1.566704368591308594e+01 1.845791697502136230e+00 1.318265646696090698e-01 8.786923408508300781e+00 2.675625085830688477e+00 -3.801780939102172852e+00
3.080000000000000000e+03 3.736862659454345703e+00 -1.890130233764648438e+01 8.667035698890686035e-01 4.064812183380126953e+00 1.479454755783081055e+00 3.716774582862854004e-01
3.081000000000000000e+03 5.256762504577636719e+00 -1.896553230285644531e+01 1.564568758010864258e+00 6.468373298645019531e+00 2.409882545471191406e+00 1.327008485794067383e+00
3.082000000000000000e+03 1.221808338165283203e+01 -3.971470594406127930e+00 2.659240007400512695e+00 8.653014302253723145e-01 1.057362437248229980e+00 1.952044129371643066e+00
3.083000000000000000e+03 1.270907020568847656e+01 -3.756712436676025391e+00 2.964677333831787109e+00 1.034368753433227539e+00 1.199713826179504395e+00 2.094110012054443359e+00
3.084000000000000000e+03 1.389658355712890625e+01 -3.906611680984497070e+00 3.147444725036621094e+00 2.634881496429443359e+00 1.734697818756103516e+00 2.827322244644165039e+00
3.085000000000000000e+03 4.822199821472167969e+00 -1.415028572082519531e+01 -4.841602146625518799e-01 3.252000570297241211e+00 8.303521275520324707e-01 2.173873335123062134e-01
3.086000000000000000e+03 3.159885215759277344e+01 -1.195099449157714844e+01 1.805390954017639160e+00 1.957826852798461914e+00 1.128965377807617188e+00 -1.707631707191467285e+00
3.087000000000000000e+03 7.698362731933593750e+01 -2.782340812683105469e+01 4.135683923959732056e-02 8.728164672851562500e+00 2.630856275558471680e+00 -1.133332252502441406e+00
3.088000000000000000e+03 3.923554229736328125e+01 8.151871562004089355e-01 -6.002345681190490723e-01 8.859841346740722656e+00 2.477882146835327148e+00 1.567233324050903320e+00
3.089000000000000000e+03 2.108903694152832031e+01 -3.654969024658203125e+01 -6.995161175727844238e-01 -2.206189185380935669e-01 -2.760405242443084717e-01 3.358250558376312256e-01
3.090000000000000000e+03 4.995389556884765625e+01 -2.953432655334472656e+01 6.065865606069564819e-02 1.155073761940002441e+00 3.647197186946868896e-01 -6.743391752243041992e-01
3.091000000000000000e+03 7.249602508544921875e+01 -1.937277793884277344e+01 5.346935987472534180e-01 1.146173572540283203e+01 3.598928689956665039e+00 -4.396437108516693115e-01
3.092000000000000000e+03 1.279918766021728516e+01 3.258806991577148438e+01 -9.526474475860595703e-01 3.374272584915161133e+00 7.264875173568725586e-01 -8.725924491882324219e-01
3.093000000000000000e+03 4.315015792846679688e+01 7.526333332061767578e+00 1.630837559700012207e+00 7.291207790374755859e+00 2.676613569259643555e+00 3.204830646514892578e+00
3.094000000000000000e+03 1.222653198242187500e+01 -4.798539161682128906e+00 2.333624601364135742e+00 1.229984045028686523e+00 1.069082617759704590e+00 2.246369123458862305e+00
3.095000000000000000e+03 1.391730213165283203e+01 -4.641404151916503906e+00 2.615927934646606445e+00 2.807661533355712891e+00 1.627076864242553711e+00 2.747994661331176758e+00
3.096000000000000000e+03 1.299780464172363281e+01 -3.928098201751708984e+00 3.044269561767578125e+00 1.449580907821655273e+00 1.348155140876770020e+00 2.360926866531372070e+00
3.097000000000000000e+03 1.330543327331542969e+01 -4.115912914276123047e+00 2.987828493118286133e+00 1.890800833702087402e+00 1.463588833808898926e+00 2.571055173873901367e+00
3.098000000000000000e+03 7.623436737060546875e+01 -2.394467735290527344e+01 2.842347621917724609e-01 8.420548439025878906e+00 2.611435174942016602e+00 -8.801661133766174316e-01
3.099000000000000000e+03 2.513434886932373047e+00 6.267767429351806641e+00 6.800127029418945312e-02 -5.977312326431274414e-01 -1.589189916849136353e-01 4.698423743247985840e-01
3.100000000000000000e+03 1.548014736175537109e+01 5.650842189788818359e+00 -4.620505273342132568e-01 6.608021736145019531e+00 1.843791365623474121e+00 -2.035288095474243164e+00
3.101000000000000000e+03 7.682079315185546875e+01 -3.153156661987304688e+01 -2.815355658531188965e-01 9.375706672668457031e+00 2.728251457214355469e+00 -9.348283410072326660e-01
3.102000000000000000e+03 2.849160575866699219e+01 -3.556719207763671875e+01 -7.838250398635864258e-01 1.649946451187133789e+00 2.598364055156707764e-01 8.890585303306579590e-01
3.103000000000000000e+03 2.111001014709472656e+01 -5.991232872009277344e+00 3.062454938888549805e+00 2.361711740493774414e+00 1.627249956130981445e+00 -1.880721211433410645e+00
3.104000000000000000e+03 1.436303329467773438e+01 -5.323142051696777344e+00 2.045832633972167969e+00 3.426310300827026367e+00 1.641642808914184570e+00 2.581229686737060547e+00
3.105000000000000000e+03 1.435506534576416016e+01 -5.823184490203857422e+00 1.788697957992553711e+00 3.289720535278320312e+00 1.523525595664978027e+00 2.492363452911376953e+00
3.106000000000000000e+03 1.198511695861816406e+01 3.077428436279296875e+01 -6.752229928970336914e-01 3.724102258682250977e+00 9.146637916564941406e-01 -1.061074614524841309e+00
3.107000000000000000e+03 1.155012321472167969e+01 3.238031005859375000e+01 -8.512542843818664551e-01 3.455054044723510742e+00 7.811399698257446289e-01 -1.035048961639404297e+00
3.108000000000000000e+03 1.614228820800781250e+01 -4.839725971221923828e+00 1.791199803352355957e+00 5.861961364746093750e+00 2.295948266983032227e+00 1.335738897323608398e+00
3.109000000000000000e+03 2.812518310546875000e+01 -7.853492736816406250e+00 3.032520532608032227e+00 6.920789480209350586e-01 1.117379903793334961e+00 -1.929287195205688477e+00
3.110000000000000000e+03 2.939246177673339844e+01 -6.408604621887207031e+00 3.566841125488281250e+00 6.511008739471435547e-01 1.265382647514343262e+00 -1.953971624374389648e+00
3.111000000000000000e+03 3.049932098388671875e+01 -6.005026340484619141e+00 3.642077445983886719e+00 6.767860651016235352e-01 1.295659065246582031e+00 -1.815289378166198730e+00
3.112000000000000000e+03 3.016845703125000000e+01 -6.681670665740966797e+00 3.433955907821655273e+00 8.062999844551086426e-01 1.272076725959777832e+00 -1.853956580162048340e+00
3.113000000000000000e+03 3.390617370605468750e+01 -1.186847686767578125e+01 1.611344337463378906e+00 4.389661312103271484e+00 1.800301671028137207e+00 -1.407551050186157227e+00
3.114000000000000000e+03 3.891910171508789062e+01 -3.210274887084960938e+01 -9.205258488655090332e-01 6.136506080627441406e+00 1.564794063568115234e+00 -6.452798843383789062e-01
3.115000000000000000e+03 1.404100418090820312e+01 3.390472030639648438e+01 -1.182023406028747559e+00 2.904420852661132812e+00 5.167192816734313965e-01 -5.392565131187438965e-01
3.116000000000000000e+03 2.909739494323730469e+01 -8.995122909545898438e+00 2.770468711853027344e+00 7.373377680778503418e-01 1.052341938018798828e+00 -1.806241750717163086e+00
3.117000000000000000e+03 7.529987335205078125e+01 -2.303344917297363281e+01 3.809087574481964111e-01 8.987015724182128906e+00 2.810377359390258789e+00 -7.983361482620239258e-01
3.118000000000000000e+03 7.470864105224609375e+01 -2.244551658630371094e+01 4.296609461307525635e-01 9.298050880432128906e+00 2.918313741683959961e+00 -7.736637592315673828e-01
3.119000000000000000e+03 2.771014785766601562e+01 -1.508945083618164062e+01 -1.093393683433532715e+00 1.810294948518276215e-02 -3.225872218608856201e-01 -4.993358254432678223e-01
3.120000000000000000e+03 2.679539871215820312e+01 -1.353795242309570312e+01 -5.883555114269256592e-02 2.145923525094985962e-01 4.672703891992568970e-02 -7.137212157249450684e-01
3.121000000000000000e+03 2.880109977722167969e+01 -1.486976242065429688e+01 -6.331316828727722168e-01 1.715205311775207520e-01 -1.384833455085754395e-01 -5.856808423995971680e-01
3.122000000000000000e+03 5.435610580444335938e+01 2.718556976318359375e+01 4.338757693767547607e-01 4.101333141326904297e+00 1.360562682151794434e+00 8.774515986442565918e-01
3.123000000000000000e+03 1.485664844512939453e+01 5.168392658233642578e+00 -3.468115031719207764e-01 6.085879802703857422e+00 1.721720457077026367e+00 -2.293126821517944336e+00
3.124000000000000000e+03 2.915782165527343750e+01 -7.142841339111328125e+00 3.335183382034301758e+00 6.886615157127380371e-01 1.207153439521789551e+00 -1.935811519622802734e+00
3.125000000000000000e+03 3.974729537963867188e+01 -3.427401351928710938e+01 -1.347003459930419922e+00 5.534828662872314453e+00 1.256347537040710449e+00 -6.589357852935791016e-01
3.126000000000000000e+03 4.146060562133789062e+01 -3.270738601684570312e+01 -8.606993556022644043e-01 5.095653533935546875e+00 1.270486235618591309e+00 -1.038837790489196777e+00
3.127000000000000000e+03 7.171784210205078125e+01 -7.704399585723876953e+00 -2.038374394178390503e-01 8.932393074035644531e+00 2.618566513061523438e+00 9.059415757656097412e-02
3.128000000000000000e+03 1.303544807434082031e+01 -5.210643291473388672e+00 2.272641897201538086e+00 1.969368100166320801e+00 1.272602915763854980e+00 2.529057502746582031e+00
3.129000000000000000e+03 4.287823486328125000e+01 -2.606061744689941406e+01 8.422957062721252441e-01 4.822310447692871094e+00 1.699381828308105469e+00 -1.481986403465270996e+00
3.130000000000000000e+03 1.442974185943603516e+01 5.381772041320800781e+00 -2.009309828281402588e-01 5.572514057159423828e+00 1.611474871635437012e+00 -2.170479536056518555e+00
3.131000000000000000e+03 1.148713397979736328e+01 5.796001434326171875e+00 4.072252810001373291e-01 2.930559158325195312e+00 1.001335382461547852e+00 -1.219871044158935547e+00
3.132000000000000000e+03 1.943498420715332031e+01 -1.235068893432617188e+01 -7.228841185569763184e-01 1.155007004737854004e+00 1.296368539333343506e-01 4.688946995884180069e-03
3.133000000000000000e+03 3.443502807617187500e+01 -1.080975627899169922e+01 2.082045078277587891e+00 4.669445991516113281e+00 2.025447368621826172e+00 -1.207929968833923340e+00
3.134000000000000000e+03 2.904618644714355469e+01 -9.949640274047851562e+00 2.420804023742675781e+00 7.007921338081359863e-01 9.364787936210632324e-01 -1.678750395774841309e+00
3.135000000000000000e+03 6.418847656250000000e+01 2.179185867309570312e+01 6.895139813423156738e-01 4.508780956268310547e+00 1.559488534927368164e+00 -2.384361624717712402e-02
3.136000000000000000e+03 1.460659217834472656e+01 -1.034405422210693359e+01 1.378540098667144775e-01 1.564663171768188477e+00 5.107551813125610352e-01 1.958464026451110840e+00
3.137000000000000000e+03 1.039971160888671875e+01 -1.076682376861572266e+01 -1.128601133823394775e-01 1.766362190246582031e+00 4.960506260395050049e-01 2.707978725433349609e+00
3.138000000000000000e+03 9.700662612915039062e+00 -6.422875881195068359e+00 1.149638772010803223e+00 9.623156189918518066e-01 6.335863471031188965e-01 1.929469704627990723e+00
3.139000000000000000e+03 4.906219863891601562e+01 2.300761985778808594e+01 7.188490033149719238e-01 4.252254962921142578e+00 1.491331219673156738e+00 1.178352594375610352e+00
3.140000000000000000e+03 1.488594150543212891e+01 -6.935836791992187500e+00 1.204027771949768066e+00 3.137419700622558594e+00 1.302434206008911133e+00 2.059176445007324219e+00
3.141000000000000000e+03 2.412234115600585938e+01 -1.171698570251464844e+01 4.765824377536773682e-01 7.223269939422607422e-01 3.596728146076202393e-01 -9.127205014228820801e-01
3.142000000000000000e+03 7.107695102691650391e+00 2.800638771057128906e+01 -6.998155266046524048e-02 3.020040035247802734e+00 8.850175738334655762e-01 -1.538332939147949219e+00
3.143000000000000000e+03 2.246968650817871094e+01 -1.179075336456298828e+01 1.106225997209548950e-01 9.618024826049804688e-01 3.217275440692901611e-01 -6.613881587982177734e-01
3.144000000000000000e+03 1.319072055816650391e+01 6.221805095672607422e+00 1.418665647506713867e-01 4.566426753997802734e+00 1.412487983703613281e+00 -1.726008296012878418e+00
3.145000000000000000e+03 8.117539405822753906e+00 2.754122543334960938e+01 -3.492005169391632080e-02 3.322184085845947266e+00 9.861791729927062988e-01 -1.569827079772949219e+00
3.146000000000000000e+03 1.882845687866210938e+01 -6.568591117858886719e+00 1.855835080146789551e+00 3.677983045578002930e+00 1.660145401954650879e+00 -9.344516992568969727e-01
3.147000000000000000e+03 6.472231864929199219e+00 7.487327098846435547e+00 3.839109539985656738e-01 7.889593839645385742e-01 3.518610894680023193e-01 2.230800539255142212e-01
3.148000000000000000e+03 4.923890590667724609e+00 7.077187538146972656e+00 2.282713949680328369e-01 1.349175125360488892e-01 1.089566722512245178e-01 4.486139714717864990e-01
3.149000000000000000e+03 5.428339481353759766e+00 8.165718078613281250e+00 3.411933779716491699e-01 4.842322766780853271e-01 2.476276904344558716e-01 3.119918406009674072e-01
3.150000000000000000e+03 4.445637702941894531e+00 8.873337745666503906e+00 2.396867573261260986e-01 2.110427618026733398e-02 7.823731005191802979e-02 3.353682458400726318e-01
3.151000000000000000e+03 8.270335197448730469e+00 7.752438068389892578e+00 5.231307744979858398e-01 1.649317145347595215e+00 6.517343521118164062e-01 -1.606091111898422241e-01
3.152000000000000000e+03 1.859943199157714844e+01 -8.665501594543457031e+00 8.925805091857910156e-01 2.613017559051513672e+00 1.051679372787475586e+00 -2.049730271100997925e-01
3.153000000000000000e+03 1.077891254425048828e+01 -6.436638355255126953e+00 1.421766161918640137e+00 1.101034522056579590e+00 7.568402290344238281e-01 2.207696437835693359e+00
3.154000000000000000e+03 1.161619853973388672e+01 -6.313144207000732422e+00 1.599012136459350586e+00 1.329074263572692871e+00 8.784258961677551270e-01 2.357628822326660156e+00
3.155000000000000000e+03 1.453683280944824219e+01 -6.638366699218750000e+00 1.351520895957946777e+00 3.110728979110717773e+00 1.338675022125244141e+00 2.244952440261840820e+00
3.156000000000000000e+03 1.367153453826904297e+01 -7.876115322113037109e+00 9.793763160705566406e-01 2.243190526962280273e+00 9.667700529098510742e-01 2.410597801208496094e+00
3.157000000000000000e+03 5.767575073242187500e+01 1.055212211608886719e+01 1.125789642333984375e+00 2.044050216674804688e+00 9.509519338607788086e-01 -2.752828299999237061e-01
3.158000000000000000e+03 5.282318115234375000e+01 1.071721267700195312e+01 1.659268736839294434e+00 1.841534256935119629e+00 1.050240874290466309e+00 8.030694723129272461e-01
3.159000000000000000e+03 7.300740814208984375e+01 7.213300466537475586e-02 -5.870550870895385742e-01 7.545300006866455078e+00 2.087473392486572266e+00 -1.308533400297164917e-01
3.160000000000000000e+03 6.308781814575195312e+01 4.419713497161865234e+00 -5.321472883224487305e-01 3.106181621551513672e+00 7.722102999687194824e-01 -1.362148880958557129e+00
3.161000000000000000e+03 6.389111709594726562e+01 3.948096752166748047e+00 -7.051443457603454590e-01 3.482772111892700195e+00 8.332883119583129883e-01 -1.437531113624572754e+00
3.162000000000000000e+03 6.357034683227539062e+01 2.944334506988525391e+00 -9.030252695083618164e-01 3.320456266403198242e+00 7.252293229103088379e-01 -1.427003026008605957e+00
3.163000000000000000e+03 7.274777221679687500e+01 2.000090217590332031e+01 2.086431980133056641e-01 6.004386425018310547e+00 1.863908886909484863e+00 -3.645349442958831787e-01
3.164000000000000000e+03 7.230014801025390625e+01 2.272641372680664062e+01 2.041741460561752319e-01 5.921185970306396484e+00 1.837608098983764648e+00 -2.395575046539306641e-01
3.165000000000000000e+03 4.662778091430664062e+01 1.138086318969726562e+01 1.938170909881591797e+00 4.450829982757568359e+00 1.916700363159179688e+00 2.437276601791381836e+00
3.166000000000000000e+03 4.635829544067382812e+01 2.152686309814453125e+01 5.828229188919067383e-01 4.879837512969970703e+00 1.638798117637634277e+00 1.167198300361633301e+00
3.167000000000000000e+03 5.389925384521484375e+01 1.081673240661621094e+01 1.569138169288635254e+00 1.868757009506225586e+00 1.031368613243103027e+00 5.519456863403320312e-01
3.168000000000000000e+03 5.331579589843750000e+01 1.134695911407470703e+01 1.663762331008911133e+00 1.993617415428161621e+00 1.097213983535766602e+00 7.087979316711425781e-01
3.169000000000000000e+03 7.146649932861328125e+01 1.713994026184082031e+01 2.706924974918365479e-01 5.786548614501953125e+00 1.817172408103942871e+00 -5.540683865547180176e-01
3.170000000000000000e+03 7.197551727294921875e+01 9.221597015857696533e-02 -6.985425353050231934e-01 7.301391601562500000e+00 1.980854749679565430e+00 -2.788873612880706787e-01
3.171000000000000000e+03 6.564277648925781250e+01 3.590431690216064453e+00 -7.858313918113708496e-01 4.372379302978515625e+00 1.075964331626892090e+00 -1.371036410331726074e+00
3.172000000000000000e+03 1.794296455383300781e+01 -9.140642166137695312e+00 5.607475042343139648e-01 2.413280963897705078e+00 8.922085165977478027e-01 2.549715042114257812e-01
3.173000000000000000e+03 5.559495544433593750e+01 1.218666172027587891e+01 1.511128902435302734e+00 2.158119201660156250e+00 1.100774407386779785e+00 3.269307911396026611e-01
3.174000000000000000e+03 4.687047195434570312e+01 1.579790687561035156e+01 1.472419142723083496e+00 4.881499290466308594e+00 1.906175494194030762e+00 2.026999950408935547e+00
3.175000000000000000e+03 6.357053375244140625e+01 1.638847160339355469e+01 8.697853684425354004e-01 3.963458061218261719e+00 1.449972987174987793e+00 -3.794618546962738037e-01
3.176000000000000000e+03 6.747558593750000000e+01 1.876753425598144531e+01 5.461696982383728027e-01 4.930756568908691406e+00 1.643077969551086426e+00 -3.935920596122741699e-01
3.177000000000000000e+03 7.186983108520507812e+00 8.505327224731445312e+00 4.917309582233428955e-01 1.259106755256652832e+00 5.252513289451599121e-01 3.347763046622276306e-02
3.178000000000000000e+03 1.122394943237304688e+01 -6.841322898864746094e+00 1.313652873039245605e+00 1.297755599021911621e+00 7.834225893020629883e-01 2.351098299026489258e+00
3.179000000000000000e+03 5.876977157592773438e+01 1.119782733917236328e+01 1.084512710571289062e+00 2.364300251007080078e+00 1.034643888473510742e+00 -3.596032559871673584e-01
3.180000000000000000e+03 5.974635314941406250e+01 1.204076671600341797e+01 1.058943033218383789e+00 2.695073366165161133e+00 1.126204967498779297e+00 -4.279808998107910156e-01
3.181000000000000000e+03 6.655111694335937500e+01 5.098874092102050781e+00 -5.088079571723937988e-01 4.698216438293457031e+00 1.256822586059570312e+00 -1.291834235191345215e+00
3.182000000000000000e+03 5.542617416381835938e+01 1.708073997497558594e+01 1.509102940559387207e+00 3.071895360946655273e+00 1.374299526214599609e+00 7.354169487953186035e-01
3.183000000000000000e+03 5.766452407836914062e+01 1.714103317260742188e+01 1.364216923713684082e+00 3.125803232192993164e+00 1.347006082534790039e+00 3.563363254070281982e-01
3.184000000000000000e+03 5.687166976928710938e+01 1.623596000671386719e+01 1.460161089897155762e+00 2.937500238418579102e+00 1.319298386573791504e+00 4.145477414131164551e-01
3.185000000000000000e+03 1.583907794952392578e+01 -8.479627966880798340e-01 2.386381530761718750e+01 2.541289806365966797e+00 7.921531200408935547e+00 5.390505790710449219e+00
3.186000000000000000e+03 1.584059143066406250e+01 -8.673721551895141602e-01 2.413207626342773438e+01 8.515501022338867188e+00 9.794273376464843750e+00 1.369040584564208984e+01
3.187000000000000000e+03 1.584585380554199219e+01 -8.861156105995178223e-01 2.373362922668457031e+01 1.607404708862304688e+01 1.194230270385742188e+01 1.716694068908691406e+01
3.188000000000000000e+03 1.585466384887695312e+01 -9.034759402275085449e-01 2.174405670166015625e+01 2.391271591186523438e+01 1.369703102111816406e+01 1.913170242309570312e+01
3.189000000000000000e+03 1.586668682098388672e+01 -9.187888503074645996e-01 1.974386596679687500e+01 3.207911300659179688e+01 1.554689407348632812e+01 1.897556304931640625e+01
3.190000000000000000e+03 1.588145923614501953e+01 -9.314683079719543457e-01 1.712640571594238281e+01 3.917973327636718750e+01 1.689183998107910156e+01 1.720860290527343750e+01
3.191000000000000000e+03 1.589841842651367188e+01 -9.410290718078613281e-01 1.553264904022216797e+01 4.534053421020507812e+01 1.826195526123046875e+01 1.368155097961425781e+01
3.192000000000000000e+03 1.591691398620605469e+01 -9.471054077148437500e-01 1.437338638305664062e+01 4.929285812377929688e+01 1.909987258911132812e+01 9.134345054626464844e+00
3.193000000000000000e+03 1.593623828887939453e+01 -9.494646191596984863e-01 1.483237171173095703e+01 5.112914657592773438e+01 1.978845596313476562e+01 4.196942806243896484e+00
3.194000000000000000e+03 1.595565319061279297e+01 -9.480165839195251465e-01 1.673027420043945312e+01 5.085795974731445312e+01 2.027647018432617188e+01 -5.428277850151062012e-01
3.195000000000000000e+03 1.597441387176513672e+01 -9.428166151046752930e-01 1.969555473327636719e+01 4.875839614868164062e+01 2.053618431091308594e+01 -4.367387294769287109e+00
3.196000000000000000e+03 1.599180316925048828e+01 -9.340637326240539551e-01 2.293073844909667969e+01 4.524695205688476562e+01 2.045330810546875000e+01 -6.916917800903320312e+00
3.197000000000000000e+03 1.600715637207031250e+01 -9.220929145812988281e-01 2.682745552062988281e+01 4.195936203002929688e+01 2.063604545593261719e+01 -7.686109066009521484e+00
3.198000000000000000e+03 1.601988410949707031e+01 -9.073621630668640137e-01 3.059947776794433594e+01 3.799857711791992188e+01 2.057941627502441406e+01 -7.154179573059082031e+00
3.199000000000000000e+03 1.602950096130371094e+01 -8.904352784156799316e-01 3.273434448242187500e+01 3.471544265747070312e+01 2.023493576049804688e+01 -5.807501316070556641e+00
3.200000000000000000e+03 1.603563880920410156e+01 -8.719599246978759766e-01 3.503163146972656250e+01 3.358964920043945312e+01 2.058638381958007812e+01 -3.128213644027709961e+00
3.201000000000000000e+03 1.603806304931640625e+01 -8.526431918144226074e-01 3.558292770385742188e+01 3.225254440307617188e+01 2.035064315795898438e+01 -7.465310394763946533e-02
3.202000000000000000e+03 1.603668022155761719e+01 -8.332242369651794434e-01 3.524198913574218750e+01 3.282470321655273438e+01 2.042000770568847656e+01 2.815056324005126953e+00
3.203000000000000000e+03 1.603154182434082031e+01 -8.144461512565612793e-01 3.382370758056640625e+01 3.499872207641601562e+01 2.064673042297363281e+01 5.565996646881103516e+00
3.204000000000000000e+03 1.602284812927246094e+01 -7.970275282859802246e-01 3.104437637329101562e+01 3.772047805786132812e+01 2.062945556640625000e+01 7.658754825592041016e+00
3.205000000000000000e+03 1.601092720031738281e+01 -7.816348671913146973e-01 2.765134429931640625e+01 4.155937957763671875e+01 2.076321792602539062e+01 8.513556480407714844e+00
3.206000000000000000e+03 1.599623966217041016e+01 -7.688573002815246582e-01 2.371027946472167969e+01 4.563704681396484375e+01 2.080419921875000000e+01 7.944010734558105469e+00
3.207000000000000000e+03 1.597934436798095703e+01 -7.591837644577026367e-01 1.952547073364257812e+01 4.924662017822265625e+01 2.063162612915039062e+01 5.822886466979980469e+00
3.208000000000000000e+03 1.596088981628417969e+01 -7.529844045639038086e-01 1.632532882690429688e+01 5.190311431884765625e+01 2.046853256225585938e+01 2.204097032546997070e+00
3.209000000000000000e+03 1.594158172607421875e+01 -7.504964470863342285e-01 1.374392604827880859e+01 5.268768310546875000e+01 1.992948341369628906e+01 -2.568346500396728516e+00
3.210000000000000000e+03 1.592215824127197266e+01 -7.518151402473449707e-01 1.292536640167236328e+01 5.144273757934570312e+01 1.931043052673339844e+01 -7.755078792572021484e+00
3.211000000000000000e+03 1.590336322784423828e+01 -7.568899393081665039e-01 1.325662231445312500e+01 4.775008010864257812e+01 1.830200958251953125e+01 -1.273959255218505859e+01
3.212000000000000000e+03 1.588591575622558594e+01 -7.655267715454101562e-01 1.526217746734619141e+01 4.206755447387695312e+01 1.719891929626464844e+01 -1.674778366088867188e+01
3.213000000000000000e+03 1.587048339843750000e+01 -7.773950695991516113e-01 1.761502838134765625e+01 3.455407333374023438e+01 1.565073013305664062e+01 -1.926949501037597656e+01
3.214000000000000000e+03 1.585765647888183594e+01 -7.920405864715576172e-01 2.092301940917968750e+01 2.599299049377441406e+01 1.407480335235595703e+01 -1.971013832092285156e+01
3.215000000000000000e+03 1.584792709350585938e+01 -8.089030385017395020e-01 2.351034545898437500e+01 1.700946426391601562e+01 1.215594291687011719e+01 -1.805942344665527344e+01
3.216000000000000000e+03 1.584166622161865234e+01 -8.273370265960693359e-01 2.737306404113769531e+01 6.755257129669189453e+00 1.023849678039550781e+01 -1.150639724731445312e+01
