# el_label, x, y, sXX, sYY, sZZ, sXY
1.000000000000000000e+00 3.722503280639648438e+01 -6.963018417358398438e+00 -1.144368350505828857e-01 -1.345690369606018066e+00 -4.380381703376770020e-01 -2.211529493331909180e+00
2.000000000000000000e+00 3.742392730712890625e+01 -6.970668792724609375e+00 3.497055292129516602e+00 5.288299322128295898e-01 1.207765579223632812e+00 3.972162306308746338e-01
3.000000000000000000e+00 3.762282180786132812e+01 -6.978318691253662109e+00 2.046752691268920898e+00 -2.062354534864425659e-01 5.521551966667175293e-01 -1.974491029977798462e-01
4.000000000000000000e+00 3.782171630859375000e+01 -6.985969066619873047e+00 1.667106866836547852e+00 2.778907679021358490e-02 5.084687471389770508e-01 5.232928693294525146e-02
5.000000000000000000e+00 3.722156143188476562e+01 -6.904717445373535156e+00 1.250950050354003906e+01 -2.235002994537353516e+00 3.082349300384521484e+00 -1.080980300903320312e-01
6.000000000000000000e+00 3.741813659667968750e+01 -6.873499870300292969e+00 6.323540210723876953e+00 1.876432299613952637e-01 1.953355073928833008e+00 5.242612957954406738e-01
7.000000000000000000e+00 3.761471557617187500e+01 -6.842282295227050781e+00 5.998356342315673828e+00 2.129452228546142578e-01 1.863390445709228516e+00 1.163657426834106445e+00
8.000000000000000000e+00 3.781129074096679688e+01 -6.811064720153808594e+00 4.415167331695556641e+00 -8.471431583166122437e-02 1.299135923385620117e+00 7.849531173706054688e-01
9.000000000000000000e+00 3.720679855346679688e+01 -6.848207950592041016e+00 1.779037475585937500e+01 3.855462372303009033e-01 5.452776432037353516e+00 5.438342571258544922e+00
1.000000000000000000e+01 3.739353942871093750e+01 -6.779317378997802734e+00 1.138431835174560547e+01 3.395858108997344971e-01 3.517171144485473633e+00 3.085502862930297852e+00
1.100000000000000000e+01 3.758028030395507812e+01 -6.710427284240722656e+00 8.180384635925292969e+00 9.254198074340820312e-01 2.731741428375244141e+00 2.671215772628784180e+00
1.200000000000000000e+01 3.776701736450195312e+01 -6.641536712646484375e+00 7.179766178131103516e+00 5.729871988296508789e-01 2.325825929641723633e+00 2.712001085281372070e+00
1.300000000000000000e+01 3.718132400512695312e+01 -6.795652866363525391e+00 1.994574928283691406e+01 4.835052013397216797e+00 7.434240818023681641e+00 1.025435733795166016e+01
1.400000000000000000e+01 3.735107803344726562e+01 -6.691725730895996094e+00 1.323004436492919922e+01 2.899598836898803711e+00 4.838892936706542969e+00 6.605777263641357422e+00
1.500000000000000000e+01 3.752083206176757812e+01 -6.587798595428466797e+00 1.045583438873291016e+01 2.465815305709838867e+00 3.876494884490966797e+00 5.282483100891113281e+00
1.600000000000000000e+01 3.769058609008789062e+01 -6.483871459960937500e+00 8.335987091064453125e+00 2.079308509826660156e+00 3.124588727951049805e+00 4.543463706970214844e+00
1.700000000000000000e+01 3.714610290527343750e+01 -6.749063491821289062e+00 1.889846801757812500e+01 1.081723785400390625e+01 8.914711952209472656e+00 1.394247055053710938e+01
1.800000000000000000e+01 3.729237747192382812e+01 -6.614076614379882812e+00 1.369929313659667969e+01 7.023216247558593750e+00 6.216753005981445312e+00 9.560036659240722656e+00
1.900000000000000000e+01 3.743864822387695312e+01 -6.479089736938476562e+00 1.058297252655029297e+01 5.375054836273193359e+00 4.787408351898193359e+00 7.680830478668212891e+00
2.000000000000000000e+01 3.758492279052734375e+01 -6.344102859497070312e+00 8.898934364318847656e+00 4.700705051422119141e+00 4.079891681671142578e+00 6.704498767852783203e+00
2.100000000000000000e+01 3.710248565673828125e+01 -6.710222244262695312e+00 1.682162094116210938e+01 1.784991264343261719e+01 1.040146064758300781e+01 1.553393459320068359e+01
2.200000000000000000e+01 3.721968078613281250e+01 -6.549341201782226562e+00 1.223071002960205078e+01 1.179618644714355469e+01 7.208069324493408203e+00 1.143114280700683594e+01
2.300000000000000000e+01 3.733687591552734375e+01 -6.388460636138916016e+00 9.975997924804687500e+00 9.570726394653320312e+00 5.864017486572265625e+00 9.284774780273437500e+00
2.400000000000000000e+01 3.745406723022460938e+01 -6.227579593658447266e+00 8.072259902954101562e+00 7.851644992828369141e+00 4.777171134948730469e+00 8.123878479003906250e+00
2.500000000000000000e+01 3.705213928222656250e+01 -6.680615901947021484e+00 1.358568763732910156e+01 2.444141006469726562e+01 1.140812969207763672e+01 1.516375637054443359e+01
2.600000000000000000e+01 3.713577270507812500e+01 -6.499997615814208984e+00 1.074104022979736328e+01 1.703837203979492188e+01 8.333824157714843750e+00 1.161094951629638672e+01
2.700000000000000000e+01 3.721940612792968750e+01 -6.319378852844238281e+00 8.174165725708007812e+00 1.373106575012207031e+01 6.571569442749023438e+00 9.937568664550781250e+00
2.800000000000000000e+01 3.730303573608398438e+01 -6.138760566711425781e+00 7.035811901092529297e+00 1.205190086364746094e+01 5.726313591003417969e+00 8.492570877075195312e+00
2.900000000000000000e+01 3.699699401855468750e+01 -6.661376953125000000e+00 1.149832344055175781e+01 3.006534385681152344e+01 1.246909999847412109e+01 1.291729927062988281e+01
3.000000000000000000e+01 3.704386138916015625e+01 -6.467932701110839844e+00 8.650690078735351562e+00 2.176093292236328125e+01 9.123486518859863281e+00 1.043313312530517578e+01
3.100000000000000000e+01 3.709073257446289062e+01 -6.274488449096679688e+00 7.015083312988281250e+00 1.766848945617675781e+01 7.405071735382080078e+00 9.120616912841796875e+00
3.200000000000000000e+01 3.713760375976562500e+01 -6.081044673919677734e+00 5.299099922180175781e+00 1.553008747100830078e+01 6.248755931854248047e+00 8.187111854553222656e+00
3.300000000000000000e+01 3.693915939331054688e+01 -6.653242588043212891e+00 1.032684516906738281e+01 3.404482269287109375e+01 1.331150054931640625e+01 9.205815315246582031e+00
3.400000000000000000e+01 3.694747161865234375e+01 -6.454374790191650391e+00 7.517100334167480469e+00 2.532166671752929688e+01 9.851630210876464844e+00 8.325381278991699219e+00
3.500000000000000000e+01 3.695578384399414062e+01 -6.255507469177246094e+00 5.910627365112304688e+00 2.107027244567871094e+01 8.094269752502441406e+00 7.104735374450683594e+00
3.600000000000000000e+01 3.696409606933593750e+01 -6.056640148162841797e+00 4.588408946990966797e+00 1.792993354797363281e+01 6.755503177642822266e+00 6.696218490600585938e+00
3.700000000000000000e+01 3.688084793090820312e+01 -6.656522750854492188e+00 1.059760570526123047e+01 3.608869171142578125e+01 1.400588893890380859e+01 5.263608455657958984e+00
3.800000000000000000e+01 3.685028457641601562e+01 -6.459842205047607422e+00 7.549818038940429688e+00 2.742831039428710938e+01 1.049343872070312500e+01 5.275149345397949219e+00
3.900000000000000000e+01 3.681972122192382812e+01 -6.263161659240722656e+00 5.475691318511962891e+00 2.304946899414062500e+01 8.557548522949218750e+00 4.904324054718017578e+00
4.000000000000000000e+01 3.678915786743164062e+01 -6.066481590270996094e+00 4.609704971313476562e+00 2.051505661010742188e+01 7.537428379058837891e+00 4.277154445648193359e+00
4.100000000000000000e+01 3.682428741455078125e+01 -6.671092987060546875e+00 1.196625232696533203e+01 3.604873275756835938e+01 1.440449619293212891e+01 1.563858509063720703e+00
4.200000000000000000e+01 3.675601959228515625e+01 -6.484125614166259766e+00 8.896240234375000000e+00 2.834224319458007812e+01 1.117154502868652344e+01 2.309805154800415039e+00
4.300000000000000000e+01 3.668775177001953125e+01 -6.297158718109130859e+00 6.166273117065429688e+00 2.359247970581054688e+01 8.927625656127929688e+00 2.244027614593505859e+00
4.400000000000000000e+01 3.661948013305664062e+01 -6.110191822052001953e+00 5.206132888793945312e+00 2.067062568664550781e+01 7.763027191162109375e+00 2.543254137039184570e+00
4.500000000000000000e+01 3.677164840698242188e+01 -6.696395397186279297e+00 1.562555503845214844e+01 3.525782394409179688e+01 1.526501369476318359e+01 -8.941521644592285156e-01
4.600000000000000000e+01 3.666828918457031250e+01 -6.526296138763427734e+00 1.003420639038085938e+01 2.736284255981445312e+01 1.121911525726318359e+01 -5.753142237663269043e-01
4.700000000000000000e+01 3.656492614746093750e+01 -6.356197357177734375e+00 8.872383117675781250e+00 2.347588157653808594e+01 9.704479217529296875e+00 3.374936580657958984e-01
4.800000000000000000e+01 3.646156311035156250e+01 -6.186098098754882812e+00 6.162471294403076172e+00 1.908469581604003906e+01 7.574150085449218750e+00 -1.858009099960327148e-01
4.900000000000000000e+01 3.672494506835937500e+01 -6.731461048126220703e+00 1.820137786865234375e+01 3.232463455200195312e+01 1.515780353546142578e+01 -2.856787204742431641e+00
5.000000000000000000e+01 3.659044265747070312e+01 -6.584739685058593750e+00 1.339037227630615234e+01 2.659771537780761719e+01 1.199642562866210938e+01 -1.616683602333068848e+00
5.100000000000000000e+01 3.645594406127929688e+01 -6.438017845153808594e+00 1.038231945037841797e+01 2.122869110107421875e+01 9.483303070068359375e+00 -1.869527220726013184e+00
5.200000000000000000e+01 3.632144165039062500e+01 -6.291296482086181641e+00 9.296347618103027344e+00 1.999666976928710938e+01 8.787905693054199219e+00 -1.479724526405334473e+00
5.300000000000000000e+01 3.668595504760742188e+01 -6.774949073791503906e+00 2.142579460144042969e+01 3.072763824462890625e+01 1.564602947235107422e+01 -2.937139034271240234e+00
5.400000000000000000e+01 3.652546691894531250e+01 -6.657219886779785156e+00 1.619588851928710938e+01 2.384112739562988281e+01 1.201110458374023438e+01 -2.270666360855102539e+00
5.500000000000000000e+01 3.636497497558593750e+01 -6.539490222930908203e+00 1.283549880981445312e+01 2.044923400878906250e+01 9.985419273376464844e+00 -2.277921915054321289e+00
5.600000000000000000e+01 3.620448684692382812e+01 -6.421760559082031250e+00 1.091649818420410156e+01 1.759664916992187500e+01 8.553944587707519531e+00 -1.534812927246093750e+00
5.700000000000000000e+01 3.665618515014648438e+01 -6.825194835662841797e+00 2.425170516967773438e+01 2.869919204711914062e+01 1.588526916503906250e+01 -1.801442265510559082e+00
5.800000000000000000e+01 3.647584533691406250e+01 -6.740962982177734375e+00 1.855889511108398438e+01 2.180712509155273438e+01 1.210980606079101562e+01 -2.046326875686645508e+00
5.900000000000000000e+01 3.629550552368164062e+01 -6.656730651855468750e+00 1.524902629852294922e+01 1.899758338928222656e+01 1.027398300170898438e+01 -1.148662209510803223e+00
6.000000000000000000e+01 3.611516571044921875e+01 -6.572498321533203125e+00 1.274799251556396484e+01 1.482165241241455078e+01 8.270893096923828125e+00 -1.365287899971008301e+00
6.100000000000000000e+01 3.663676452636718750e+01 -6.880275726318359375e+00 2.591936683654785156e+01 2.666191482543945312e+01 1.577438449859619141e+01 -1.583570688962936401e-01
6.200000000000000000e+01 3.644347381591796875e+01 -6.832764148712158203e+00 2.008232688903808594e+01 2.114411354064941406e+01 1.236793231964111328e+01 -3.665420413017272949e-01
6.300000000000000000e+01 3.625018692016601562e+01 -6.785252571105957031e+00 1.707216453552246094e+01 1.657466316223144531e+01 1.009404850006103516e+01 -2.069087326526641846e-02
6.400000000000000000e+01 3.605690002441406250e+01 -6.737740993499755859e+00 1.487483882904052734e+01 1.523304939270019531e+01 9.032366752624511719e+00 -3.523117005825042725e-01
6.500000000000000000e+01 3.662843704223632812e+01 -6.938084125518798828e+00 2.646830558776855469e+01 2.618839263916015625e+01 1.579700946807861328e+01 1.794272065162658691e+00
6.600000000000000000e+01 3.642959594726562500e+01 -6.929111480712890625e+00 2.071877861022949219e+01 2.039918899536132812e+01 1.233539009094238281e+01 2.012028455734252930e+00
6.700000000000000000e+01 3.623075485229492188e+01 -6.920138359069824219e+00 1.742793655395507812e+01 1.638608551025390625e+01 1.014420700073242188e+01 1.170121550559997559e+00
6.800000000000000000e+01 3.603191757202148438e+01 -6.911165237426757812e+00 1.540616703033447266e+01 1.462061500549316406e+01 9.008034706115722656e+00 1.567484498023986816e+00
6.900000000000000000e+01 3.663152313232421875e+01 -6.996407508850097656e+00 2.580607032775878906e+01 2.692092132568359375e+01 1.581809711456298828e+01 4.167982101440429688e+00
7.000000000000000000e+01 3.643474197387695312e+01 -7.026316642761230469e+00 2.025083923339843750e+01 2.019679832458496094e+01 1.213429164886474609e+01 3.988922357559204102e+00
7.100000000000000000e+01 3.623795700073242188e+01 -7.056225776672363281e+00 1.649572753906250000e+01 1.784256935119628906e+01 1.030148983001708984e+01 3.270202636718750000e+00
7.200000000000000000e+01 3.604117584228515625e+01 -7.086135387420654297e+00 1.408157157897949219e+01 1.378630924224853516e+01 8.360363960266113281e+00 2.852869987487792969e+00
7.300000000000000000e+01 3.664590454101562500e+01 -7.053013801574707031e+00 2.385690307617187500e+01 2.802795600891113281e+01 1.556545734405517578e+01 6.313946247100830078e+00
7.400000000000000000e+01 3.645870971679687500e+01 -7.120660781860351562e+00 1.831993103027343750e+01 2.170568847656250000e+01 1.200768566131591797e+01 5.308841228485107422e+00
7.500000000000000000e+01 3.627151870727539062e+01 -7.188307762145996094e+00 1.506579208374023438e+01 1.851313400268554688e+01 1.007367801666259766e+01 5.260230541229248047e+00
7.600000000000000000e+01 3.608432388305664062e+01 -7.255954742431640625e+00 1.274192714691162109e+01 1.624193000793457031e+01 8.695157051086425781e+00 4.187283992767333984e+00
7.700000000000000000e+01 3.667103195190429688e+01 -7.105737209320068359e+00 2.088200950622558594e+01 2.959382438659667969e+01 1.514275074005126953e+01 7.457145214080810547e+00
7.800000000000000000e+01 3.650058746337890625e+01 -7.208533287048339844e+00 1.548041439056396484e+01 2.412109184265136719e+01 1.188045215606689453e+01 6.088980674743652344e+00
7.900000000000000000e+01 3.633014678955078125e+01 -7.311328887939453125e+00 1.281167984008789062e+01 1.925661468505859375e+01 9.620488166809082031e+00 5.662327289581298828e+00
8.000000000000000000e+01 3.615970611572265625e+01 -7.414124965667724609e+00 1.189899826049804688e+01 1.840802383422851562e+01 9.092106819152832031e+00 5.330995559692382812e+00
8.100000000000000000e+01 3.670594024658203125e+01 -7.152559757232666016e+00 1.728414154052734375e+01 3.262002563476562500e+01 1.497125053405761719e+01 7.300715446472167969e+00
8.200000000000000000e+01 3.655877304077148438e+01 -7.286571025848388672e+00 1.208608913421630859e+01 2.558197402954101562e+01 1.130041885375976562e+01 5.935262203216552734e+00
8.300000000000000000e+01 3.641160583496093750e+01 -7.420582294464111328e+00 1.022287464141845703e+01 2.165959930419921875e+01 9.564742088317871094e+00 4.756371021270751953e+00
8.400000000000000000e+01 3.626443862915039062e+01 -7.554593086242675781e+00 8.755729675292968750e+00 1.798116874694824219e+01 8.021069526672363281e+00 4.256575584411621094e+00
8.500000000000000000e+01 3.674929809570312500e+01 -7.191690444946289062e+00 1.304422950744628906e+01 3.484926223754882812e+01 1.436804676055908203e+01 5.996073246002197266e+00
8.600000000000000000e+01 3.663103485107421875e+01 -7.351788043975830078e+00 9.041901588439941406e+00 2.738322067260742188e+01 1.092753696441650391e+01 4.175340175628662109e+00
8.700000000000000000e+01 3.651277542114257812e+01 -7.511886119842529297e+00 7.250371932983398438e+00 2.291567420959472656e+01 9.049813270568847656e+00 3.287926673889160156e+00
8.800000000000000000e+01 3.639451217651367188e+01 -7.671984195709228516e+00 4.901860237121582031e+00 1.982534217834472656e+01 7.418160438537597656e+00 2.331841945648193359e+00
8.900000000000000000e+01 3.679944610595703125e+01 -7.221631050109863281e+00 9.234409332275390625e+00 3.639419555664062500e+01 1.368858146667480469e+01 3.207076072692871094e+00
9.000000000000000000e+01 3.671461486816406250e+01 -7.401689052581787109e+00 6.605933666229248047e+00 2.817867660522460938e+01 1.043538284301757812e+01 1.479501247406005859e+00
9.100000000000000000e+01 3.662978363037109375e+01 -7.581747531890869141e+00 4.515447139739990234e+00 2.345925903320312500e+01 8.392411231994628906e+00 9.386072754859924316e-01
9.200000000000000000e+01 3.654495239257812500e+01 -7.761806011199951172e+00 3.342763900756835938e+00 2.111501693725585938e+01 7.337334156036376953e+00 1.194720625877380371e+00
9.300000000000000000e+01 3.685446166992187500e+01 -7.241236209869384766e+00 6.888292312622070312e+00 3.662283325195312500e+01 1.305333709716796875e+01 -7.963819503784179688e-01
9.400000000000000000e+01 3.680630874633789062e+01 -7.434364318847656250e+00 4.638895511627197266e+00 2.754328727722167969e+01 9.654655456542968750e+00 -1.739037156105041504e+00
9.500000000000000000e+01 3.675815582275390625e+01 -7.627492427825927734e+00 3.428998708724975586e+00 2.309312629699707031e+01 7.956637382507324219e+00 -1.631665349006652832e+00
9.600000000000000000e+01 3.671000289916992188e+01 -7.820621013641357422e+00 2.685010671615600586e+00 1.969557380676269531e+01 6.714175224304199219e+00 -1.145403265953063965e+00
9.700000000000000000e+01 3.691224288940429688e+01 -7.249754905700683594e+00 5.673477172851562500e+00 3.475782394409179688e+01 1.212939071655273438e+01 -5.303881645202636719e+00
9.800000000000000000e+01 3.690261077880859375e+01 -7.448562622070312500e+00 4.208212852478027344e+00 2.553319931030273438e+01 8.922423362731933594e+00 -4.953762054443359375e+00
9.900000000000000000e+01 3.689297485351562500e+01 -7.647370815277099609e+00 3.252698898315429688e+00 2.093187141418457031e+01 7.255371093750000000e+00 -4.245965957641601562e+00
1.000000000000000000e+02 3.688334274291992188e+01 -7.846178054809570312e+00 2.597871780395507812e+00 1.806425666809082031e+01 6.198638916015625000e+00 -3.824541091918945312e+00
1.010000000000000000e+02 3.697057342529296875e+01 -7.246862411499023438e+00 6.070955753326416016e+00 3.078244972229003906e+01 1.105602169036865234e+01 -9.414953231811523438e+00
1.020000000000000000e+02 3.699983215332031250e+01 -7.443741798400878906e+00 4.974730014801025391e+00 2.192412567138671875e+01 8.069656372070312500e+00 -7.567286491394042969e+00
1.030000000000000000e+02 3.702908706665039062e+01 -7.640621185302734375e+00 3.798886537551879883e+00 1.769894981384277344e+01 6.449350833892822266e+00 -6.499705314636230469e+00
1.040000000000000000e+02 3.705834197998046875e+01 -7.837500095367431641e+00 3.384720325469970703e+00 1.531543540954589844e+01 5.610046863555908203e+00 -5.450796604156494141e+00
1.050000000000000000e+02 3.702722930908203125e+01 -7.232668399810791016e+00 8.106572151184082031e+00 2.506110191345214844e+01 9.950302124023437500e+00 -1.219037914276123047e+01
1.060000000000000000e+02 3.709425354003906250e+01 -7.420085430145263672e+00 6.170364856719970703e+00 1.704503822326660156e+01 6.964621067047119141e+00 -9.219580650329589844e+00
1.070000000000000000e+02 3.716127777099609375e+01 -7.607501983642578125e+00 5.161029815673828125e+00 1.375960636138916016e+01 5.676190853118896484e+00 -7.485710144042968750e+00
1.080000000000000000e+02 3.722830200195312500e+01 -7.794919013977050781e+00 4.331461429595947266e+00 1.140574455261230469e+01 4.721161842346191406e+00 -6.564175605773925781e+00
1.090000000000000000e+02 3.708003616333007812e+01 -7.207716941833496094e+00 1.032869720458984375e+01 1.786558151245117188e+01 8.458283424377441406e+00 -1.315554141998291016e+01
1.100000000000000000e+02 3.718226623535156250e+01 -7.378499031066894531e+00 7.845601081848144531e+00 1.185981941223144531e+01 5.911625862121582031e+00 -9.240402221679687500e+00
1.110000000000000000e+02 3.728449630737304688e+01 -7.549281120300292969e+00 6.256756782531738281e+00 9.126774787902832031e+00 4.615059375762939453e+00 -7.382449150085449219e+00
1.120000000000000000e+02 3.738672256469726562e+01 -7.720063686370849609e+00 5.261715888977050781e+00 7.999477863311767578e+00 3.978358030319213867e+00 -6.364395618438720703e+00
1.130000000000000000e+02 3.712697601318359375e+01 -7.172961711883544922e+00 1.247529315948486328e+01 1.065057945251464844e+01 6.937761783599853516e+00 -1.176648426055908203e+01
1.140000000000000000e+02 3.726049423217773438e+01 -7.320573806762695312e+00 8.513190269470214844e+00 6.491202354431152344e+00 4.501317977905273438e+00 -7.719103336334228516e+00
1.150000000000000000e+02 3.739401626586914062e+01 -7.468186378479003906e+00 6.912807941436767578e+00 5.381143569946289062e+00 3.688185453414916992e+00 -6.044449329376220703e+00
1.160000000000000000e+02 3.752753829956054688e+01 -7.615798473358154297e+00 5.573958396911621094e+00 4.465619087219238281e+00 3.011873245239257812e+00 -5.089087486267089844e+00
1.170000000000000000e+02 3.716624832153320312e+01 -7.129733562469482422e+00 1.233633422851562500e+01 3.901812791824340820e+00 4.871444225311279297e+00 -8.297190666198730469e+00
1.180000000000000000e+02 3.732595443725585938e+01 -7.248527050018310547e+00 8.187921524047851562e+00 2.434177398681640625e+00 3.186629772186279297e+00 -4.919191837310791016e+00
1.190000000000000000e+02 3.748565673828125000e+01 -7.367320537567138672e+00 5.888134479522705078e+00 2.388397455215454102e+00 2.482959508895874023e+00 -3.728417873382568359e+00
1.200000000000000000e+02 3.764535903930664062e+01 -7.486114025115966797e+00 5.107848167419433594e+00 2.380936384201049805e+00 2.246635437011718750e+00 -3.567073106765747070e+00
1.210000000000000000e+02 3.719635391235351562e+01 -7.079686641693115234e+00 9.857872962951660156e+00 -1.365520477294921875e+00 2.547705888748168945e+00 -2.973947286605834961e+00
1.220000000000000000e+02 3.737612915039062500e+01 -7.165115833282470703e+00 4.550747871398925781e+00 4.622085690498352051e-01 1.503886938095092773e+00 -1.546702742576599121e+00
1.230000000000000000e+02 3.755590438842773438e+01 -7.250544548034667969e+00 4.282048225402832031e+00 1.227629780769348145e+00 1.652903318405151367e+00 -2.133793354034423828e+00
1.240000000000000000e+02 3.773567962646484375e+01 -7.335973262786865234e+00 3.423764228820800781e+00 4.119889140129089355e-01 1.150725960731506348e+00 -1.553720712661743164e+00
1.250000000000000000e+02 3.721614456176757812e+01 -7.024735927581787109e+00 -1.207556605339050293e+00 -2.845715761184692383e+00 -1.215981721878051758e+00 2.127071619033813477e+00
1.260000000000000000e+02 3.740911102294921875e+01 -7.073531150817871094e+00 1.846474647521972656e+00 1.097492218017578125e+00 8.831900954246520996e-01 -7.486131787300109863e-01
1.270000000000000000e+02 3.760207748413085938e+01 -7.122326374053955078e+00 1.103386282920837402e+00 -4.114505946636199951e-01 2.075806856155395508e-01 -2.348655760288238525e-01
1.280000000000000000e+02 3.779504394531250000e+01 -7.171121597290039062e+00 8.433066010475158691e-01 3.184601962566375732e-01 3.485300540924072266e-01 -2.666460871696472168e-01
1.290000000000000000e+02 4.043421936035156250e+01 -6.657691478729248047e+00 4.401060640811920166e-01 2.328813225030899048e-01 2.018962204456329346e-01 2.548761069774627686e-01
1.300000000000000000e+02 4.020950698852539062e+01 -6.254760742187500000e+00 1.013139247894287109e+00 1.386670023202896118e-01 3.455418944358825684e-01 3.715870976448059082e-01
1.310000000000000000e+02 4.142622375488281250e+01 -6.367966175079345703e+00 9.058824926614761353e-02 7.540066540241241455e-02 4.979667440056800842e-02 -2.565962262451648712e-02
1.320000000000000000e+02 4.144216537475585938e+01 -7.110880851745605469e+00 -1.110545471310615540e-01 -4.614281654357910156e-02 -4.715920984745025635e-02 -7.915496081113815308e-02
1.330000000000000000e+02 4.080467224121093750e+01 -6.371664047241210938e+00 4.702717661857604980e-01 3.028085827827453613e-01 2.319241017103195190e-01 2.137805223464965820e-01
1.340000000000000000e+02 4.012319946289062500e+01 -6.846432685852050781e+00 1.631069630384445190e-01 1.119748502969741821e-01 8.252454549074172974e-02 1.472758501768112183e-01
1.350000000000000000e+02 4.192158126831054688e+01 -6.580193996429443359e+00 -4.934806749224662781e-02 -2.406773567199707031e-01 -8.700762689113616943e-02 -1.412842422723770142e-01
1.360000000000000000e+02 4.010889816284179688e+01 -7.052709579467773438e+00 -1.567168831825256348e-01 1.004668772220611572e-01 -1.687500253319740295e-02 8.892680518329143524e-03
1.370000000000000000e+02 4.016209030151367188e+01 -7.268086910247802734e+00 -5.772113800048828125e-01 5.578232556581497192e-02 -1.564287096261978149e-01 4.287137836217880249e-02
1.380000000000000000e+02 4.013508605957031250e+01 -6.638514518737792969e+00 6.165835261344909668e-01 2.063704654574394226e-02 1.911661773920059204e-01 1.743662655353546143e-01
1.390000000000000000e+02 4.043817901611328125e+01 -6.863003253936767578e+00 8.370677940547466278e-03 6.821984797716140747e-02 2.297715656459331512e-02 3.896474465727806091e-02
1.400000000000000000e+02 4.086987686157226562e+01 -7.140018939971923828e+00 -2.993977963924407959e-01 4.795010015368461609e-02 -7.543431222438812256e-02 -1.081557571887969971e-01
1.410000000000000000e+02 4.071502685546875000e+01 -6.756593227386474609e+00 3.690903633832931519e-02 1.936036050319671631e-01 6.915379315614700317e-02 -3.585137194022536278e-03
1.420000000000000000e+02 4.044154739379882812e+01 -7.125327587127685547e+00 -3.409864008426666260e-01 3.185761347413063049e-02 -9.273863583803176880e-02 9.422830305993556976e-03
1.430000000000000000e+02 4.040389251708984375e+01 -6.044324874877929688e+00 1.018288135528564453e+00 2.996372282505035400e-01 3.953776061534881592e-01 5.700602531433105469e-01
1.440000000000000000e+02 4.042884063720703125e+01 -6.432625770568847656e+00 8.079242706298828125e-01 1.021805107593536377e-01 2.730314433574676514e-01 2.680588960647583008e-01
1.450000000000000000e+02 4.014807891845703125e+01 -6.438616752624511719e+00 9.131175875663757324e-01 1.071488484740257263e-01 3.060799241065979004e-01 2.954349219799041748e-01
1.460000000000000000e+02 3.767979049682617188e+01 -7.765658855438232422e+00 4.747153282165527344e+00 4.103117942810058594e+00 2.655081272125244141e+00 -4.546881198883056641e+00
1.470000000000000000e+02 3.937727355957031250e+01 -7.446605682373046875e+00 -5.418357849121093750e-01 -1.421477925032377243e-02 -1.668151617050170898e-01 4.066316876560449600e-03
1.480000000000000000e+02 3.682600784301757812e+01 -8.059540748596191406e+00 2.456146001815795898e+00 1.597752571105957031e+01 5.530101299285888672e+00 -2.713127374649047852e+00
1.490000000000000000e+02 3.647351837158203125e+01 -8.010415077209472656e+00 2.855939149856567383e+00 1.865921401977539062e+01 6.454545974731445312e+00 6.202247738838195801e-01
1.500000000000000000e+02 3.617257308959960938e+01 -7.840438365936279297e+00 5.455959320068359375e+00 1.599590301513671875e+01 6.435558795928955078e+00 2.917376995086669922e+00
1.510000000000000000e+02 3.575170516967773438e+01 -6.888303756713867188e+00 1.195043563842773438e+01 1.175256347656250000e+01 7.110899448394775391e+00 1.543627977371215820e+00
1.520000000000000000e+02 3.610176849365234375e+01 -6.116356849670410156e+00 6.140223979949951172e+00 1.553814220428466797e+01 6.503509998321533203e+00 -6.685153841972351074e-01
1.530000000000000000e+02 3.632487106323242188e+01 -6.017630100250244141e+00 5.611586093902587891e+00 1.904967689514160156e+01 7.398378849029541016e+00 -9.404761195182800293e-01
1.540000000000000000e+02 3.739082717895507812e+01 -5.951745510101318359e+00 5.741541385650634766e+00 9.955207824707031250e+00 4.709024429321289062e+00 7.768152713775634766e+00
1.550000000000000000e+02 3.813894271850585938e+01 -6.354612350463867188e+00 5.720535278320312500e+00 1.110267758369445801e+00 2.049240827560424805e+00 3.028762102127075195e+00
1.560000000000000000e+02 3.981315612792968750e+01 -7.229239463806152344e+00 -4.920803308486938477e-01 -1.056561022996902466e-01 -1.793209314346313477e-01 1.183516457676887512e-01
1.570000000000000000e+02 3.770650863647460938e+01 -6.214705467224121094e+00 7.496359825134277344e+00 4.202658176422119141e+00 3.509705305099487305e+00 6.066345214843750000e+00
1.580000000000000000e+02 3.685255432128906250e+01 -5.620100021362304688e+00 2.379334688186645508e+00 1.579865550994873047e+01 5.453396797180175781e+00 4.565720558166503906e+00
1.590000000000000000e+02 3.582746505737304688e+01 -7.108942985534667969e+00 1.428760719299316406e+01 1.243623733520507812e+01 8.017153739929199219e+00 3.090010404586791992e+00
1.600000000000000000e+02 3.978064727783203125e+01 -7.493619441986083984e+00 -7.799142599105834961e-01 -1.410532742738723755e-01 -2.762902677059173584e-01 -2.408415265381336212e-02
1.610000000000000000e+02 3.917864227294921875e+01 -7.424016475677490234e+00 -4.272710680961608887e-01 2.432239800691604614e-02 -1.208845973014831543e-01 2.249191747978329659e-03
1.620000000000000000e+02 3.878673553466796875e+01 -7.368185997009277344e+00 -1.993125677108764648e-01 5.301308631896972656e-02 -4.388984665274620056e-02 -7.273074239492416382e-02
1.630000000000000000e+02 3.792280960083007812e+01 -7.427405357360839844e+00 2.908210039138793945e+00 8.042138218879699707e-01 1.113727211952209473e+00 -1.496286034584045410e+00
1.640000000000000000e+02 3.798972702026367188e+01 -7.221023559570312500e+00 6.007569432258605957e-01 -8.596239238977432251e-02 1.544383615255355835e-01 -2.087172269821166992e-01
1.650000000000000000e+02 3.803565597534179688e+01 -6.976483345031738281e+00 1.178836107254028320e+00 -8.055939525365829468e-02 3.294830322265625000e-01 8.895210921764373779e-02
1.660000000000000000e+02 3.844137191772460938e+01 -7.051707744598388672e+00 3.780641853809356689e-01 9.350340068340301514e-02 1.414702683687210083e-01 2.079858183860778809e-01
1.670000000000000000e+02 3.795231628417968750e+01 -6.532827377319335938e+00 6.238156795501708984e+00 6.800229549407958984e-01 2.075453996658325195e+00 2.522233724594116211e+00
1.680000000000000000e+02 3.761633300781250000e+01 -5.641071319580078125e+00 4.475612640380859375e+00 7.456671237945556641e+00 3.579685211181640625e+00 6.714466571807861328e+00
1.690000000000000000e+02 3.596220397949218750e+01 -6.273403167724609375e+00 9.195643424987792969e+00 1.352859783172607422e+01 6.817272663116455078e+00 -9.261739850044250488e-01
1.700000000000000000e+02 3.838970565795898438e+01 -5.758650779724121094e+00 4.417941570281982422e+00 2.440138339996337891e+00 2.057423830032348633e+00 4.000985145568847656e+00
1.710000000000000000e+02 3.895413208007812500e+01 -5.886515617370605469e+00 3.311238527297973633e+00 1.106413483619689941e+00 1.325295567512512207e+00 2.359596490859985352e+00
1.720000000000000000e+02 3.985024642944335938e+01 -7.018443107604980469e+00 -1.601097732782363892e-01 2.118566818535327911e-02 -4.167722910642623901e-02 1.058602258563041687e-01
1.730000000000000000e+02 3.995006179809570312e+01 -5.987758636474609375e+00 1.455280184745788574e+00 6.732301712036132812e-01 6.385530829429626465e-01 9.708335995674133301e-01
1.740000000000000000e+02 3.961891174316406250e+01 -7.165663242340087891e+00 -3.931786417961120605e-01 4.341470822691917419e-02 -1.049291864037513733e-01 1.148619353771209717e-01
1.750000000000000000e+02 3.766702651977539062e+01 -5.951292991638183594e+00 6.193936347961425781e+00 6.499695777893066406e+00 3.808089733123779297e+00 6.765171527862548828e+00
1.760000000000000000e+02 3.743078994750976562e+01 -5.620818614959716797e+00 3.913631916046142578e+00 1.061445045471191406e+01 4.358424663543701172e+00 6.962807178497314453e+00
1.770000000000000000e+02 3.782200241088867188e+01 -5.908720970153808594e+00 5.891594886779785156e+00 5.071469783782958984e+00 3.288919448852539062e+00 6.235091209411621094e+00
1.780000000000000000e+02 3.820319747924804688e+01 -5.735298156738281250e+00 4.609198570251464844e+00 3.605248689651489258e+00 2.464334011077880859e+00 4.902430057525634766e+00
1.790000000000000000e+02 3.964609527587890625e+01 -8.750148773193359375e+00 1.252938985824584961e+00 1.094186663627624512e+00 7.041376829147338867e-01 -1.216103672981262207e+00
1.800000000000000000e+02 3.966810989379882812e+01 -8.537598609924316406e+00 1.049346089363098145e+00 7.208446264266967773e-01 5.310572385787963867e-01 -8.542692661285400391e-01
1.810000000000000000e+02 3.895576858520507812e+01 -8.328942298889160156e+00 2.045419216156005859e+00 1.085699081420898438e+00 9.393354654312133789e-01 -1.667413949966430664e+00
1.820000000000000000e+02 3.822995376586914062e+01 -8.158626556396484375e+00 3.141234874725341797e+00 2.295412778854370117e+00 1.630994319915771484e+00 -3.008308649063110352e+00
1.830000000000000000e+02 3.742256164550781250e+01 -8.436390876770019531e+00 2.507000207901000977e+00 8.809894561767578125e+00 3.395068407058715820e+00 -4.899527549743652344e+00
1.840000000000000000e+02 3.722637939453125000e+01 -5.611145973205566406e+00 3.584719419479370117e+00 1.102354717254638672e+01 4.382480144500732422e+00 6.430696487426757812e+00
1.850000000000000000e+02 3.570164871215820312e+01 -6.415586948394775391e+00 1.062624168395996094e+01 1.192381381988525391e+01 6.765016555786132812e+00 -1.292820930480957031e+00
1.860000000000000000e+02 3.718803787231445312e+01 -5.862874984741210938e+00 4.495851039886474609e+00 1.377827453613281250e+01 5.482237815856933594e+00 6.810819149017333984e+00
1.870000000000000000e+02 3.668208312988281250e+01 -5.809585571289062500e+00 3.056603431701660156e+00 1.671077919006347656e+01 5.930214881896972656e+00 3.767506837844848633e+00
1.880000000000000000e+02 3.796266174316406250e+01 -6.189758777618408203e+00 6.428762435913085938e+00 2.556354045867919922e+00 2.695534944534301758e+00 4.571650505065917969e+00
1.890000000000000000e+02 3.836148071289062500e+01 -6.780850887298583984e+00 2.431129455566406250e+00 6.310019642114639282e-02 7.482689023017883301e-01 4.993329942226409912e-01
1.900000000000000000e+02 3.755911636352539062e+01 -6.080020427703857422e+00 7.053750991821289062e+00 7.390435218811035156e+00 4.333255767822265625e+00 7.542232036590576172e+00
1.910000000000000000e+02 3.591667938232421875e+01 -6.490359306335449219e+00 1.264863395690917969e+01 1.382131958007812500e+01 7.940986156463623047e+00 -2.090149164199829102e+00
1.920000000000000000e+02 3.646728897094726562e+01 -5.863780498504638672e+00 4.275937557220458984e+00 1.638285446166992188e+01 6.197638034820556641e+00 1.416291832923889160e+00
1.930000000000000000e+02 3.614928817749023438e+01 -5.862815380096435547e+00 4.909556388854980469e+00 1.564404869079589844e+01 6.166081428527832031e+00 -7.567486763000488281e-01
1.940000000000000000e+02 3.560007476806640625e+01 -7.119986057281494141e+00 1.189660644531250000e+01 1.100463390350341797e+01 6.870371818542480469e+00 2.403378963470458984e+00
1.950000000000000000e+02 3.781898880004882812e+01 -7.614243984222412109e+00 4.324243068695068359e+00 1.804521799087524414e+00 1.838629364967346191e+00 -3.003516435623168945e+00
1.960000000000000000e+02 3.592052841186523438e+01 -7.642523765563964844e+00 7.864345550537109375e+00 1.448152732849121094e+01 6.703762054443359375e+00 4.257225513458251953e+00
1.970000000000000000e+02 3.641168212890625000e+01 -8.174574851989746094e+00 2.305684089660644531e+00 1.642943382263183594e+01 5.620535373687744141e+00 4.635720551013946533e-01
1.980000000000000000e+02 3.735811233520507812e+01 -7.977943420410156250e+00 3.769424676895141602e+00 9.649703025817871094e+00 4.025738239288330078e+00 -5.969784259796142578e+00
1.990000000000000000e+02 3.578169250488281250e+01 -6.680624485015869141e+00 1.130091476440429688e+01 1.220840167999267578e+01 7.052794933319091797e+00 -3.112184405326843262e-01
2.000000000000000000e+02 3.838755035400390625e+01 -7.303326606750488281e+00 1.837310343980789185e-01 1.655203849077224731e-02 6.008492037653923035e-02 -1.647024303674697876e-01
2.010000000000000000e+02 3.663632965087890625e+01 -7.990211009979248047e+00 2.749225854873657227e+00 1.851158905029296875e+01 6.378244400024414062e+00 -3.091515302658081055e-01
2.020000000000000000e+02 3.704831695556640625e+01 -8.078156471252441406e+00 2.575288057327270508e+00 1.323394775390625000e+01 4.742770671844482422e+00 -5.104276657104492188e+00
2.030000000000000000e+02 3.580998229980468750e+01 -7.329910755157470703e+00 1.060305976867675781e+01 1.261855602264404297e+01 6.966484546661376953e+00 2.972545385360717773e+00
2.040000000000000000e+02 3.679355621337890625e+01 -8.312118530273437500e+00 1.809382319450378418e+00 1.347913169860839844e+01 4.586554050445556641e+00 -2.808906555175781250e+00
2.050000000000000000e+02 3.801557540893554688e+01 -5.960600852966308594e+00 5.694593906402587891e+00 3.610066175460815430e+00 2.791398048400878906e+00 5.118531227111816406e+00
2.060000000000000000e+02 3.781317520141601562e+01 -5.685620307922363281e+00 4.568608760833740234e+00 6.305728912353515625e+00 3.262301445007324219e+00 6.221385955810546875e+00
2.070000000000000000e+02 3.752154922485351562e+01 -5.800167560577392578e+00 5.088121414184570312e+00 8.910978317260742188e+00 4.199729919433593750e+00 7.212752819061279297e+00
2.080000000000000000e+02 3.936870574951171875e+01 -5.952570915222167969e+00 2.408978939056396484e+00 6.272004842758178711e-01 9.108538031578063965e-01 1.580866336822509766e+00
2.090000000000000000e+02 3.882088470458984375e+01 -7.110011577606201172e+00 -1.686197519302368164e-01 2.943065762519836426e-02 -4.175672680139541626e-02 1.020664051175117493e-01
2.100000000000000000e+02 3.986822128295898438e+01 -6.587875366210937500e+00 7.845381498336791992e-01 1.303791105747222900e-01 2.744751870632171631e-01 3.153676390647888184e-01
2.110000000000000000e+02 3.980058670043945312e+01 -6.250460147857666016e+00 1.493135809898376465e+00 3.755978941917419434e-01 5.606201291084289551e-01 7.350574731826782227e-01
2.120000000000000000e+02 3.904582595825195312e+01 -8.669915199279785156e+00 1.835697293281555176e+00 1.526134848594665527e+00 1.008549571037292480e+00 -1.959306001663208008e+00
2.130000000000000000e+02 3.898183441162109375e+01 -7.401057243347167969e+00 -3.265887200832366943e-01 2.631709538400173187e-02 -9.008149057626724243e-02 -3.108379617333412170e-02
2.140000000000000000e+02 3.890501022338867188e+01 -8.471195220947265625e+00 2.033673048019409180e+00 1.570863604545593262e+00 1.081360936164855957e+00 -1.989717721939086914e+00
2.150000000000000000e+02 3.812500000000000000e+01 -7.520918846130371094e+00 2.451010465621948242e+00 4.172203540802001953e-01 8.604692220687866211e-01 -1.259760260581970215e+00
2.160000000000000000e+02 3.847137069702148438e+01 -8.524595260620117188e+00 2.618452548980712891e+00 2.500675916671752930e+00 1.535738587379455566e+00 -2.867766857147216797e+00
2.170000000000000000e+02 3.777697753906250000e+01 -8.246208190917968750e+00 3.445240974426269531e+00 5.092857837677001953e+00 2.561429738998413086e+00 -4.502602100372314453e+00
2.180000000000000000e+02 3.781663894653320312e+01 -8.475811004638671875e+00 2.841855525970458984e+00 5.432230472564697266e+00 2.482225656509399414e+00 -4.237972259521484375e+00
2.190000000000000000e+02 3.974121856689453125e+01 -7.919607162475585938e+00 3.928255438804626465e-01 1.800837218761444092e-01 1.718727797269821167e-01 -1.543710231781005859e-01
2.200000000000000000e+02 3.767107391357421875e+01 -8.048846244812011719e+00 3.985531330108642578e+00 5.768142700195312500e+00 2.926102161407470703e+00 -4.902395248413085938e+00
2.210000000000000000e+02 3.969434356689453125e+01 -8.329136848449707031e+00 9.992601871490478516e-01 4.701354205608367920e-01 4.408186674118041992e-01 -6.810342669486999512e-01
2.220000000000000000e+02 3.802259063720703125e+01 -7.768067836761474609e+00 3.583028078079223633e+00 1.828466534614562988e+00 1.623448371887207031e+00 -2.724826335906982422e+00
2.230000000000000000e+02 3.824722671508789062e+01 -8.481920242309570312e+00 2.784848451614379883e+00 3.150468826293945312e+00 1.780595183372497559e+00 -3.293534755706787109e+00
2.240000000000000000e+02 3.761888504028320312e+01 -8.466339111328125000e+00 2.786235570907592773e+00 6.752133369445800781e+00 2.861510753631591797e+00 -4.666792392730712891e+00
2.250000000000000000e+02 3.701943969726562500e+01 -8.350074768066406250e+00 1.613449692726135254e+00 1.291595840454101562e+01 4.358822345733642578e+00 -4.019868850708007812e+00
2.260000000000000000e+02 3.992530441284179688e+01 -6.382926464080810547e+00 1.063184022903442383e+00 1.162472367286682129e-01 3.538293838500976562e-01 2.724996209144592285e-01
2.270000000000000000e+02 3.985586547851562500e+01 -6.815476417541503906e+00 4.711557626724243164e-01 2.717078849673271179e-02 1.494979709386825562e-01 5.543084815144538879e-02
2.280000000000000000e+02 3.969708633422851562e+01 -6.905105590820312500e+00 2.199922651052474976e-01 -6.040033698081970215e-02 4.787757620215415955e-02 8.786553889513015747e-02
2.290000000000000000e+02 3.975627899169921875e+01 -7.710346221923828125e+00 -9.082070738077163696e-02 -6.799408048391342163e-02 -4.764443635940551758e-02 -9.103742241859436035e-02
2.300000000000000000e+02 3.954068374633789062e+01 -7.710351467132568359e+00 -1.480980496853590012e-02 7.910945266485214233e-02 1.928989589214324951e-02 -2.030181586742401123e-01
2.310000000000000000e+02 3.949243545532226562e+01 -8.287559509277343750e+00 1.065251827239990234e+00 5.488982200622558594e-01 4.842450022697448730e-01 -8.322148919105529785e-01
2.320000000000000000e+02 3.802774429321289062e+01 -6.739741325378417969e+00 4.195219516754150391e+00 6.982631236314773560e-02 1.279513716697692871e+00 1.150091052055358887e+00
2.330000000000000000e+02 3.850765609741210938e+01 -6.860265254974365234e+00 1.221391439437866211e+00 -4.213867243379354477e-03 3.651532530784606934e-01 1.847172230482101440e-01
2.340000000000000000e+02 3.957738494873046875e+01 -7.471915721893310547e+00 -6.173506975173950195e-01 6.437874585390090942e-02 -1.658915877342224121e-01 6.856266409158706665e-02
2.350000000000000000e+02 3.900214385986328125e+01 -6.895635128021240234e+00 7.635323405265808105e-01 6.315251439809799194e-02 2.480054646730422974e-01 2.076297104358673096e-01
2.360000000000000000e+02 3.916262817382812500e+01 -5.940318107604980469e+00 2.793262720108032227e+00 7.730432748794555664e-01 1.069891810417175293e+00 1.806156396865844727e+00
2.370000000000000000e+02 3.876266479492187500e+01 -5.835703372955322266e+00 3.570493221282958984e+00 1.405302762985229492e+00 1.492738842964172363e+00 2.817823648452758789e+00
2.380000000000000000e+02 3.885785675048828125e+01 -6.182182312011718750e+00 3.154708147048950195e+00 6.132438778877258301e-01 1.130385637283325195e+00 1.783077120780944824e+00
2.390000000000000000e+02 3.956167984008789062e+01 -5.972462654113769531e+00 1.959712386131286621e+00 5.554618239402770996e-01 7.545522451400756836e-01 1.309327840805053711e+00
2.400000000000000000e+02 3.918888473510742188e+01 -6.609667301177978516e+00 1.708994984626770020e+00 1.068272367119789124e-01 5.447466373443603516e-01 6.076160073280334473e-01
2.410000000000000000e+02 3.819857025146484375e+01 -5.971485137939453125e+00 5.339665412902832031e+00 2.291079521179199219e+00 2.289223432540893555e+00 4.310858249664306641e+00
2.420000000000000000e+02 3.954082870483398438e+01 -6.704250335693359375e+00 9.024543762207031250e-01 8.774073421955108643e-02 2.970585525035858154e-01 3.230587840080261230e-01
2.430000000000000000e+02 3.901168441772460938e+01 -7.122377395629882812e+00 -2.893618047237396240e-01 -3.261543065309524536e-02 -9.659317135810852051e-02 7.584579288959503174e-02
2.440000000000000000e+02 3.822305679321289062e+01 -7.894723892211914062e+00 3.069213390350341797e+00 1.413709044456481934e+00 1.344876766204833984e+00 -2.312692165374755859e+00
2.450000000000000000e+02 3.893750381469726562e+01 -7.688730716705322266e+00 7.951864004135131836e-01 1.983984261751174927e-01 2.980754375457763672e-01 -4.935666322708129883e-01
2.460000000000000000e+02 3.858873748779296875e+01 -7.333560466766357422e+00 -2.341319620609283447e-02 6.048742681741714478e-02 1.112226955592632294e-02 -1.338261812925338745e-01
2.470000000000000000e+02 3.752352905273437500e+01 -8.132886886596679688e+00 3.582239866256713867e+00 7.188089370727539062e+00 3.231098651885986328e+00 -5.148017883300781250e+00
2.480000000000000000e+02 3.924042510986328125e+01 -8.689768791198730469e+00 1.704222559928894043e+00 1.351696848869323730e+00 9.167758226394653320e-01 -1.685431241989135742e+00
2.490000000000000000e+02 3.924423980712890625e+01 -8.459880828857421875e+00 1.550930261611938477e+00 9.156069755554199219e-01 7.399611473083496094e-01 -1.339473843574523926e+00
2.500000000000000000e+02 3.994721603393554688e+01 -6.199807167053222656e+00 1.299665808677673340e+00 4.239665269851684570e-01 5.170897245407104492e-01 7.103213071823120117e-01
2.510000000000000000e+02 3.853594207763671875e+01 -6.683863639831542969e+00 2.796352624893188477e+00 4.727144911885261536e-02 8.530871868133544922e-01 7.296712398529052734e-01
2.520000000000000000e+02 3.946417999267578125e+01 -6.220100402832031250e+00 2.031142950057983398e+00 3.545718193054199219e-01 7.157144546508789062e-01 1.026866793632507324e+00
2.530000000000000000e+02 3.898851394653320312e+01 -6.531430244445800781e+00 2.076950550079345703e+00 8.059428632259368896e-02 6.472634673118591309e-01 7.514237165451049805e-01
2.540000000000000000e+02 3.854943466186523438e+01 -7.578462123870849609e+00 1.240160703659057617e+00 3.083493113517761230e-01 4.645529985427856445e-01 -6.961848139762878418e-01
2.550000000000000000e+02 3.946022415161132812e+01 -8.498344421386718750e+00 1.335729718208312988e+00 8.598225712776184082e-01 6.586656570434570312e-01 -1.138019680976867676e+00
2.560000000000000000e+02 3.933748245239257812e+01 -7.687407970428466797e+00 1.681004911661148071e-01 1.072786748409271240e-01 8.261375129222869873e-02 -2.152988463640213013e-01
2.570000000000000000e+02 3.954573822021484375e+01 -7.920382499694824219e+00 6.136496663093566895e-01 1.165184527635574341e-01 2.190504372119903564e-01 -3.379462063312530518e-01
2.580000000000000000e+02 3.847384643554687500e+01 -8.073266029357910156e+00 2.512830495834350586e+00 1.408897399902343750e+00 1.176518321037292480e+00 -2.104188680648803711e+00
2.590000000000000000e+02 3.751886749267578125e+01 -7.883211135864257812e+00 4.448262691497802734e+00 6.538496971130371094e+00 3.296027898788452148e+00 -5.537175655364990234e+00
2.600000000000000000e+02 3.849949264526367188e+01 -6.219373226165771484e+00 4.354976177215576172e+00 9.781625270843505859e-01 1.599941730499267578e+00 2.472700595855712891e+00
2.610000000000000000e+02 3.944227600097656250e+01 -8.717856407165527344e+00 1.449315667152404785e+00 1.083444595336914062e+00 7.598280310630798340e-01 -1.386171817779541016e+00
2.620000000000000000e+02 3.972248458862304688e+01 -8.123835563659667969e+00 6.857102513313293457e-01 2.793599963188171387e-01 2.895210683345794678e-01 -5.068235993385314941e-01
2.630000000000000000e+02 3.954121398925781250e+01 -8.097725868225097656e+00 9.239361286163330078e-01 3.865925967693328857e-01 3.931586146354675293e-01 -5.700958371162414551e-01
2.640000000000000000e+02 3.878230285644531250e+01 -8.383714675903320312e+00 2.185509920120239258e+00 1.446506500244140625e+00 1.089604973793029785e+00 -2.018596649169921875e+00
2.650000000000000000e+02 3.885426330566406250e+01 -8.642971038818359375e+00 2.051718235015869141e+00 1.730497002601623535e+00 1.134664535522460938e+00 -2.157950162887573242e+00
2.660000000000000000e+02 3.866674423217773438e+01 -8.593642234802246094e+00 2.289785146713256836e+00 1.992768883705139160e+00 1.284766197204589844e+00 -2.453933238983154297e+00
2.670000000000000000e+02 3.864837265014648438e+01 -7.871478080749511719e+00 1.952859759330749512e+00 5.952830314636230469e-01 7.644428610801696777e-01 -1.287510037422180176e+00
2.680000000000000000e+02 3.798505783081054688e+01 -8.188520431518554688e+00 3.417798995971679688e+00 3.651717901229858398e+00 2.120855093002319336e+00 -3.765949487686157227e+00
2.690000000000000000e+02 3.922385406494140625e+01 -7.887670040130615234e+00 8.994691967964172363e-01 2.615083158016204834e-01 3.482932448387145996e-01 -5.454951524734497070e-01
2.700000000000000000e+02 3.941348648071289062e+01 -7.129564285278320312e+00 -3.476527631282806396e-01 -1.149629652500152588e-01 -1.387847214937210083e-01 7.033880800008773804e-02
2.710000000000000000e+02 3.966294097900390625e+01 -6.438262939453125000e+00 1.228702306747436523e+00 1.358445435762405396e-01 4.093640446662902832e-01 4.986695349216461182e-01
2.720000000000000000e+02 3.920666122436523438e+01 -7.128199100494384766e+00 -3.231638371944427490e-01 5.930549278855323792e-02 -7.915750145912170410e-02 4.615780711174011230e-02
2.730000000000000000e+02 3.884051132202148438e+01 -6.916877746582031250e+00 7.859635949134826660e-01 -4.281653091311454773e-02 2.229441106319427490e-01 1.930339485406875610e-01
2.740000000000000000e+02 3.975689315795898438e+01 -5.996255397796630859e+00 1.755286455154418945e+00 5.640044212341308594e-01 6.957872509956359863e-01 1.150550723075866699e+00
2.750000000000000000e+02 3.857669067382812500e+01 -5.791535377502441406e+00 3.904894590377807617e+00 2.059819936752319336e+00 1.789414286613464355e+00 3.460565805435180664e+00
2.760000000000000000e+02 3.867642211914062500e+01 -6.085570335388183594e+00 3.919800519943237305e+00 9.043573737144470215e-01 1.447247385978698730e+00 2.428068876266479492e+00
2.770000000000000000e+02 3.836067199707031250e+01 -5.972617149353027344e+00 4.503074645996093750e+00 2.056093692779541016e+00 1.967750549316406250e+00 3.554529905319213867e+00
2.780000000000000000e+02 3.852376937866210938e+01 -6.009487152099609375e+00 4.354721069335937500e+00 1.617476582527160645e+00 1.791659355163574219e+00 3.169104814529418945e+00
2.790000000000000000e+02 3.867566680908203125e+01 -6.889372825622558594e+00 1.093455314636230469e+00 4.943740367889404297e-02 3.428678214550018311e-01 2.722913026809692383e-01
2.800000000000000000e+02 3.863133239746093750e+01 -7.085331439971923828e+00 1.043155556544661522e-03 -5.042801797389984131e-02 -1.481545902788639069e-02 8.864561468362808228e-02
2.810000000000000000e+02 3.824794769287109375e+01 -6.997746944427490234e+00 8.584014773368835449e-01 -1.053208559751510620e-01 2.259241938591003418e-01 1.814250349998474121e-01
2.820000000000000000e+02 3.801364517211914062e+01 -5.712057113647460938e+00 4.699736595153808594e+00 4.384378910064697266e+00 2.725234746932983398e+00 5.458389282226562500e+00
2.830000000000000000e+02 3.802214050292968750e+01 -8.477697372436523438e+00 2.878641128540039062e+00 4.094887733459472656e+00 2.092058658599853516e+00 -3.832791566848754883e+00
2.840000000000000000e+02 3.760522079467773438e+01 -8.282151222229003906e+00 3.149694442749023438e+00 6.905094146728515625e+00 3.016436576843261719e+00 -4.806996822357177734e+00
2.850000000000000000e+02 3.744437408447265625e+01 -8.253230094909667969e+00 3.111859083175659180e+00 8.116409301757812500e+00 3.368480443954467773e+00 -5.231301307678222656e+00
2.860000000000000000e+02 3.725440597534179688e+01 -8.146136283874511719e+00 2.854341030120849609e+00 1.094332313537597656e+01 4.139299392700195312e+00 -5.195404052734375000e+00
2.870000000000000000e+02 3.722245788574218750e+01 -8.390207290649414062e+00 2.265080213546752930e+00 1.060972785949707031e+01 3.862442493438720703e+00 -4.607213020324707031e+00
2.880000000000000000e+02 3.634784317016601562e+01 -7.854813098907470703e+00 3.875048637390136719e+00 1.860163307189941406e+01 6.743004798889160156e+00 1.930537939071655273e+00
2.890000000000000000e+02 3.914359664916992188e+01 -7.688117504119873047e+00 4.932603538036346436e-01 1.484389454126358032e-01 1.925097852945327759e-01 -3.971369862556457520e-01
2.900000000000000000e+02 3.834244155883789062e+01 -7.562119483947753906e+00 1.877763867378234863e+00 4.530519247055053711e-01 6.992447376251220703e-01 -1.070922851562500000e+00
2.910000000000000000e+02 3.818712997436523438e+01 -7.268017292022705078e+00 3.878333568572998047e-01 1.092336773872375488e-01 1.491201072931289673e-01 -1.991260349750518799e-01
2.920000000000000000e+02 3.826183700561523438e+01 -6.587636947631835938e+00 4.048213958740234375e+00 2.921260595321655273e-01 1.302102088928222656e+00 1.329282402992248535e+00
2.930000000000000000e+02 3.784095382690429688e+01 -6.360753059387207031e+00 7.461052417755126953e+00 2.177224636077880859e+00 2.891483068466186523e+00 4.494257926940917969e+00
2.940000000000000000e+02 3.779665756225585938e+01 -6.081921577453613281e+00 6.910295963287353516e+00 4.472185134887695312e+00 3.414744377136230469e+00 6.117360591888427734e+00
2.950000000000000000e+02 3.695915222167968750e+01 -5.842275142669677734e+00 3.126712560653686523e+00 1.681551742553710938e+01 5.982668876647949219e+00 6.051552295684814453e+00
2.960000000000000000e+02 3.785713958740234375e+01 -7.944162845611572266e+00 4.007728576660156250e+00 3.363404512405395508e+00 2.211339950561523438e+00 -3.900566577911376953e+00
2.970000000000000000e+02 3.649109649658203125e+01 -7.903406620025634766e+00 2.865631341934204102e+00 2.004207611083984375e+01 6.872312068939208984e+00 9.438822269439697266e-01
2.980000000000000000e+02 3.905424880981445312e+01 -8.114772796630859375e+00 1.536027550697326660e+00 6.373236179351806641e-01 6.520053148269653320e-01 -1.154764652252197266e+00
2.990000000000000000e+02 3.928129196166992188e+01 -8.224252700805664062e+00 1.335175037384033203e+00 6.793045401573181152e-01 6.043438911437988281e-01 -1.026746869087219238e+00
3.000000000000000000e+02 3.863322067260742188e+01 -8.249781608581542969e+00 2.413061380386352539e+00 1.443650484085083008e+00 1.157013535499572754e+00 -2.109464406967163086e+00
3.010000000000000000e+02 3.849996948242187500e+01 -7.778780937194824219e+00 2.213114261627197266e+00 6.157367825508117676e-01 8.486552834510803223e-01 -1.266965031623840332e+00
3.020000000000000000e+02 3.905652999877929688e+01 -8.467664718627929688e+00 1.890253663063049316e+00 1.113005638122558594e+00 9.009777903556823730e-01 -1.712742567062377930e+00
3.030000000000000000e+02 3.851678085327148438e+01 -6.460571765899658203e+00 3.675620794296264648e+00 3.165501356124877930e-01 1.197651267051696777e+00 1.552501678466796875e+00
3.040000000000000000e+02 3.918723297119140625e+01 -6.861891269683837891e+00 6.652782559394836426e-01 -2.724350243806838989e-02 1.914104223251342773e-01 2.673990726470947266e-01
3.050000000000000000e+02 3.936947631835937500e+01 -6.614727973937988281e+00 1.301183342933654785e+00 5.587678402662277222e-02 4.071180224418640137e-01 4.350882172584533691e-01
3.060000000000000000e+02 3.929317474365234375e+01 -6.399867534637451172e+00 1.874738454818725586e+00 2.088484466075897217e-01 6.250760555267333984e-01 8.278819918632507324e-01
3.070000000000000000e+02 3.908436584472656250e+01 -6.258892536163330078e+00 2.611161947250366211e+00 4.328869283199310303e-01 9.132146835327148438e-01 1.370738506317138672e+00
3.080000000000000000e+02 3.938453674316406250e+01 -8.017852783203125000e+00 9.400377869606018066e-01 2.921995520591735840e-01 3.696711957454681396e-01 -6.507630944252014160e-01
3.090000000000000000e+02 3.828961944580078125e+01 -6.163704872131347656e+00 5.000299930572509766e+00 1.380744814872741699e+00 1.914313316345214844e+00 3.196159601211547852e+00
3.100000000000000000e+02 3.873883438110351562e+01 -7.629873275756835938e+00 1.004624843597412109e+00 2.631078064441680908e-01 3.803197741508483887e-01 -5.714820027351379395e-01
3.110000000000000000e+02 3.876894760131835938e+01 -6.455755233764648438e+00 3.007218360900878906e+00 3.905236423015594482e-01 1.019322633743286133e+00 1.281946778297424316e+00
3.120000000000000000e+02 3.938739013671875000e+01 -6.849348545074462891e+00 5.705726742744445801e-01 2.857146086171269417e-03 1.720289438962936401e-01 2.406396269798278809e-01
3.130000000000000000e+02 3.872156906127929688e+01 -6.689079761505126953e+00 2.127787590026855469e+00 4.108988866209983826e-02 6.506632566452026367e-01 5.680947899818420410e-01
3.140000000000000000e+02 3.834459686279296875e+01 -7.763252735137939453e+00 2.689676046371459961e+00 8.614181280136108398e-01 1.065328240394592285e+00 -1.661800861358642578e+00
3.150000000000000000e+02 3.839214706420898438e+01 -7.899454116821289062e+00 2.677922010421752930e+00 1.350795865058898926e+00 1.208615303039550781e+00 -2.068087816238403320e+00
3.160000000000000000e+02 3.883250045776367188e+01 -7.986793994903564453e+00 1.718973994255065918e+00 6.368139386177062988e-01 7.067363858222961426e-01 -1.201623082160949707e+00
3.170000000000000000e+02 3.890028762817382812e+01 -6.744270324707031250e+00 1.666422128677368164e+00 7.387382537126541138e-02 5.220887660980224609e-01 4.846652150154113770e-01
3.180000000000000000e+02 1.005079555511474609e+01 -1.529793071746826172e+01 1.057454824447631836e+00 5.084201097488403320e-01 4.697625041007995605e-01 4.300121366977691650e-01
3.190000000000000000e+02 1.010067176818847656e+01 -1.413979148864746094e+01 5.974046587944030762e-01 5.119876265525817871e-01 3.328176736831665039e-01 1.625629365444183350e-01
3.200000000000000000e+02 3.795140266418457031e+00 -1.921906113624572754e+00 -9.089568257331848145e-02 -1.608011499047279358e-02 -3.209273889660835266e-02 -8.243913203477859497e-02
3.210000000000000000e+02 5.910518765449523926e-01 -1.072793388366699219e+01 -2.776373177766799927e-03 -7.442762255668640137e-01 -2.241157740354537964e-01 -7.356031239032745361e-02
3.220000000000000000e+02 1.776131153106689453e+00 -1.078920936584472656e+01 -8.120045997202396393e-03 -5.401164293289184570e-01 -1.644709408283233643e-01 -1.976998746395111084e-01
3.230000000000000000e+02 6.813489913940429688e+00 -1.955690956115722656e+01 3.665237724781036377e-01 1.616863846778869629e+00 5.950163006782531738e-01 7.225794196128845215e-01
3.240000000000000000e+02 6.240864992141723633e-01 -1.781300163269042969e+01 6.454122718423604965e-03 -1.395776152610778809e+00 -4.167966246604919434e-01 -1.159950974397361279e-03
3.250000000000000000e+02 8.856842041015625000e+00 -1.681368637084960938e+01 1.490659356117248535e+00 8.693298101425170898e-01 7.079967856407165527e-01 8.519377708435058594e-01
3.260000000000000000e+02 1.006943130493164062e+01 -1.645188331604003906e+01 1.567376852035522461e+00 2.397541254758834839e-01 5.421392917633056641e-01 5.378353595733642578e-01
3.270000000000000000e+02 1.679568290710449219e+01 -1.751996994018554688e+01 4.682345688343048096e-01 4.720924422144889832e-02 1.546331495046615601e-01 -1.392175704240798950e-01
3.280000000000000000e+02 2.172244453430175781e+01 -1.756806373596191406e+01 1.439243555068969727e-01 -5.491235107183456421e-02 2.670359984040260315e-02 1.252443492412567139e-01
3.290000000000000000e+02 2.650713729858398438e+01 -1.695476722717285156e+01 -6.616470813751220703e-01 5.398499593138694763e-02 -1.822986304759979248e-01 4.945578873157501221e-01
3.300000000000000000e+02 3.041250038146972656e+01 -1.682967758178710938e+01 -2.499373674392700195e+00 -2.506892681121826172e-01 -8.250188827514648438e-01 6.944396495819091797e-01
3.310000000000000000e+02 2.946397209167480469e+01 -1.753878211975097656e+01 -2.680011749267578125e+00 -1.119942516088485718e-01 -8.376017808914184570e-01 2.279063016176223755e-01
3.320000000000000000e+02 3.157081222534179688e+01 -1.761895942687988281e+01 -3.971933364868164062e+00 -3.231442868709564209e-01 -1.288523316383361816e+00 6.262801289558410645e-01
3.330000000000000000e+02 3.287809371948242188e+01 -1.805675697326660156e+01 -3.150646209716796875e+00 2.857475578784942627e-01 -8.594695925712585449e-01 5.887748599052429199e-01
3.340000000000000000e+02 3.555803680419921875e+01 -2.205123329162597656e+01 2.912591993808746338e-01 6.676651000976562500e+00 2.090373039245605469e+00 -3.122119419276714325e-02
3.350000000000000000e+02 3.610094833374023438e+01 -2.091166877746582031e+01 5.226257443428039551e-01 5.774932861328125000e+00 1.889267683029174805e+00 -1.368930339813232422e-01
3.360000000000000000e+02 3.539068222045898438e+01 -2.333565139770507812e+01 2.370870113372802734e-01 6.871484279632568359e+00 2.132571458816528320e+00 4.768144190311431885e-01
3.370000000000000000e+02 4.398417663574218750e+01 -2.153444480895996094e+01 3.352542221546173096e-01 1.652016878128051758e+00 5.961813330650329590e-01 -7.058331370353698730e-01
3.380000000000000000e+02 5.162538146972656250e+01 -2.755565452575683594e+01 9.292750060558319092e-02 1.519684493541717529e-01 7.346878945827484131e-02 -1.411029249429702759e-01
3.390000000000000000e+02 5.549596786499023438e+01 -3.169049644470214844e+01 -8.568658679723739624e-02 4.791216924786567688e-02 -1.133232470601797104e-02 -2.002376131713390350e-02
3.400000000000000000e+02 5.630121231079101562e+01 -3.316920089721679688e+01 -9.212631732225418091e-02 8.010839670896530151e-02 -3.605375764891505241e-03 -3.072277083992958069e-02
3.410000000000000000e+02 3.469103240966796875e+01 -2.599368095397949219e+01 9.649179577827453613e-01 5.535759449005126953e+00 1.950203299522399902e+00 1.908947348594665527e+00
3.420000000000000000e+02 3.214760971069335938e+01 -2.940581321716308594e+01 9.550384283065795898e-01 1.599225640296936035e+00 7.662792205810546875e-01 1.159502983093261719e+00
3.430000000000000000e+02 3.103933715820312500e+01 -3.022892761230468750e+01 6.466940045356750488e-01 8.557506203651428223e-01 4.507333934307098389e-01 7.296742796897888184e-01
3.440000000000000000e+02 2.750404930114746094e+01 -3.493241500854492188e+01 -1.536557823419570923e-01 4.445455074310302734e-01 8.726692199707031250e-02 3.061089813709259033e-01
3.450000000000000000e+02 2.979447174072265625e+01 -3.090792655944824219e+01 1.609723716974258423e-01 3.353646993637084961e-01 1.489011198282241821e-01 3.596568703651428223e-01
3.460000000000000000e+02 2.418444252014160156e+01 -3.162854766845703125e+01 -5.453926920890808105e-01 8.920045569539070129e-03 -1.609417796134948730e-01 -3.720232844352722168e-02
3.470000000000000000e+02 2.383851051330566406e+01 -3.875457763671875000e+01 -1.097573935985565186e-01 1.695286333560943604e-01 1.793137192726135254e-02 6.048709526658058167e-02
3.480000000000000000e+02 2.379612731933593750e+01 -3.427658081054687500e+01 -2.668747305870056152e-01 5.798890069127082825e-02 -6.266575306653976440e-02 2.263225428760051727e-02
3.490000000000000000e+02 3.045739364624023438e+01 -3.628956222534179688e+01 -3.272651135921478271e-01 1.184529662132263184e+00 2.571793496608734131e-01 4.230518341064453125e-01
3.500000000000000000e+02 3.803385162353515625e+01 -3.776639556884765625e+01 -6.484014987945556641e-01 2.106444120407104492e+00 4.374127686023712158e-01 -9.295078925788402557e-03
3.510000000000000000e+02 4.257798004150390625e+01 -4.095652770996093750e+01 -5.430232286453247070e-01 1.802617549896240234e+00 3.778782784938812256e-01 -8.902505785226821899e-02
3.520000000000000000e+02 4.753767395019531250e+01 -4.109589004516601562e+01 -2.792159020900726318e-01 1.249563097953796387e+00 2.911041676998138428e-01 -8.102464675903320312e-02
3.530000000000000000e+02 6.299531555175781250e+01 -4.080099487304687500e+01 6.288189440965652466e-02 1.335412636399269104e-02 2.287080697715282440e-02 9.619479067623615265e-03
3.540000000000000000e+02 7.198772430419921875e+01 -4.106537246704101562e+01 1.194432750344276428e-02 -1.109593547880649567e-02 2.545176830608397722e-04 3.712744452059268951e-03
3.550000000000000000e+02 7.768162536621093750e+01 -3.692733383178710938e+01 1.069837715476751328e-03 -1.046275906264781952e-02 -2.817876404151320457e-03 4.004153423011302948e-03
3.560000000000000000e+02 7.933104705810546875e+01 -3.333071136474609375e+01 3.656728949863463640e-04 -4.864840768277645111e-03 -1.349750324152410030e-03 1.048584701493382454e-03
3.570000000000000000e+02 7.801343536376953125e+01 -3.022403144836425781e+01 -1.026653684675693512e-03 -1.434527570381760597e-03 -7.383543998003005981e-04 1.691608107648789883e-03
3.580000000000000000e+02 7.939424896240234375e+01 -2.778728675842285156e+01 3.747048613149672747e-04 7.418511668220162392e-04 3.349668113514780998e-04 6.682883395114913583e-05
3.590000000000000000e+02 7.833535003662109375e+01 -2.339498710632324219e+01 4.979649675078690052e-04 3.103464841842651367e-04 2.424934355076402426e-04 -2.938218531198799610e-04
3.600000000000000000e+02 6.855384826660156250e+01 -2.517360496520996094e+01 -1.273283123737201095e-04 1.268228865228593349e-03 3.422701556701213121e-04 4.557693901006132364e-04
3.610000000000000000e+02 6.954479217529296875e+01 -2.560973930358886719e+01 6.069523806218057871e-05 1.597205846337601542e-04 6.612474680878221989e-05 -4.301582812331616879e-04
3.620000000000000000e+02 6.809767150878906250e+01 -2.656661987304687500e+01 -4.351129173301160336e-04 9.080086601898074150e-04 1.418687170371413231e-04 -2.598525607027113438e-04
3.630000000000000000e+02 6.900303649902343750e+01 -3.227288818359375000e+01 -1.788388937711715698e-02 6.447474006563425064e-03 -3.430924611166119576e-03 8.135387673974037170e-03
3.640000000000000000e+02 7.186555480957031250e+01 -3.845584869384765625e+01 9.533972479403018951e-03 -9.861110709607601166e-03 -9.814171062316745520e-05 1.115304045379161835e-02
3.650000000000000000e+02 6.772503662109375000e+01 -3.016219711303710938e+01 -1.905694976449012756e-02 2.337058773264288902e-03 -5.015967413783073425e-03 -1.666685682721436024e-03
3.660000000000000000e+02 1.881347465515136719e+01 -3.205545043945312500e+01 -5.244695544242858887e-01 -1.650557853281497955e-02 -1.622925400733947754e-01 -6.695346441119909286e-03
3.670000000000000000e+02 1.740806579589843750e+01 -3.212398910522460938e+01 -5.489864945411682129e-01 -2.936189807951450348e-02 -1.735045313835144043e-01 2.957014739513397217e-02
3.680000000000000000e+02 1.551211452484130859e+01 -3.801805877685546875e+01 -9.428761899471282959e-02 -1.798382550477981567e-01 -8.223775774240493774e-02 4.360668733716011047e-02
3.690000000000000000e+02 1.812628936767578125e+01 -4.101950454711914062e+01 -3.442113474011421204e-02 -1.390444189310073853e-01 -5.203966423869132996e-02 1.033862214535474777e-02
3.700000000000000000e+02 1.596691131591796875e+01 -3.202805709838867188e+01 -5.557096600532531738e-01 -4.293575882911682129e-02 -1.795936226844787598e-01 7.563468813896179199e-02
3.710000000000000000e+02 7.268909454345703125e+00 -3.015852165222167969e+01 -5.281161665916442871e-01 -3.057210147380828857e-01 -2.501511573791503906e-01 3.312546908855438232e-01
3.720000000000000000e+02 8.110605239868164062e+00 -4.124560165405273438e+01 6.206044554710388184e-02 -3.713773190975189209e-02 7.476814091205596924e-03 1.049975282512605190e-03
3.730000000000000000e+02 9.683348655700683594e+00 -3.642992782592773438e+01 -6.675627827644348145e-02 -1.960714161396026611e-01 -7.884830981492996216e-02 7.191918790340423584e-02
3.740000000000000000e+02 9.066284179687500000e+00 -3.014858627319335938e+01 -7.588717341423034668e-01 -5.030533075332641602e-01 -3.785775005817413330e-01 4.787785112857818604e-01
3.750000000000000000e+02 8.066844940185546875e+00 -2.910762405395507812e+01 -5.516673922538757324e-01 -4.718730449676513672e-01 -3.070621490478515625e-01 5.286760330200195312e-01
3.760000000000000000e+02 6.571012139320373535e-01 -2.906327819824218750e+01 -2.304148487746715546e-02 6.462235450744628906e-01 1.869546175003051758e-01 7.106249779462814331e-02
3.770000000000000000e+02 6.050413131713867188e+00 -2.636279487609863281e+01 -2.320566922426223755e-01 -2.439446747303009033e-01 -1.428004056215286255e-01 3.568148910999298096e-01
3.780000000000000000e+02 5.983237743377685547e+00 -2.363164329528808594e+01 4.398395121097564697e-02 7.874498367309570312e-01 2.494301348924636841e-01 2.222195267677307129e-01
3.790000000000000000e+02 6.450647711753845215e-01 -2.481498718261718750e+01 -1.038401853293180466e-02 -1.857064068317413330e-01 -5.882712826132774353e-02 1.656817793846130371e-01
3.800000000000000000e+02 6.378939151763916016e+00 -2.088761329650878906e+01 2.813888490200042725e-01 1.554440617561340332e+00 5.507488846778869629e-01 5.329270958900451660e-01
3.810000000000000000e+02 7.132663726806640625e+00 -2.820515251159667969e+01 -5.152292251586914062e-01 -5.319869518280029297e-01 -3.141648471355438232e-01 4.737612307071685791e-01
3.820000000000000000e+02 4.155587005615234375e+01 -1.421318626403808594e+01 2.227794826030731201e-01 4.617229938507080078e+00 1.452002882957458496e+00 -8.987766504287719727e-01
3.830000000000000000e+02 4.221923828125000000e+01 -1.697587203979492188e+01 6.118862628936767578e-01 4.886825561523437500e+00 1.649613618850708008e+00 -1.361984491348266602e+00
3.840000000000000000e+02 4.479806518554687500e+01 -2.053005599975585938e+01 4.066231250762939453e-01 8.643493056297302246e-01 3.812917470932006836e-01 -5.605285763740539551e-01
3.850000000000000000e+02 4.281772994995117188e+01 -1.833173942565917969e+01 6.628596186637878418e-01 3.266330957412719727e+00 1.178757190704345703e+00 -1.264592647552490234e+00
3.860000000000000000e+02 4.004914855957031250e+01 -9.152366638183593750e+00 9.998739361763000488e-01 1.097472548484802246e+00 6.292039155960083008e-01 -1.075610518455505371e+00
3.870000000000000000e+02 4.128081130981445312e+01 -9.496588706970214844e+00 1.744175255298614502e-01 3.911761343479156494e-01 1.696781069040298462e-01 -2.579106688499450684e-01
3.880000000000000000e+02 3.722084808349609375e+01 -8.695087432861328125e+00 1.546999692916870117e+00 9.810542106628417969e+00 3.407262563705444336e+00 -4.011272430419921875e+00
3.890000000000000000e+02 3.565849685668945312e+01 -8.597539901733398438e+00 2.931782722473144531e+00 1.189455223083496094e+01 4.447900772094726562e+00 2.258734941482543945e+00
3.900000000000000000e+02 2.877905273437500000e+01 -1.947920083999633789e+00 -5.775448322296142578e+00 -3.608072698116302490e-01 -1.840876579284667969e+00 -1.155551910400390625e+00
3.910000000000000000e+02 2.644638442993164062e+01 -2.941933631896972656e+00 -2.057815313339233398e+00 -3.261793255805969238e-01 -7.151983976364135742e-01 -9.923871755599975586e-01
3.920000000000000000e+02 2.384373092651367188e+01 -3.094300985336303711e+00 -9.275180101394653320e-01 -1.989905722439289093e-03 -2.788523733615875244e-01 -3.948841989040374756e-01
3.930000000000000000e+02 2.450427055358886719e+01 -2.003933429718017578e+00 -1.122170805931091309e+00 7.423581182956695557e-02 -3.143805265426635742e-01 -1.719719320535659790e-01
3.940000000000000000e+02 2.127271842956542969e+01 -3.365337610244750977e+00 -5.386338829994201660e-01 -6.800339370965957642e-02 -1.819911748170852661e-01 -1.748066097497940063e-01
3.950000000000000000e+02 2.109778022766113281e+01 -2.628364324569702148e+00 -6.078827977180480957e-01 -5.320473760366439819e-02 -1.983262598514556885e-01 -1.273558139801025391e-01
3.960000000000000000e+02 1.946084976196289062e+01 -2.778800725936889648e+00 -5.336264967918395996e-01 -7.111369073390960693e-02 -1.814220547676086426e-01 -8.230152726173400879e-02
3.970000000000000000e+02 1.469257926940917969e+01 -2.562440633773803711e+00 -4.463313221931457520e-01 -9.658550843596458435e-03 -1.367969661951065063e-01 8.153835078701376915e-04
3.980000000000000000e+02 1.168478679656982422e+01 -2.169006586074829102e+00 -3.790132105350494385e-01 2.601625584065914154e-02 -1.058990806341171265e-01 -2.538033388555049896e-02
3.990000000000000000e+02 1.171216297149658203e+01 -2.927221059799194336e+00 -3.434192240238189697e-01 4.211965948343276978e-02 -9.038987010717391968e-02 -4.404765367507934570e-02
4.000000000000000000e+02 1.095973873138427734e+01 -2.063871383666992188e+00 -3.627987802028656006e-01 3.570041060447692871e-02 -9.812951087951660156e-02 -3.292729705572128296e-02
4.010000000000000000e+02 3.499962615966796875e+01 -7.304482936859130859e+00 8.941511154174804688e+00 7.937147617340087891e+00 5.063597679138183594e+00 2.287614107131958008e+00
4.020000000000000000e+02 3.390534210205078125e+01 -6.865498542785644531e+00 6.900453567504882812e+00 4.197237014770507812e+00 3.329307317733764648e+00 1.068721771240234375e+00
4.030000000000000000e+02 3.524388885498046875e+01 -6.052510738372802734e+00 7.488861083984375000e+00 9.230524063110351562e+00 5.015815734863281250e+00 -1.126537322998046875e+00
4.040000000000000000e+02 3.464216613769531250e+01 -6.550230503082275391e+00 8.065590858459472656e+00 6.514638423919677734e+00 4.374068737030029297e+00 2.560202479362487793e-01
4.050000000000000000e+02 3.570896530151367188e+01 -5.479650974273681641e+00 3.730223417282104492e+00 1.197424507141113281e+01 4.711340427398681641e+00 -6.664680838584899902e-01
4.060000000000000000e+02 3.721419906616210938e+01 -5.195091724395751953e+00 1.712125301361083984e+00 1.121862983703613281e+01 3.879226446151733398e+00 5.809310913085937500e+00
4.070000000000000000e+02 3.548581314086914062e+01 7.636890411376953125e-01 -1.976091623306274414e+00 2.488715887069702148e+00 1.537872850894927979e-01 3.979746103286743164e-01
4.080000000000000000e+02 4.387834548950195312e+01 1.488470435142517090e-01 -4.925067901611328125e+00 -1.161891937255859375e+00 -1.826087951660156250e+00 -2.100794315338134766e+00
4.090000000000000000e+02 3.822554779052734375e+01 4.136159896850585938e+00 3.005878925323486328e+00 1.029296207427978516e+01 3.989652395248413086e+00 5.311943054199218750e+00
4.100000000000000000e+02 3.746072006225585938e+01 -5.313806056976318359e+00 2.362421989440917969e+00 9.272276878356933594e+00 3.490409612655639648e+00 5.811370372772216797e+00
4.110000000000000000e+02 4.057313156127929688e+01 -5.672261238098144531e+00 9.698532223701477051e-01 5.350231528282165527e-01 4.514628946781158447e-01 7.177858352661132812e-01
4.120000000000000000e+02 4.445957565307617188e+01 1.588035464286804199e+00 -5.746242523193359375e+00 -5.713431239128112793e-01 -1.895275712013244629e+00 -1.001292467117309570e+00
4.130000000000000000e+02 3.954013824462890625e+01 6.669651031494140625e+00 2.394725322723388672e+00 1.230539512634277344e+01 4.410036087036132812e+00 4.976745128631591797e+00
4.140000000000000000e+02 4.008236694335937500e+01 8.014883041381835938e+00 1.739668965339660645e+00 1.190130043029785156e+01 4.092290878295898438e+00 4.155168056488037109e+00
4.150000000000000000e+02 3.985070037841796875e+01 4.790479183197021484e+00 1.784560918807983398e+00 9.078032493591308594e+00 3.258778095245361328e+00 3.609581232070922852e+00
4.160000000000000000e+02 4.142226791381835938e+01 -5.606098175048828125e+00 5.033587813377380371e-01 3.279675245285034180e-01 2.493978887796401978e-01 4.181573688983917236e-01
4.170000000000000000e+02 4.212301254272460938e+01 -5.459998607635498047e+00 9.448069334030151367e-02 -9.873175993561744690e-03 2.538225427269935608e-02 1.294476389884948730e-01
4.180000000000000000e+02 4.238067626953125000e+01 1.222356796264648438e+01 9.537954926490783691e-01 7.323216438293457031e+00 2.483103513717651367e+00 2.089864730834960938e+00
4.190000000000000000e+02 4.166030120849609375e+01 1.802709388732910156e+01 1.425915062427520752e-01 6.741886615753173828e+00 2.065343379974365234e+00 3.619482219219207764e-01
4.200000000000000000e+02 4.171739959716796875e+01 2.664259910583496094e+01 1.331719011068344116e-01 5.827527046203613281e+00 1.788209795951843262e+00 -2.558099329471588135e-01
4.210000000000000000e+02 4.159643173217773438e+01 2.810256195068359375e+01 5.072090625762939453e-01 6.226168155670166016e+00 2.020013093948364258e+00 -7.564023733139038086e-01
4.220000000000000000e+02 4.706285476684570312e+01 1.382568359375000000e+00 -9.944914817810058594e+00 -7.967565059661865234e-01 -3.222501516342163086e+00 -2.931857109069824219e-01
4.230000000000000000e+02 4.574906539916992188e+01 1.334008455276489258e+00 -9.252589225769042969e+00 -1.848837733268737793e+00 -3.330428123474121094e+00 -2.110208988189697266e+00
4.240000000000000000e+02 4.851882934570312500e+01 1.199988961219787598e+00 -6.672409057617187500e+00 -3.704707622528076172e-01 -2.112864017486572266e+00 7.696338891983032227e-01
4.250000000000000000e+02 5.086803054809570312e+01 2.270824909210205078e+00 -3.642550230026245117e+00 1.974816769361495972e-01 -1.033520579338073730e+00 -5.198090672492980957e-01
4.260000000000000000e+02 5.123950958251953125e+01 1.826593130826950073e-01 -3.317262649536132812e+00 -1.046835854649543762e-01 -1.026583790779113770e+00 7.486324906349182129e-01
4.270000000000000000e+02 5.516653823852539062e+01 -8.157335519790649414e-01 -2.713579654693603516e+00 -2.373145334422588348e-02 -8.211933374404907227e-01 2.607951462268829346e-01
4.280000000000000000e+02 6.049880599975585938e+01 -2.167585134506225586e+00 -1.310837984085083008e+00 -1.131803318858146667e-01 -4.272055029869079590e-01 3.590005338191986084e-01
4.290000000000000000e+02 6.419651794433593750e+01 -4.317282676696777344e+00 -2.246924191713333130e-01 -2.300475537776947021e-02 -7.430914789438247681e-02 8.949492126703262329e-02
4.300000000000000000e+02 6.513528442382812500e+01 -5.497170448303222656e+00 -8.764121681451797485e-02 2.434145472943782806e-02 -1.898992806673049927e-02 3.029897063970565796e-02
4.310000000000000000e+02 7.090074157714843750e+01 -1.201501560211181641e+01 1.808776520192623138e-02 -6.930176634341478348e-03 3.347276477143168449e-03 -7.158467546105384827e-03
4.320000000000000000e+02 7.164954376220703125e+01 -1.192056846618652344e+01 1.845364458858966827e-02 -5.528373178094625473e-03 3.877581562846899033e-03 -4.188854247331619263e-03
4.330000000000000000e+02 7.466902160644531250e+01 -1.161735153198242188e+01 1.360873971134424210e-02 -1.589897554367780685e-03 3.605652600526809692e-03 8.391601964831352234e-03
4.340000000000000000e+02 7.683924865722656250e+01 -1.143854618072509766e+01 8.191831409931182861e-03 1.614417880773544312e-03 2.941874787211418152e-03 1.124690938740968704e-02
4.350000000000000000e+02 7.726081848144531250e+01 -4.003588199615478516e+00 -1.924133673310279846e-02 -1.075639016926288605e-02 -8.999317884445190430e-03 -1.910595595836639404e-02
4.360000000000000000e+02 7.554632568359375000e+01 2.953243494033813477e+00 -7.515697926282882690e-02 -1.896510422229766846e-01 -7.944240421056747437e-02 -2.187412530183792114e-01
4.370000000000000000e+02 7.808379364013671875e+01 1.124738979339599609e+01 -1.506296684965491295e-03 -7.832713723182678223e-01 -2.354332953691482544e-01 -1.765143573284149170e-01
4.380000000000000000e+02 7.808555603027343750e+01 1.817243385314941406e+01 1.260378211736679077e-02 -1.321753978729248047e+00 -3.927450478076934814e-01 -1.410914510488510132e-01
4.390000000000000000e+02 7.782284545898437500e+01 2.796228408813476562e+01 1.045633852481842041e-02 -1.716192722320556641e+00 -5.117208957672119141e-01 -5.455066263675689697e-02
4.400000000000000000e+02 7.760849761962890625e+01 3.742152023315429688e+01 2.450387366116046906e-02 -1.763294816017150879e+00 -5.216372609138488770e-01 3.630109503865242004e-02
4.410000000000000000e+02 7.943566131591796875e+01 3.740949249267578125e+01 2.646436914801597595e-02 -1.993852734565734863e+00 -5.902165174484252930e-01 2.160165086388587952e-02
4.420000000000000000e+02 7.057817077636718750e+01 3.803459930419921875e+01 2.156238071620464325e-02 -6.626834273338317871e-01 -1.923363208770751953e-01 -1.229323260486125946e-02
4.430000000000000000e+02 7.253929901123046875e+01 3.078421783447265625e+01 6.397172063589096069e-02 -9.541098475456237793e-01 -2.670414447784423828e-01 -8.273194730281829834e-02
4.440000000000000000e+02 7.211125183105468750e+01 2.186878204345703125e+01 1.437009871006011963e-01 -8.057705163955688477e-01 -1.986208707094192505e-01 -3.052096068859100342e-01
4.450000000000000000e+02 7.287577819824218750e+01 1.666234970092773438e+01 9.023352712392807007e-02 -7.417343258857727051e-01 -1.954502463340759277e-01 -4.299805462360382080e-01
4.460000000000000000e+02 7.290959167480468750e+01 1.008903789520263672e+01 -2.884154766798019409e-02 -4.519676566123962402e-01 -1.442427635192871094e-01 -5.049115419387817383e-01
4.470000000000000000e+02 6.889015960693359375e+01 4.009756565093994141e+00 -3.433412909507751465e-01 -4.329015314579010010e-02 -1.159894317388534546e-01 -5.032681226730346680e-01
4.480000000000000000e+02 6.640859222412109375e+01 -4.922696590423583984e+00 -1.804401129484176636e-01 2.584427595138549805e-02 -4.637875035405158997e-02 3.856414556503295898e-02
4.490000000000000000e+02 6.627013397216796875e+01 -3.371841669082641602e+00 -3.477725386619567871e-01 5.748106166720390320e-02 -8.708744496107101440e-02 1.017828565090894699e-02
4.500000000000000000e+02 7.944451141357421875e+01 -2.714705467224121094e+00 -7.184256101027131081e-04 3.190389648079872131e-02 9.355641901493072510e-03 -6.860564462840557098e-03
4.510000000000000000e+02 5.252073287963867188e+01 -2.781185805797576904e-01 -2.747287750244140625e+00 6.113401055335998535e-02 -8.058460950851440430e-01 4.955411553382873535e-01
4.520000000000000000e+02 5.383381652832031250e+01 -5.803889036178588867e-01 -2.731061220169067383e+00 -1.566566713154315948e-02 -8.240180611610412598e-01 2.848824262619018555e-01
4.530000000000000000e+02 6.570819091796875000e+01 -6.879475116729736328e+00 -9.079859592020511627e-03 4.766374081373214722e-02 1.157516427338123322e-02 -1.579345762729644775e-02
4.540000000000000000e+02 6.617980194091796875e+01 -8.198423385620117188e+00 1.141406595706939697e-02 4.797374829649925232e-02 1.781634427607059479e-02 -1.962555199861526489e-02
4.550000000000000000e+02 6.717091369628906250e+01 -1.063694667816162109e+01 1.412067841738462448e-02 2.893904410302639008e-02 1.291791629046201706e-02 -1.526214834302663803e-02
4.560000000000000000e+02 7.752818298339843750e+01 -1.135812377929687500e+01 5.515701603144407272e-03 2.530891913920640945e-03 2.413978101685643196e-03 1.049082167446613312e-02
4.570000000000000000e+02 7.963700866699218750e+01 -1.111564826965332031e+01 1.109332151827402413e-04 6.928588263690471649e-03 2.111856592819094658e-03 2.255272818729281425e-03
4.580000000000000000e+02 5.772145843505859375e+01 4.071761703491210938e+01 -1.434887200593948364e-01 1.469782233238220215e+00 3.978880345821380615e-01 5.680140107870101929e-02
4.590000000000000000e+02 6.260018157958984375e+01 4.101787185668945312e+01 -2.650310657918453217e-02 6.299509406089782715e-01 1.810343414545059204e-01 1.315926667302846909e-02
4.600000000000000000e+02 6.273911666870117188e+01 2.854538726806640625e+01 3.356400728225708008e-01 3.660549521446228027e-01 2.105085104703903198e-01 5.863294005393981934e-03
4.610000000000000000e+02 6.659145355224609375e+01 1.887242317199707031e+01 3.457790613174438477e-01 -2.658259570598602295e-01 2.398592606186866760e-02 -4.524738490581512451e-01
4.620000000000000000e+02 6.489644622802734375e+01 1.459677505493164062e+01 2.901501655578613281e-01 -1.605606079101562500e-01 3.887686878442764282e-02 -6.550063490867614746e-01
4.630000000000000000e+02 6.058890533447265625e+01 1.225948214530944824e+00 -1.252285361289978027e+00 1.004319712519645691e-01 -3.455560207366943359e-01 -3.780900835990905762e-01
4.640000000000000000e+02 6.186400985717773438e+01 8.882072567939758301e-01 -1.106228828430175781e+00 1.120599582791328430e-01 -2.982506752014160156e-01 -3.628953397274017334e-01
4.650000000000000000e+02 5.885577392578125000e+01 3.720793914794921875e+01 -3.680148348212242126e-02 1.247774958610534668e+00 3.632920682430267334e-01 1.315356940031051636e-01
4.660000000000000000e+02 5.919771957397460938e+01 2.999386787414550781e+01 3.333151638507843018e-01 9.565959572792053223e-01 3.869733512401580811e-01 1.472849994897842407e-01
4.670000000000000000e+02 5.572740173339843750e+01 2.272839736938476562e+01 7.776295542716979980e-01 1.240702390670776367e+00 6.054995656013488770e-01 1.318622678518295288e-01
4.680000000000000000e+02 5.395584106445312500e+01 1.754768180847167969e+01 1.057275056838989258e+00 1.175837635993957520e+00 6.699337959289550781e-01 1.037219986319541931e-01
4.690000000000000000e+02 5.965633773803710938e+01 6.080531597137451172e+00 -6.143196821212768555e-01 8.504202961921691895e-02 -1.587833017110824585e-01 -8.703063130378723145e-01
4.700000000000000000e+02 5.575790786743164062e+01 3.333203494548797607e-01 -2.305576801300048828e+00 -1.410505454987287521e-02 -6.959045529365539551e-01 2.495523728430271149e-02
4.710000000000000000e+02 5.763077926635742188e+01 1.033172845840454102e+00 -1.811431765556335449e+00 2.246829308569431305e-02 -5.366890430450439453e-01 -2.386546432971954346e-01
4.720000000000000000e+02 4.783193588256835938e+01 4.114154052734375000e+01 -5.466139912605285645e-01 2.763895988464355469e+00 6.651846170425415039e-01 4.667167738080024719e-02
4.730000000000000000e+02 4.826003265380859375e+01 3.845906829833984375e+01 -4.452760517597198486e-01 2.731875896453857422e+00 6.859799623489379883e-01 1.473537236452102661e-01
4.740000000000000000e+02 5.178879928588867188e+01 3.107390022277832031e+01 2.883270382881164551e-01 2.268775224685668945e+00 7.671306729316711426e-01 3.505246937274932861e-01
4.750000000000000000e+02 5.083863830566406250e+01 2.505360984802246094e+01 6.927949190139770508e-01 2.494501829147338867e+00 9.561890363693237305e-01 3.570454716682434082e-01
4.760000000000000000e+02 4.673157882690429688e+01 1.601267814636230469e+01 1.148845672607421875e+00 3.626686096191406250e+00 1.432659506797790527e+00 1.126067280769348145e+00
4.770000000000000000e+02 3.880348205566406250e+01 4.097085571289062500e+01 -2.699804008007049561e-01 1.602810978889465332e+00 3.998491764068603516e-01 -1.312556117773056030e-01
4.780000000000000000e+02 3.898599624633789062e+01 3.326211166381835938e+01 8.383870124816894531e-01 1.819192051887512207e+00 7.972737550735473633e-01 -1.234636902809143066e+00
4.790000000000000000e+02 4.064277267456054688e+01 3.090233802795410156e+01 8.092265129089355469e-01 4.390455245971679688e+00 1.559904575347900391e+00 -1.613635420799255371e+00
4.800000000000000000e+02 4.123307800292968750e+01 2.953292274475097656e+01 6.338378190994262695e-01 5.460919857025146484e+00 1.828427314758300781e+00 -1.360819816589355469e+00
4.810000000000000000e+02 4.243637847900390625e+01 3.016190719604492188e+01 6.007905602455139160e-01 4.517044544219970703e+00 1.535350561141967773e+00 -5.383621454238891602e-01
4.820000000000000000e+02 3.858885192871093750e+01 3.782288742065429688e+01 -2.193721532821655273e-01 1.720368862152099609e+00 4.502990245819091797e-01 -3.953153789043426514e-01
4.830000000000000000e+02 3.524056625366210938e+01 3.617267608642578125e+01 4.744310863316059113e-04 2.143230140209197998e-01 6.443922966718673706e-02 -1.485191434621810913e-01
4.840000000000000000e+02 4.873443126678466797e+00 3.922953033447265625e+01 -3.456007689237594604e-04 -5.426110874395817518e-05 -1.199585603899322450e-04 -4.302216111682355404e-04
4.850000000000000000e+02 1.983980417251586914e+00 4.169497680664062500e+01 9.140442125499248505e-05 5.812898161821067333e-04 2.018082595895975828e-04 3.212903902749530971e-05
4.860000000000000000e+02 1.027200984954833984e+01 3.979592895507812500e+01 3.123641363345086575e-04 3.054137341678142548e-04 1.853333669714629650e-04 -3.605242527555674314e-04
4.870000000000000000e+02 1.010585117340087891e+01 3.626194763183593750e+01 -1.679204870015382767e-04 3.008266139659099281e-05 -4.135134804528206587e-05 -4.462805227376520634e-04
4.880000000000000000e+02 6.659002780914306641e+00 3.076373291015625000e+01 1.459857958252541721e-05 -6.462517194449901581e-05 -1.500797861808678135e-05 -4.382696261018281803e-06
4.890000000000000000e+02 1.629849433898925781e+01 2.813659477233886719e+01 4.002001369372010231e-04 2.058344980468973517e-04 1.818103919504210353e-04 8.289507968584075570e-05
4.900000000000000000e+02 1.688880157470703125e+01 2.951383018493652344e+01 4.669158806791529059e-05 3.083311312366276979e-04 1.065068136085756123e-04 4.537739732768386602e-04
4.910000000000000000e+02 1.716894721984863281e+01 3.380156707763671875e+01 2.254476305097341537e-03 -1.778505684342235327e-04 6.229877471923828125e-04 7.853188435547053814e-05
4.920000000000000000e+02 2.028749275207519531e+01 3.398285293579101562e+01 1.711058896034955978e-03 1.461125328205525875e-03 9.516552090644836426e-04 1.871636835858225822e-03
4.930000000000000000e+02 2.137485694885253906e+01 3.485652160644531250e+01 3.458885708823800087e-03 1.345053431577980518e-03 1.441181753762066364e-03 1.107965246774256229e-03
4.940000000000000000e+02 2.256302642822265625e+01 3.729597473144531250e+01 -5.098336376249790192e-03 -7.976497290655970573e-04 -1.768795889802277088e-03 3.266405314207077026e-03
4.950000000000000000e+02 1.939785194396972656e+01 3.666267013549804688e+01 7.141354726627469063e-04 -3.883756289724260569e-04 9.772794146556407213e-05 -3.699387889355421066e-05
4.960000000000000000e+02 1.759728050231933594e+01 3.908851242065429688e+01 6.380019385687774047e-06 -1.361564733088016510e-03 -4.065554239787161350e-04 3.223612438887357712e-04
4.970000000000000000e+02 6.658499240875244141e-01 3.461576843261718750e+01 -5.011125467717647552e-04 3.424930910114198923e-04 -4.758582872455008328e-05 -5.851139576407149434e-06
4.980000000000000000e+02 1.896217703819274902e+00 3.041384124755859375e+01 -4.447618848644196987e-04 1.017916511045768857e-04 -1.028910701279528439e-04 -3.947524601244367659e-05
4.990000000000000000e+02 1.322710800170898438e+01 2.714411544799804688e+01 -5.279981414787471294e-04 2.493206238796119578e-06 -1.576514769112691283e-04 -5.385343683883547783e-06
5.000000000000000000e+02 1.523640823364257812e+01 2.250075149536132812e+01 2.882784174289554358e-04 -3.558080788934603333e-05 7.580927922390401363e-05 -9.143905117525719106e-06
5.010000000000000000e+02 1.547567176818847656e+01 2.534832000732421875e+01 2.568663912825286388e-04 2.954125920950900763e-05 8.592229278292506933e-05 -3.140405169688165188e-05
5.020000000000000000e+02 1.582391452789306641e+01 2.675319671630859375e+01 -1.576550857862457633e-04 7.833464769646525383e-05 -2.379613033554051071e-05 1.462429936509579420e-04
5.030000000000000000e+02 6.258003115653991699e-01 2.766514205932617188e+01 3.970966499764472246e-04 4.332372918725013733e-05 1.321261224802583456e-04 -3.069910962949506938e-05
5.040000000000000000e+02 1.888333320617675781e+00 2.631451988220214844e+01 3.590871347114443779e-04 2.800583388307131827e-05 1.161278923973441124e-04 -6.703369581373408437e-05
5.050000000000000000e+02 1.310738754272460938e+01 1.618261718750000000e+01 2.858931839000433683e-04 -3.181627835147082806e-05 7.622307020938023925e-05 1.028507758746854961e-04
5.060000000000000000e+02 1.674436187744140625e+01 1.282045173645019531e+01 -2.458507951814681292e-04 -2.883550041588023305e-05 -8.240588795160874724e-05 -8.707053348189219832e-05
5.070000000000000000e+02 1.557990550994873047e+01 1.686386871337890625e+01 2.792371960822492838e-04 -6.365786703099729493e-06 8.186142076738178730e-05 5.308363324729725718e-05
5.080000000000000000e+02 1.633451652526855469e+01 1.415715312957763672e+01 2.652999537531286478e-04 1.488663292548153549e-05 8.405598055105656385e-05 8.341859211213886738e-05
5.090000000000000000e+02 6.660652756690979004e-01 2.057410240173339844e+01 -1.808808447094634175e-04 -1.704393980617169291e-05 -5.937743480899371207e-05 2.367100478295469657e-06
5.100000000000000000e+02 1.901715040206909180e+00 1.627161407470703125e+01 -1.995113998418673873e-04 -8.536467248632106930e-06 -6.241436494747176766e-05 -1.741409687383566052e-05
5.110000000000000000e+02 7.513217926025390625e+00 7.678799152374267578e+00 2.285264599777292460e-05 2.566702278272714466e-05 1.455590063415002078e-05 -6.418961856979876757e-05
5.120000000000000000e+02 1.932108116149902344e+01 6.418436527252197266e+00 1.907496771309524775e-04 2.415877679595723748e-05 6.447253690566867590e-05 5.925917503191158175e-05
5.130000000000000000e+02 1.719075775146484375e+01 1.149880313873291016e+01 2.278169122291728854e-04 3.077677683904767036e-05 7.757810817565768957e-05 8.438093937002122402e-05
5.140000000000000000e+02 6.156848669052124023e-01 1.491154956817626953e+01 -1.884461526060476899e-04 -7.296637249964987859e-06 -5.872283873031847179e-05 -3.477743575786007568e-06
5.150000000000000000e+02 1.579877495765686035e+00 9.298908233642578125e+00 1.755494158715009689e-04 -6.362084150168811902e-06 5.075619992567226291e-05 -8.950500500759517308e-07
5.160000000000000000e+02 8.548039436340332031e+00 2.555128335952758789e+00 2.277268868056125939e-05 5.953919026069343090e-05 2.469356331857852638e-05 -5.097751198945843498e-08
5.170000000000000000e+02 9.843908309936523438e+00 1.824817895889282227e+00 -2.635463897604495287e-05 -5.890829197596758604e-05 -2.557887819421011955e-05 -1.191775845654774457e-05
5.180000000000000000e+02 1.431083774566650391e+01 1.184126377105712891e+00 -2.191562998632434756e-05 -7.776863640174269676e-05 -2.990528082591481507e-05 -2.054184187727514654e-05
5.190000000000000000e+02 1.776187324523925781e+01 1.850561380386352539e+00 -5.390998194343410432e-05 -5.612477252725511789e-05 -3.301042670500464737e-05 -7.146094139898195863e-05
5.200000000000000000e+02 1.711438751220703125e+01 9.872249364852905273e-01 -2.560829489084426314e-05 -5.498251630342565477e-05 -2.417724317638203502e-05 -5.748226249124854803e-05
5.210000000000000000e+02 2.024442481994628906e+01 1.097453355789184570e+00 -5.015186616219580173e-05 -3.338048372825141996e-06 -1.604697354196105152e-05 1.179558603325858712e-05
5.220000000000000000e+02 2.174517631530761719e+01 1.271849870681762695e+00 -1.972958898477372713e-06 -3.333611311973072588e-05 -1.059272108250297606e-05 1.469831840950064361e-05
5.230000000000000000e+02 1.436189889907836914e+00 3.830813407897949219e+00 -5.576259718509390950e-05 2.790370854199863970e-05 -8.357666956726461649e-06 -5.796947880298830569e-05
5.240000000000000000e+02 5.057900547981262207e-01 6.516772747039794922e+00 -1.602922129677608609e-04 -7.628611911059124395e-06 -5.037624941905960441e-05 -1.443941255274694413e-05
5.250000000000000000e+02 2.374274063110351562e+01 3.632009506225585938e+01 -9.626475512050092220e-04 1.284270547330379486e-03 9.648688865127041936e-05 1.619792426936328411e-03
5.260000000000000000e+02 2.954351043701171875e+01 3.737018966674804688e+01 -1.771001815795898438e-01 -1.486039441078901291e-02 -5.758817121386528015e-02 5.115591734647750854e-02
5.270000000000000000e+02 3.139427757263183594e+01 3.826126861572265625e+01 -3.991641849279403687e-02 4.319595918059349060e-02 9.838624391704797745e-04 3.833315521478652954e-02
5.280000000000000000e+02 3.363515090942382812e+01 3.665377807617187500e+01 -1.400099098682403564e-01 3.427959978580474854e-02 -3.171909227967262268e-02 -3.670632094144821167e-02
5.290000000000000000e+02 3.752510070800781250e+01 3.672436141967773438e+01 1.646387157961726189e-03 1.191145420074462891e+00 3.578375577926635742e-01 -4.644224047660827637e-01
5.300000000000000000e+02 4.173774719238281250e+01 2.230750083923339844e+01 2.595576085150241852e-02 5.570446968078613281e+00 1.678920745849609375e+00 6.477443128824234009e-02
5.310000000000000000e+02 4.147100448608398438e+01 1.518027496337890625e+01 3.042170107364654541e-01 7.909818649291992188e+00 2.464210748672485352e+00 1.020685076713562012e+00
5.320000000000000000e+02 3.611565399169921875e+01 -4.848364353179931641e+00 4.590936005115509033e-01 1.180690956115722656e+01 3.679800987243652344e+00 1.584056258201599121e+00
5.330000000000000000e+02 3.430016708374023438e+01 -1.936524659395217896e-01 -5.363187789916992188e+00 -5.513602867722511292e-03 -1.610610485076904297e+00 -1.703512549400329590e+00
5.340000000000000000e+02 3.157237434387207031e+01 -1.432456731796264648e+00 -8.828807830810546875e+00 -1.589407444000244141e+00 -3.125464439392089844e+00 -3.314883470535278320e+00
5.350000000000000000e+02 3.018111991882324219e+01 -1.766166329383850098e+00 -7.728224277496337891e+00 -8.553293943405151367e-01 -2.575066089630126953e+00 -2.184250354766845703e+00
5.360000000000000000e+02 2.364116096496582031e+01 -2.191332578659057617e+00 -9.397779703140258789e-01 9.083778411149978638e-02 -2.546820640563964844e-01 -1.943713426589965820e-01
5.370000000000000000e+02 3.263488531112670898e+00 -2.761920738220214844e+01 -2.073512077331542969e-01 2.175000607967376709e-01 3.044653683900833130e-03 3.948774635791778564e-01
5.380000000000000000e+02 6.470897197723388672e-01 -3.188666534423828125e+01 -1.290589198470115662e-02 7.979427576065063477e-01 2.355110496282577515e-01 5.767855793237686157e-03
5.390000000000000000e+02 2.717513322830200195e+00 -3.773843383789062500e+01 -6.125192623585462570e-03 4.326119720935821533e-01 1.279460340738296509e-01 -7.166651636362075806e-02
5.400000000000000000e+02 7.388299703598022461e-01 -3.733409118652343750e+01 -1.218828652054071426e-02 6.386727690696716309e-01 1.879453510046005249e-01 -3.590991720557212830e-02
5.410000000000000000e+02 7.797162628173828125e+01 -4.166279983520507812e+01 1.118785934522747993e-03 -1.602456532418727875e-02 -4.471734166145324707e-03 3.223612729925662279e-04
5.420000000000000000e+02 7.959693145751953125e+01 -1.678464126586914062e+01 2.643046027515083551e-04 6.864168244646862149e-05 9.988388046622276306e-05 -8.154082752298563719e-05
5.430000000000000000e+02 7.953202056884765625e+01 -1.958757400512695312e+01 4.055186291225254536e-04 1.863770303316414356e-04 1.775686978362500668e-04 -1.142645924119278789e-04
5.440000000000000000e+02 7.492787933349609375e+01 -1.536388397216796875e+01 1.366321666864678264e-04 3.535262294462881982e-05 5.159543798072263598e-05 -7.346818165387958288e-05
5.450000000000000000e+02 7.204072570800781250e+01 -1.562477207183837891e+01 1.388780074194073677e-04 3.143305730191059411e-05 5.109332050778903067e-05 9.638415212975814939e-05
5.460000000000000000e+02 6.934371185302734375e+01 -1.612178611755371094e+01 2.129475178662687540e-04 -3.844526509055867791e-05 5.235067874309606850e-05 -6.128142558736726642e-05
5.470000000000000000e+02 7.012981414794921875e+01 -1.970958900451660156e+01 3.739561361726373434e-04 9.856237011263146996e-05 1.417555467924103141e-04 9.124624193646013737e-05
5.480000000000000000e+02 6.919070434570312500e+01 -1.704011917114257812e+01 -3.348044701851904392e-04 -7.488499977625906467e-05 -1.229068438988178968e-04 1.079882640624418855e-04
5.490000000000000000e+02 6.667743682861328125e+01 -2.919980621337890625e+01 -1.181533094495534897e-02 -2.804347546771168709e-03 -4.385903477668762207e-03 -5.399497691541910172e-03
5.500000000000000000e+02 6.439916229248046875e+01 -3.121888923645019531e+01 -4.570239037275314331e-02 -5.381681490689516068e-03 -1.532522123306989670e-02 -1.515202783048152924e-02
5.510000000000000000e+02 6.231318283081054688e+01 -3.378170013427734375e+01 -7.535516470670700073e-02 -3.556397359716356732e-06 -2.260761521756649017e-02 2.603720128536224365e-02
5.520000000000000000e+02 5.899449539184570312e+01 -3.291225814819335938e+01 -1.995901614427566528e-01 -1.553207449615001678e-02 -6.453667581081390381e-02 2.266736142337322235e-02
5.530000000000000000e+02 5.763719177246093750e+01 -3.275888824462890625e+01 -1.705614477396011353e-01 -9.074883535504341125e-03 -5.389089882373809814e-02 2.923975326120853424e-02
5.540000000000000000e+02 5.921655273437500000e+01 -3.947905731201171875e+01 6.820705533027648926e-02 8.427692949771881104e-02 4.574519395828247070e-02 -3.250194946303963661e-03
5.550000000000000000e+02 4.972387313842773438e+01 -2.549707984924316406e+01 1.374451965093612671e-01 1.905675977468490601e-01 9.840384125709533691e-02 -1.854953616857528687e-01
5.560000000000000000e+02 4.372563552856445312e+01 -1.952840042114257812e+01 5.678030252456665039e-01 1.855896711349487305e+00 7.271099090576171875e-01 -8.990132808685302734e-01
5.570000000000000000e+02 3.411114883422851562e+01 -1.880955123901367188e+01 -1.448768496513366699e+00 1.811427950859069824e+00 1.087978631258010864e-01 -4.338875114917755127e-01
5.580000000000000000e+02 2.440679359436035156e+01 -1.857763099670410156e+01 -2.229130864143371582e-01 1.170083880424499512e-03 -6.652290374040603638e-02 7.571531832218170166e-02
5.590000000000000000e+02 2.232513046264648438e+01 -1.430992221832275391e+01 4.591800868511199951e-01 -3.236234188079833984e-01 4.066700488328933716e-02 4.073680341243743896e-01
5.600000000000000000e+02 1.625199890136718750e+01 -2.714241266250610352e+00 -4.715758562088012695e-01 -2.964933216571807861e-02 -1.503675580024719238e-01 -6.901956629008054733e-03
5.610000000000000000e+02 1.855874824523925781e+01 -1.479001140594482422e+01 5.235520601272583008e-01 -1.799594163894653320e-01 1.030777916312217712e-01 1.542184948921203613e-01
5.620000000000000000e+02 1.395472431182861328e+01 -1.440637969970703125e+01 8.076226115226745605e-01 1.244720295071601868e-01 2.796283960342407227e-01 1.418194770812988281e-01
5.630000000000000000e+02 2.822225761413574219e+01 -7.276884555816650391e+00 2.142477273941040039e+00 -1.341331601142883301e+00 2.403437048196792603e-01 -4.754749238491058350e-01
5.640000000000000000e+02 3.019010353088378906e+01 -1.499038410186767578e+01 -3.671710193157196045e-01 -2.050823299214243889e-03 -1.107665523886680603e-01 1.028822779655456543e+00
5.650000000000000000e+02 2.412624549865722656e+01 -1.397249889373779297e+01 5.456983447074890137e-01 -4.049945175647735596e-01 4.221115261316299438e-02 6.477634310722351074e-01
5.660000000000000000e+02 1.284381675720214844e+01 -1.606616210937500000e+01 1.421055197715759277e+00 9.636220335960388184e-02 4.552251994609832764e-01 -2.153964154422283173e-02
5.670000000000000000e+02 1.613532447814941406e+01 -1.596821022033691406e+01 7.230931520462036133e-01 -3.072997368872165680e-02 2.077089548110961914e-01 -3.044612891972064972e-02
5.680000000000000000e+02 3.499135589599609375e+01 -1.986773490905761719e+01 3.445889353752136230e-01 5.554677009582519531e+00 1.769779682159423828e+00 -7.227173447608947754e-01
5.690000000000000000e+02 4.070528793334960938e+01 -3.003366088867187500e+01 -4.652201384305953979e-02 2.511221885681152344e+00 7.394099831581115723e-01 -5.421686172485351562e-01
5.700000000000000000e+02 4.557019805908203125e+01 -3.688928604125976562e+01 -3.035735189914703369e-01 1.477381110191345215e+00 3.521422743797302246e-01 -2.919878363609313965e-01
5.710000000000000000e+02 4.609369659423828125e+01 -2.845018577575683594e+01 2.154509276151657104e-01 1.118197083473205566e+00 4.000944197177886963e-01 -5.583805441856384277e-01
5.720000000000000000e+02 5.313439941406250000e+01 -3.192131805419921875e+01 -1.359109953045845032e-02 2.877944707870483398e-01 8.226101100444793701e-02 -1.557778716087341309e-01
5.730000000000000000e+02 5.221092605590820312e+01 -3.079694747924804688e+01 4.892010986804962158e-02 3.276962041854858398e-01 1.129848957061767578e-01 -1.806901246309280396e-01
5.740000000000000000e+02 4.923715209960937500e+01 -3.603263473510742188e+01 -9.564177691936492920e-02 9.105339050292968750e-01 2.444676458835601807e-01 -3.153653740882873535e-01
5.750000000000000000e+02 4.591939926147460938e+01 -2.344199562072753906e+01 3.304564058780670166e-01 7.901872396469116211e-01 3.361930847167968750e-01 -4.948150515556335449e-01
5.760000000000000000e+02 3.400769805908203125e+01 -2.727461433410644531e+01 1.123074293136596680e+00 3.832031250000000000e+00 1.486531734466552734e+00 1.795537471771240234e+00
5.770000000000000000e+02 6.176893997192382812e+01 -3.243626022338867188e+01 -1.278848946094512939e-01 -6.114516872912645340e-03 -4.019982367753982544e-02 -1.737377978861331940e-02
5.780000000000000000e+02 7.937711334228515625e+01 4.239683628082275391e+00 -5.658258218318223953e-03 -2.403359860181808472e-01 -7.379827648401260376e-02 -4.170134291052818298e-02
5.790000000000000000e+02 7.285138702392578125e+01 3.197949886322021484e+00 -1.645267754793167114e-01 -1.471938341856002808e-01 -9.351618587970733643e-02 -3.304685652256011963e-01
5.800000000000000000e+02 7.936223602294921875e+01 1.120150661468505859e+01 2.202501986175775528e-03 -8.451315164566040039e-01 -2.528786957263946533e-01 -6.137176975607872009e-02
5.810000000000000000e+02 7.284567260742187500e+01 1.141858673095703125e+01 5.247162189334630966e-03 -5.150215029716491699e-01 -1.529323011636734009e-01 -5.061299204826354980e-01
5.820000000000000000e+02 6.577251434326171875e+01 1.284308815002441406e+01 1.603980213403701782e-01 -1.981092989444732666e-01 -1.131338253617286682e-02 -7.072159051895141602e-01
5.830000000000000000e+02 5.485961914062500000e+01 9.447128295898437500e+00 2.990042567253112793e-01 1.800818890333175659e-01 1.437258422374725342e-01 -7.396138310432434082e-01
5.840000000000000000e+02 7.936406707763671875e+01 1.815203285217285156e+01 7.040050695650279522e-04 -1.478837966918945312e+00 -4.434401988983154297e-01 -4.724528640508651733e-02
5.850000000000000000e+02 7.286596679687500000e+01 1.794658851623535156e+01 1.013159751892089844e-01 -7.840955853462219238e-01 -2.048338800668716431e-01 -4.039157927036285400e-01
5.860000000000000000e+02 5.361867141723632812e+01 2.009995269775390625e+01 9.599015116691589355e-01 1.524944901466369629e+00 7.454539537429809570e-01 2.331203967332839966e-01
5.870000000000000000e+02 4.696887969970703125e+01 1.741909408569335938e+01 9.904874563217163086e-01 3.677361726760864258e+00 1.400354743003845215e+00 9.520339965820312500e-01
5.880000000000000000e+02 7.932347869873046875e+01 2.372240257263183594e+01 -2.505638112779706717e-04 -1.818392634391784668e+00 -5.455929636955261230e-01 -2.943265438079833984e-02
5.890000000000000000e+02 7.210504150390625000e+01 2.591930389404296875e+01 1.122381538152694702e-01 -8.776087760925292969e-01 -2.296111881732940674e-01 -1.828655451536178589e-01
5.900000000000000000e+02 6.585881042480468750e+01 2.691890525817871094e+01 2.958467006683349609e-01 -7.617126405239105225e-02 6.590262800455093384e-02 -1.157619804143905640e-01
5.910000000000000000e+02 5.466827392578125000e+01 2.416661643981933594e+01 7.288919091224670410e-01 1.531572580337524414e+00 6.781393289566040039e-01 2.275697886943817139e-01
5.920000000000000000e+02 4.888222122192382812e+01 2.407323837280273438e+01 6.657195091247558594e-01 3.088536739349365234e+00 1.126276850700378418e+00 3.469569087028503418e-01
5.930000000000000000e+02 7.922775268554687500e+01 3.072701072692871094e+01 1.104338373988866806e-02 -2.015738010406494141e+00 -6.014083623886108398e-01 -8.928994648158550262e-03
5.940000000000000000e+02 7.252314758300781250e+01 3.500970077514648438e+01 3.972278162837028503e-02 -9.567888975143432617e-01 -2.751198410987854004e-01 -3.446390107274055481e-02
5.950000000000000000e+02 6.045559692382812500e+01 3.399002838134765625e+01 1.277686804533004761e-01 8.849152922630310059e-01 3.038052022457122803e-01 1.385650485754013062e-01
5.960000000000000000e+02 5.770613861083984375e+01 3.261914443969726562e+01 1.915210038423538208e-01 1.256606221199035645e+00 4.344381690025329590e-01 1.883139014244079590e-01
5.970000000000000000e+02 4.979460144042968750e+01 3.016593742370605469e+01 3.828946948051452637e-01 2.663293838500976562e+00 9.138565659523010254e-01 3.321212232112884521e-01
5.980000000000000000e+02 1.117786979675292969e+01 3.057236862182617188e+01 2.084896550513803959e-04 5.610208063444588333e-06 6.422995647881180048e-05 8.374106255359947681e-05
5.990000000000000000e+02 1.416077232360839844e+01 2.394895744323730469e+01 4.642645362764596939e-04 -3.966025542467832565e-05 1.273812813451513648e-04 -5.853815309819765389e-06
6.000000000000000000e+02 1.439278793334960938e+01 1.656686401367187500e+01 -2.983347803819924593e-04 1.228794189955806360e-05 -8.581404836149886250e-05 -5.475057332660071552e-05
6.010000000000000000e+02 1.276240825653076172e+01 1.042738819122314453e+01 1.379641034873202443e-04 6.369102629832923412e-05 6.049653893569484353e-05 -5.796139248559484258e-06
6.020000000000000000e+02 1.428366661071777344e+01 -1.635150146484375000e+01 1.046176671981811523e+00 1.080477237701416016e-01 3.462673127651214600e-01 -1.704152077436447144e-01
6.030000000000000000e+02 1.941927146911621094e+01 -1.737917900085449219e+01 3.223879635334014893e-01 -7.239314168691635132e-02 7.499844580888748169e-02 2.402939833700656891e-02
6.040000000000000000e+02 1.923979949951171875e+01 -1.840752792358398438e+01 2.631352543830871582e-01 9.359577088616788387e-04 7.922136038541793823e-02 -2.994673699140548706e-02
6.050000000000000000e+02 2.179793167114257812e+01 -1.873569869995117188e+01 9.446375072002410889e-02 -8.599537424743175507e-03 2.575926482677459717e-02 4.237443208694458008e-02
6.060000000000000000e+02 2.412605285644531250e+01 -1.742201042175292969e+01 -1.566091626882553101e-01 -2.802035305649042130e-03 -4.782336205244064331e-02 2.610480189323425293e-01
6.070000000000000000e+02 2.160214042663574219e+01 -1.642709922790527344e+01 2.383593618869781494e-01 -1.299269795417785645e-01 3.252971172332763672e-02 2.397709637880325317e-01
6.080000000000000000e+02 2.826801872253417969e+01 -1.784938049316406250e+01 -1.596899151802062988e+00 5.346373096108436584e-02 -4.630306363105773926e-01 3.221844509243965149e-02
6.090000000000000000e+02 3.515924835205078125e+01 -2.466838455200195312e+01 8.173171281814575195e-01 7.225616455078125000e+00 2.412879943847656250e+00 1.163568496704101562e+00
6.100000000000000000e+02 2.699283218383789062e+01 -3.150839614868164062e+01 -4.198895394802093506e-01 4.418416321277618408e-02 -1.127116158604621887e-01 5.047333240509033203e-02
6.110000000000000000e+02 2.284345054626464844e+01 -3.172829818725585938e+01 -5.654298067092895508e-01 -3.190086688846349716e-03 -1.705859601497650146e-01 -5.070117488503456116e-02
6.120000000000000000e+02 2.423667335510253906e+01 -3.302917861938476562e+01 -3.664478957653045654e-01 4.494807496666908264e-02 -9.644994884729385376e-02 2.267546486109495163e-03
6.130000000000000000e+02 2.151443672180175781e+01 -3.182390213012695312e+01 -5.479736328125000000e-01 -1.057559158653020859e-02 -1.675647646188735962e-01 -4.229140281677246094e-02
6.140000000000000000e+02 2.050096511840820312e+01 -3.335071182250976562e+01 -4.164432585239410400e-01 -3.455064818263053894e-02 -1.352981626987457275e-01 -3.045833855867385864e-02
6.150000000000000000e+02 1.764147949218750000e+01 -3.398226165771484375e+01 -3.826145529747009277e-01 -7.344031333923339844e-02 -1.368164569139480591e-01 3.910988196730613708e-02
6.160000000000000000e+02 1.174670124053955078e+01 -3.122105789184570312e+01 -6.987817883491516113e-01 -8.758658915758132935e-02 -2.359105199575424194e-01 2.204845547676086426e-01
6.170000000000000000e+02 5.858580470085144043e-01 -1.922008323669433594e+01 2.715540863573551178e-02 -1.358848690986633301e+00 -3.995079696178436279e-01 3.593662753701210022e-02
6.180000000000000000e+02 7.669062614440917969e+00 -1.687913513183593750e+01 9.953829050064086914e-01 1.097180962562561035e+00 6.277691721916198730e-01 6.000373959541320801e-01
6.190000000000000000e+02 4.092318725585937500e+01 -1.184492111206054688e+01 1.741763651371002197e-01 2.611396551132202148e+00 8.356718420982360840e-01 -1.183540701866149902e+00
6.200000000000000000e+02 4.143014907836914062e+01 -1.286233711242675781e+01 3.444265946745872498e-02 3.318387269973754883e+00 1.005849003791809082e+00 -8.379546999931335449e-01
6.210000000000000000e+02 3.791600036621093750e+01 -9.054584503173828125e+00 1.928245782852172852e+00 5.747203826904296875e+00 2.302634954452514648e+00 -3.731363773345947266e+00
6.220000000000000000e+02 3.630772018432617188e+01 -8.568514823913574219e+00 1.788016796112060547e+00 1.344842815399169922e+01 4.570933341979980469e+00 2.082428485155105591e-01
6.230000000000000000e+02 3.764577102661132812e+01 -5.400906085968017578e+00 3.395258665084838867e+00 7.899877548217773438e+00 3.388540744781494141e+00 6.422644138336181641e+00
6.240000000000000000e+02 3.783000946044921875e+01 -5.435879707336425781e+00 3.693485498428344727e+00 6.650481700897216797e+00 3.103190183639526367e+00 6.105618476867675781e+00
6.250000000000000000e+02 3.801340866088867188e+01 -5.435641288757324219e+00 3.698592901229858398e+00 5.516425132751464844e+00 2.764505386352539062e+00 5.646691799163818359e+00
6.260000000000000000e+02 3.841663742065429688e+01 -5.457142353057861328e+00 3.524662017822265625e+00 3.456403970718383789e+00 2.094319820404052734e+00 4.468721866607666016e+00
6.270000000000000000e+02 3.922046279907226562e+01 -5.587117195129394531e+00 2.556318759918212891e+00 1.325324296951293945e+00 1.164492845535278320e+00 2.361253261566162109e+00
6.280000000000000000e+02 3.883117294311523438e+01 -5.503328323364257812e+00 3.027595758438110352e+00 2.208231925964355469e+00 1.570748209953308105e+00 3.271782636642456055e+00
6.290000000000000000e+02 3.862097930908203125e+01 -5.477046966552734375e+00 3.386101007461547852e+00 2.722393751144409180e+00 1.832548379898071289e+00 3.881771087646484375e+00
6.300000000000000000e+02 4.178947830200195312e+01 -4.544208526611328125e+00 2.986979782581329346e-01 6.770799756050109863e-01 2.927334010601043701e-01 6.765686869621276855e-01
6.310000000000000000e+02 4.216425704956054688e+01 -3.620185852050781250e+00 9.034834802150726318e-02 1.077351212501525879e+00 3.503098785877227783e-01 5.379474759101867676e-01
6.320000000000000000e+02 4.315229034423828125e+01 -1.033997774124145508e+00 -1.383170843124389648e+00 3.270920217037200928e-01 -3.168236315250396729e-01 -1.005366206169128418e+00
6.330000000000000000e+02 4.994124221801757812e+01 7.756980061531066895e-01 -4.741876125335693359e+00 -3.160993456840515137e-01 -1.517392635345458984e+00 8.496503233909606934e-01
6.340000000000000000e+02 5.784762573242187500e+01 -1.358561873435974121e+00 -2.177357912063598633e+00 -6.601219624280929565e-02 -6.730110049247741699e-01 3.419817388057708740e-01
6.350000000000000000e+02 5.650694274902343750e+01 -1.063259840011596680e+00 -2.535921096801757812e+00 -8.746486902236938477e-02 -7.870157957077026367e-01 2.825625836849212646e-01
6.360000000000000000e+02 5.918555068969726562e+01 -1.711796283721923828e+00 -1.801534652709960938e+00 -1.307528167963027954e-01 -5.796862244606018066e-01 3.543772995471954346e-01
6.370000000000000000e+02 6.178206634521484375e+01 -2.731376886367797852e+00 -8.856266140937805176e-01 -1.271582096815109253e-01 -3.038354516029357910e-01 2.861786186695098877e-01
6.380000000000000000e+02 6.300925445556640625e+01 -3.435509920120239258e+00 -5.058071017265319824e-01 -8.234120905399322510e-02 -1.764444857835769653e-01 2.036862671375274658e-01
6.390000000000000000e+02 7.015612030029296875e+01 -1.209751892089843750e+01 1.795996911823749542e-02 -4.857594147324562073e-03 3.930712584406137466e-03 -9.102805517613887787e-03
6.400000000000000000e+02 6.944810485839843750e+01 -1.216497039794921875e+01 1.429255213588476181e-02 -3.143501700833439827e-03 3.344715107232332230e-03 -1.189568731933832169e-02
6.410000000000000000e+02 6.875119781494140625e+01 -1.219165802001953125e+01 1.084523089230060577e-02 2.213733503594994545e-03 3.917689435184001923e-03 -1.140076946467161179e-02
6.420000000000000000e+02 6.807347869873046875e+01 -1.229663276672363281e+01 1.105875708162784576e-02 4.909221548587083817e-03 4.790393635630607605e-03 -8.577761240303516388e-03
6.430000000000000000e+02 6.832047271728515625e+01 -1.093684291839599609e+01 1.749784126877784729e-02 8.253361098468303680e-03 7.725360337644815445e-03 -1.443075854331254959e-02
6.440000000000000000e+02 7.240074920654296875e+01 -1.182075595855712891e+01 1.872041448950767517e-02 -5.598284304141998291e-03 3.936639055609703064e-03 4.338577273301780224e-04
6.450000000000000000e+02 7.391334533691406250e+01 -1.167596912384033203e+01 1.677938178181648254e-02 -3.160605439916253090e-03 4.085632972419261932e-03 6.443329155445098877e-03
6.460000000000000000e+02 7.542271423339843750e+01 -1.155793571472167969e+01 1.285347901284694672e-02 -9.228689596056938171e-04 3.579183015972375870e-03 1.001256424933671951e-02
6.470000000000000000e+02 7.614536285400390625e+01 -1.150054454803466797e+01 9.688070975244045258e-03 -1.158204031526111066e-04 2.871674951165914536e-03 1.115078106522560120e-02
6.480000000000000000e+02 7.949090576171875000e+01 -6.857907772064208984e+00 -1.467965892516076565e-03 3.956465795636177063e-02 1.142900716513395309e-02 3.136075334623456001e-03
6.490000000000000000e+02 7.821980285644531250e+01 -1.128224468231201172e+01 4.010576754808425903e-03 5.187769886106252670e-03 2.759504131972789764e-03 9.373442269861698151e-03
6.500000000000000000e+02 7.892182159423828125e+01 -1.119696331024169922e+01 9.760609245859086514e-04 7.365865167230367661e-03 2.502577845007181168e-03 5.616828799247741699e-03
6.510000000000000000e+02 7.793949890136718750e+01 4.157170486450195312e+01 -5.917625129222869873e-02 -1.855086565017700195e+00 -5.742788314819335938e-01 1.646739058196544647e-02
6.520000000000000000e+02 7.864091491699218750e+01 3.992935943603515625e+01 2.430403977632522583e-02 -1.875458359718322754e+00 -5.553462505340576172e-01 5.531845241785049438e-02
6.530000000000000000e+02 7.644599151611328125e+01 3.853163909912109375e+01 2.519891783595085144e-02 -1.688206672668457031e+00 -4.989023208618164062e-01 5.755262915045022964e-03
6.540000000000000000e+02 7.949475097656250000e+01 3.624926376342773438e+01 -1.959495805203914642e-02 -2.033889532089233398e+00 -6.160453557968139648e-01 2.548174932599067688e-03
6.550000000000000000e+02 7.935030364990234375e+01 3.494697189331054688e+01 1.352205965667963028e-02 -2.041536808013916016e+00 -6.084044575691223145e-01 4.772373475134372711e-03
6.560000000000000000e+02 7.777434539794921875e+01 3.381649398803710938e+01 1.317439135164022446e-02 -1.796301126480102539e+00 -5.349380373954772949e-01 8.218888193368911743e-03
6.570000000000000000e+02 7.926056671142578125e+01 3.355428695678710938e+01 -1.093945902539417148e-04 -2.036061048507690430e+00 -6.108511686325073242e-01 -6.511100567877292633e-03
6.580000000000000000e+02 7.924790954589843750e+01 2.931720542907714844e+01 -6.373517215251922607e-03 -1.994345307350158691e+00 -6.002156734466552734e-01 -1.183854974806308746e-02
6.590000000000000000e+02 7.927288055419921875e+01 2.791341590881347656e+01 8.927306160330772400e-03 -1.966167092323303223e+00 -5.871719121932983398e-01 -1.515683531761169434e-02
6.600000000000000000e+02 7.788619995117187500e+01 2.654704475402832031e+01 1.506556849926710129e-02 -1.689202547073364258e+00 -5.022410750389099121e-01 -6.405976414680480957e-02
6.610000000000000000e+02 7.929470825195312500e+01 2.651246070861816406e+01 -1.816692180000245571e-03 -1.927249789237976074e+00 -5.787199139595031738e-01 -2.147386409342288971e-02
6.620000000000000000e+02 7.933633422851562500e+01 2.232879066467285156e+01 3.560045501217246056e-03 -1.749695062637329102e+00 -5.238404870033264160e-01 -3.308176994323730469e-02
6.630000000000000000e+02 7.934786987304687500e+01 2.093593788146972656e+01 8.475016220472753048e-04 -1.671069741249084473e+00 -5.010666847229003906e-01 -3.740690276026725769e-02
6.640000000000000000e+02 7.802976226806640625e+01 2.095626640319824219e+01 1.354264933615922928e-02 -1.483957052230834961e+00 -4.411243200302124023e-01 -1.135643199086189270e-01
6.650000000000000000e+02 7.936678314208984375e+01 1.676087570190429688e+01 3.777422476559877396e-03 -1.365537524223327637e+00 -4.085280299186706543e-01 -5.228120461106300354e-02
6.660000000000000000e+02 7.936547088623046875e+01 1.537125205993652344e+01 -3.230634029023349285e-04 -1.243036508560180664e+00 -3.730078637599945068e-01 -5.564381554722785950e-02
6.670000000000000000e+02 7.936373901367187500e+01 1.398161220550537109e+01 3.175386926159262657e-03 -1.114257693290710449e+00 -3.333247005939483643e-01 -5.886043608188629150e-02
6.680000000000000000e+02 7.808791351318359375e+01 1.401686477661132812e+01 3.881034674122929573e-03 -1.011329531669616699e+00 -3.022345304489135742e-01 -1.700599938631057739e-01
6.690000000000000000e+02 7.936287689208984375e+01 9.809394836425781250e+00 -2.905066357925534248e-03 -7.100222110748291016e-01 -2.138781696557998657e-01 -6.009829789400100708e-02
6.700000000000000000e+02 7.936456298828125000e+01 8.418126106262207031e+00 9.071697713807225227e-04 -5.790949463844299316e-01 -1.734563410282135010e-01 -5.799610167741775513e-02
6.710000000000000000e+02 7.936736297607421875e+01 7.025822639465332031e+00 -4.499830771237611771e-03 -4.550435245037078857e-01 -1.378630101680755615e-01 -5.355514585971832275e-02
6.720000000000000000e+02 7.809503173828125000e+01 7.073137283325195312e+00 -7.999260909855365753e-03 -4.509631097316741943e-01 -1.376887112855911255e-01 -1.564076691865921021e-01
6.730000000000000000e+02 7.938606262207031250e+01 2.845241069793701172e+00 -8.826759876683354378e-04 -1.543916016817092896e-01 -4.658228158950805664e-02 -3.446289524435997009e-02
6.740000000000000000e+02 7.939713287353515625e+01 1.452603340148925781e+00 -5.425310693681240082e-03 -8.384861052036285400e-02 -2.678217552602291107e-02 -2.693119086325168610e-02
6.750000000000000000e+02 7.941086578369140625e+01 6.165364384651184082e-02 -1.207334455102682114e-03 -3.003828227519989014e-02 -9.373685345053672791e-03 -1.932892389595508575e-02
6.760000000000000000e+02 7.821713256835937500e+01 8.862350881099700928e-02 -1.601103506982326508e-02 -7.044315338134765625e-02 -2.593625709414482117e-02 -5.798705667257308960e-02
6.770000000000000000e+02 7.946421051025390625e+01 -4.097676753997802734e+00 -2.591568045318126678e-03 4.355880245566368103e-02 1.229016948491334915e-02 -2.424714155495166779e-03
6.780000000000000000e+02 7.948207092285156250e+01 -5.476462841033935547e+00 -6.138575554359704256e-05 4.519154503941535950e-02 1.353904698044061661e-02 8.022869587875902653e-04
6.790000000000000000e+02 7.843399810791015625e+01 -5.386739730834960938e+00 -5.665984470397233963e-03 1.984027400612831116e-02 4.252287093549966812e-03 2.816859632730484009e-04
6.800000000000000000e+02 7.841519165039062500e+01 -8.069062232971191406e+00 -1.492097740992903709e-03 1.820036582648754120e-02 5.012480542063713074e-03 9.684319607913494110e-03
6.810000000000000000e+02 7.317513942718505859e+00 4.119458389282226562e+01 -6.070936215110123158e-04 1.043317097355611622e-04 -1.508285786258056760e-04 -3.631870786193758249e-04
6.820000000000000000e+02 2.524411392211914062e+01 4.015145111083984375e+01 3.093912499025464058e-03 -2.464090101420879364e-02 -6.464096717536449432e-03 1.663658022880554199e-02
6.830000000000000000e+02 1.411842465400695801e+00 2.691070079803466797e+00 -1.142806468124035746e-05 -3.098457909800345078e-06 -4.357956640888005495e-06 1.486239307268988341e-05
6.840000000000000000e+02 3.331870317459106445e+00 2.659006118774414062e+00 -5.345757745089940727e-05 -2.983982267323881388e-05 -2.498922003724146634e-05 -2.540364448577747680e-06
6.850000000000000000e+02 5.564584255218505859e+00 2.722783327102661133e+00 3.196558463969267905e-05 4.229617479722946882e-05 2.227852746727876365e-05 -3.864738391712307930e-05
6.860000000000000000e+02 1.518564105033874512e+00 6.674471378326416016e+00 1.357767177978530526e-04 2.173321990994736552e-05 4.725298276753164828e-05 -1.160530246124835685e-05
6.870000000000000000e+02 5.256078839302062988e-01 9.288908004760742188e+00 -1.896490575745701790e-04 -9.238146958523429930e-07 -5.717186286346986890e-05 -3.478370899756555445e-06
6.880000000000000000e+02 5.779153108596801758e-01 1.209315013885498047e+01 -1.956112100742757320e-04 -5.192234766582259908e-06 -6.024103640811517835e-05 -3.635727352957474068e-06
6.890000000000000000e+02 1.740904211997985840e+00 1.206419372558593750e+01 1.930338185047730803e-04 -4.242192972014890984e-06 5.663748743245378137e-05 1.157854785560630262e-05
6.900000000000000000e+02 6.324584484100341797e-01 1.632121467590332031e+01 1.815051946323364973e-04 -7.295867817447287962e-06 5.226279608905315399e-05 5.059667273599188775e-06
6.910000000000000000e+02 6.476019620895385742e-01 1.773480606079101562e+01 -1.752706884872168303e-04 -1.276442071684869006e-05 -5.641053576255217195e-05 -1.956890173460124061e-06
6.920000000000000000e+02 6.666136384010314941e-01 2.199590682983398438e+01 2.000770036829635501e-04 -8.918004823499359190e-06 5.734770093113183975e-05 -7.574741175631061196e-06
6.930000000000000000e+02 6.598618030548095703e-01 2.341734886169433594e+01 -2.311470743734389544e-04 -1.262486057385103777e-05 -7.313158130273222923e-05 8.909240023058373481e-06
6.940000000000000000e+02 1.969307661056518555e+00 2.344833374023437500e+01 2.648598747327923775e-04 1.472159874538192526e-05 8.387443813262507319e-05 -3.429002754273824394e-05
6.950000000000000000e+02 6.469654440879821777e-01 2.483930969238281250e+01 2.773355226963758469e-04 -3.995009194568410749e-07 8.308080577990040183e-05 -1.862580211309250444e-05
6.960000000000000000e+02 6.241839528083801270e-01 2.906258773803710938e+01 -4.511390288826078176e-04 7.165625720517709851e-05 -1.138448278652504086e-04 5.385300482885213569e-06
6.970000000000000000e+02 6.257711052894592285e-01 3.045657730102539062e+01 5.075442022643983364e-04 1.340687158517539501e-04 1.924838725244626403e-04 -5.918098031543195248e-05
6.980000000000000000e+02 3.145176649093627930e+00 2.908166694641113281e+01 -4.457778995856642723e-04 8.907732262741774321e-05 -1.070101716322824359e-04 -3.795782322413288057e-05
6.990000000000000000e+02 6.268735527992248535e-01 3.184516525268554688e+01 -5.432410398498177528e-04 1.760006271069869399e-04 -1.101721209124661982e-04 1.845860424509737641e-05
7.000000000000000000e+02 7.413228750228881836e-01 3.600168228149414062e+01 4.242606228217482567e-04 4.164469137322157621e-04 2.522122522350400686e-04 -5.847177089890465140e-05
7.010000000000000000e+02 2.845906972885131836e+00 3.828490066528320312e+01 -3.494389820843935013e-04 3.503061307128518820e-04 2.601466917440120596e-07 -2.027985901804640889e-04
7.020000000000000000e+02 1.006484270095825195e+00 3.876376342773437500e+01 1.787064684322103858e-04 5.896409275010228157e-04 2.305042144143953919e-04 -3.771736737689934671e-05
7.030000000000000000e+02 1.282602906227111816e+00 4.017321014404296875e+01 -1.732632663333788514e-04 6.020053988322615623e-04 1.286226470256224275e-04 4.110660484002437443e-06
7.040000000000000000e+02 1.059535884857177734e+01 1.760276794433593750e+00 2.469320679665543139e-05 5.704152135876938701e-05 2.452041917422320694e-05 1.449632145522627980e-05
7.050000000000000000e+02 9.114419937133789062e+00 1.841906785964965820e+00 2.303135988768190145e-05 5.773783050244674087e-05 2.423075784463435411e-05 5.157402028999058530e-06
7.060000000000000000e+02 8.388236999511718750e+00 1.853049993515014648e+00 -1.869068910309579223e-05 -5.540296115214005113e-05 -2.222809598606545478e-05 1.784492837941797916e-06
7.070000000000000000e+02 7.659803390502929688e+00 1.864939928054809570e+00 1.406586852681357414e-05 5.269959365250542760e-05 2.002963810809887946e-05 -8.981292012322228402e-06
7.080000000000000000e+02 5.466428756713867188e+00 1.900668263435363770e+00 -2.763228258118033409e-05 -3.440294676693156362e-05 -1.861056807683780789e-05 2.777931149466894567e-05
7.090000000000000000e+02 4.738660812377929688e+00 1.904348134994506836e+00 4.015527156298048794e-05 2.430441054457332939e-05 1.933790554176084697e-05 -1.891932333819568157e-05
7.100000000000000000e+02 4.013003349304199219e+00 1.897373795509338379e+00 -4.673545117839239538e-05 -1.873143810371402651e-05 -1.964006696653086692e-05 6.948984264454338700e-06
7.110000000000000000e+02 3.287946939468383789e+00 1.880036115646362305e+00 4.748522769659757614e-05 1.520569821877870709e-05 1.880727904790546745e-05 3.776008270506281406e-06
7.120000000000000000e+02 2.571046113967895508e+00 1.864980101585388184e+00 -4.176336733507923782e-05 -1.325951689068460837e-05 -1.650686499488074332e-05 -1.206574415846262127e-05
7.130000000000000000e+02 1.865206837654113770e+00 1.867099046707153320e+00 2.566949297033715993e-05 1.885673191281966865e-05 1.335786782874492928e-05 1.658546170801855624e-05
7.140000000000000000e+02 1.287718963623046875e+01 1.410107493400573730e+00 -3.292504334240220487e-05 -6.455299444496631622e-05 -2.924341060861479491e-05 -1.447459089831681922e-05
7.150000000000000000e+02 1.360552120208740234e+01 1.292799592018127441e+00 2.943690196843817830e-05 7.385855133179575205e-05 3.098863453487865627e-05 1.550135129946283996e-05
7.160000000000000000e+02 1.501445102691650391e+01 1.088388562202453613e+00 1.614326720300596207e-05 7.891308632679283619e-05 2.851690624083857983e-05 2.979316741402726620e-05
7.170000000000000000e+02 1.571889114379882812e+01 1.016535997390747070e+00 -1.454356061003636569e-05 -7.473467121599242091e-05 -2.678346936590969563e-05 -4.207032543490640819e-05
7.180000000000000000e+02 1.641768646240234375e+01 9.848191142082214355e-01 1.468584014219231904e-05 6.960491737117990851e-05 2.528722689021378756e-05 5.281241828924976289e-05
7.190000000000000000e+02 1.782148933410644531e+01 9.995749592781066895e-01 4.418993921717628837e-05 3.260924131609499454e-05 2.303975452377926558e-05 5.239499660092405975e-05
7.200000000000000000e+02 1.988908767700195312e+01 5.211605548858642578e+00 -1.773124968167394400e-04 -1.789405723684467375e-05 -5.856196730746887624e-05 -4.722029188997112215e-05
7.210000000000000000e+02 2.051178359985351562e+01 2.962824821472167969e+00 -1.194610376842319965e-04 2.346535438846331090e-05 -2.879870589822530746e-05 1.286922633880749345e-05
7.220000000000000000e+02 2.030286216735839844e+01 1.978843808174133301e+00 6.883667811052873731e-05 -1.209334914165083319e-05 1.702299778116866946e-05 -2.595768273749854416e-05
7.230000000000000000e+02 2.153029060363769531e+01 2.498306989669799805e+00 -2.725096419453620911e-05 -3.871957960654981434e-05 -1.979116314032580703e-05 -3.370802005520090461e-05
7.240000000000000000e+02 2.229475021362304688e+01 1.602589011192321777e+00 3.064555130549706519e-05 3.847225889330729842e-05 2.073534233204554766e-05 1.960219924512784928e-05
7.250000000000000000e+02 2.108427047729492188e+01 1.113187551498413086e+00 2.622287502163089812e-05 1.427109327778453007e-05 1.214819076267303899e-05 -2.009932359214872122e-05
7.260000000000000000e+02 1.935861968994140625e+01 1.047731161117553711e+00 6.282790127443149686e-05 -2.425855427645728923e-06 1.812061418604571372e-05 4.071200692123966292e-06
7.270000000000000000e+02 1.938123321533203125e+01 1.997850298881530762e+00 -9.901399607770144939e-05 1.228328892466379330e-05 -2.601921187306288630e-05 -1.772263021848630160e-05
7.280000000000000000e+02 1.875078773498535156e+01 7.654572010040283203e+00 -1.987021969398483634e-04 -2.605540066724643111e-05 -6.742728146491572261e-05 -6.837259570602327585e-05
7.290000000000000000e+02 1.768525695800781250e+01 1.020048618316650391e+01 -2.150591608369722962e-04 -3.170672425767406821e-05 -7.402976189041510224e-05 -7.930259744171053171e-05
7.300000000000000000e+02 1.593314647674560547e+01 1.550128841400146484e+01 -2.772071457002311945e-04 -1.270662505703512579e-05 -8.697413431946188211e-05 -7.005994848441332579e-05
7.310000000000000000e+02 1.524488735198974609e+01 1.967171859741210938e+01 2.804917166940867901e-04 -2.108784610754810274e-05 7.782116153975948691e-05 2.716340168262831867e-05
7.320000000000000000e+02 1.521827983856201172e+01 2.108713340759277344e+01 -2.888358721975237131e-04 -1.023061668092850596e-05 -8.971994975581765175e-05 -1.343058102065697312e-05
7.330000000000000000e+02 1.529728984832763672e+01 2.392297744750976562e+01 -2.607156638987362385e-04 1.013238670566352084e-05 -7.517497579101473093e-05 4.755398549605160952e-05
7.340000000000000000e+02 1.640008354187011719e+01 3.186936378479003906e+01 -4.934904864057898521e-04 8.353316661668941379e-05 -1.229871995747089386e-04 5.327069084160029888e-04
7.350000000000000000e+02 1.765889358520507812e+01 3.092907333374023438e+01 9.211528231389820576e-04 6.119695026427507401e-04 4.599367093760520220e-04 2.915528311859816313e-04
7.360000000000000000e+02 1.942964172363281250e+01 3.292337036132812500e+01 1.554360263980925083e-03 2.009909600019454956e-03 1.069281017407774925e-03 1.114315353333950043e-03
7.370000000000000000e+02 2.254746437072753906e+01 3.560401153564453125e+01 2.369584282860159874e-03 4.705968021880835295e-04 8.520543342456221581e-04 2.250659745186567307e-03
7.380000000000000000e+02 2.510728263854980469e+01 3.700072860717773438e+01 -1.259785611182451248e-02 -8.033515769056975842e-04 -4.020362161099910736e-03 4.479045979678630829e-03
7.390000000000000000e+02 2.665323066711425781e+01 3.721965789794921875e+01 -2.837364375591278076e-02 -3.079776652157306671e-03 -9.436026215553283691e-03 9.445151314139366150e-03
7.400000000000000000e+02 2.808462715148925781e+01 3.726269912719726562e+01 -1.006910949945449829e-01 -7.491275668144226074e-03 -3.245471045374870300e-02 2.963261306285858154e-02
7.410000000000000000e+02 3.103500556945800781e+01 3.705968093872070312e+01 -2.459037154912948608e-01 -6.018767878413200378e-02 -9.182741492986679077e-02 9.581535309553146362e-02
7.420000000000000000e+02 3.796404647827148438e+01 3.435269165039062500e+01 5.236293077468872070e-01 1.061522841453552246e+00 4.755456447601318359e-01 -7.216832637786865234e-01
7.430000000000000000e+02 3.988362884521484375e+01 3.213778686523437500e+01 1.065091133117675781e+00 3.304204463958740234e+00 1.310788750648498535e+00 -1.608790397644042969e+00
7.440000000000000000e+02 4.315341567993164062e+01 2.699037933349609375e+01 4.995726644992828369e-01 4.968373775482177734e+00 1.640383958816528320e+00 -4.100342392921447754e-01
7.450000000000000000e+02 4.174866485595703125e+01 2.374648666381835938e+01 3.031031228601932526e-02 5.483120918273925781e+00 1.654029369354248047e+00 1.027791295200586319e-02
7.460000000000000000e+02 4.171839904785156250e+01 2.087561988830566406e+01 4.071573168039321899e-02 5.779994964599609375e+00 1.746213197708129883e+00 1.316348612308502197e-01
7.470000000000000000e+02 4.169251632690429688e+01 1.945149040222167969e+01 1.476553454995155334e-02 6.108023643493652344e+00 1.836836695671081543e+00 1.874364614486694336e-01
7.480000000000000000e+02 4.284503555297851562e+01 1.657806205749511719e+01 4.856674075126647949e-01 6.348074436187744141e+00 2.050122499465942383e+00 9.900674223899841309e-01
7.490000000000000000e+02 4.158633804321289062e+01 1.660301780700683594e+01 1.508850455284118652e-01 7.285798549652099609e+00 2.231005191802978516e+00 6.412681341171264648e-01
7.500000000000000000e+02 4.086991119384765625e+01 1.087548923492431641e+01 7.907696366310119629e-01 9.802587509155273438e+00 3.178007125854492188e+00 2.452178001403808594e+00
7.510000000000000000e+02 4.052709579467773438e+01 6.070944786071777344e+00 2.132287263870239258e+00 8.966363906860351562e+00 3.329595327377319336e+00 3.707943201065063477e+00
7.520000000000000000e+02 3.741917419433593750e+01 2.962387084960937500e+00 2.454212665557861328e+00 7.714516162872314453e+00 3.050618648529052734e+00 4.323214530944824219e+00
7.530000000000000000e+02 3.652522659301757812e+01 1.819743871688842773e+00 5.608165264129638672e-01 4.941205024719238281e+00 1.650606393814086914e+00 2.574328899383544922e+00
7.540000000000000000e+02 3.298072433471679688e+01 -9.481098055839538574e-01 -7.569876194000244141e+00 -9.180272221565246582e-01 -2.546370983123779297e+00 -3.036166429519653320e+00
7.550000000000000000e+02 2.739808654785156250e+01 -1.988333940505981445e+00 -3.981900453567504883e+00 -2.229445278644561768e-01 -1.261453509330749512e+00 -3.604177236557006836e-01
7.560000000000000000e+02 2.277039337158203125e+01 -2.392297267913818359e+00 -7.867965102195739746e-01 4.855338856577873230e-02 -2.214729338884353638e-01 -1.706959456205368042e-01
7.570000000000000000e+02 2.191994094848632812e+01 -2.540998220443725586e+00 -6.764658689498901367e-01 -9.300356614403426647e-04 -2.032187581062316895e-01 -1.426773369312286377e-01
7.580000000000000000e+02 1.864818000793457031e+01 -2.804208040237426758e+00 -5.146068930625915527e-01 -5.404511839151382446e-02 -1.705956012010574341e-01 -5.542409420013427734e-02
7.590000000000000000e+02 2.028032112121582031e+01 -2.707501888275146484e+00 -5.693627595901489258e-01 -5.353982374072074890e-02 -1.868707686662673950e-01 -1.032350808382034302e-01
7.600000000000000000e+02 1.704978370666503906e+01 -2.751742601394653320e+00 -4.892441034317016602e-01 -3.208375349640846252e-02 -1.563983559608459473e-01 -1.779328845441341400e-02
7.610000000000000000e+02 1.546528720855712891e+01 -2.651080131530761719e+00 -4.595369398593902588e-01 -1.447208691388368607e-02 -1.422027051448822021e-01 2.494782907888293266e-03
7.620000000000000000e+02 1.241152954101562500e+01 -2.276084661483764648e+00 -3.987300097942352295e-01 1.989990472793579102e-02 -1.136490330100059509e-01 -1.260050665587186813e-02
7.630000000000000000e+02 1.315784645080566406e+01 -2.376641035079956055e+00 -4.164706170558929443e-01 1.031262241303920746e-02 -1.218473985791206360e-01 -5.764990579336881638e-03
7.640000000000000000e+02 9.472156524658203125e+00 -1.901270747184753418e+00 -3.123764693737030029e-01 3.507964313030242920e-02 -8.318904787302017212e-02 -5.027532577514648438e-02
7.650000000000000000e+02 8.667431831359863281e+00 -1.883182525634765625e+00 -2.823228240013122559e-01 2.741634845733642578e-02 -7.647193968296051025e-02 -6.174011528491973877e-02
7.660000000000000000e+02 7.855730533599853516e+00 -1.874376058578491211e+00 -2.494497299194335938e-01 1.946529373526573181e-02 -6.899533420801162720e-02 -7.463385164737701416e-02
7.670000000000000000e+02 6.229986667633056641e+00 -1.869229674339294434e+00 -1.866128891706466675e-01 5.967989563941955566e-03 -5.419347062706947327e-02 -9.160599112510681152e-02
7.680000000000000000e+02 4.607674598693847656e+00 -1.887858629226684570e+00 -1.220036670565605164e-01 -7.159487809985876083e-03 -3.874894604086875916e-02 -9.037709236145019531e-02
7.690000000000000000e+02 2.980678081512451172e+00 -1.982248783111572266e+00 -6.349709630012512207e-02 -2.398028597235679626e-02 -2.624321542680263519e-02 -7.142174988985061646e-02
7.700000000000000000e+02 3.230586767196655273e+00 -2.892579317092895508e+00 -6.970353424549102783e-02 -4.020126536488533020e-02 -3.297144174575805664e-02 -1.040809601545333862e-01
7.710000000000000000e+02 2.160091876983642578e+00 -2.068316221237182617e+00 -3.693034499883651733e-02 -3.535875305533409119e-02 -2.168672904372215271e-02 -5.356808379292488098e-02
7.720000000000000000e+02 1.323573112487792969e+00 -2.161992311477661133e+00 -1.685301586985588074e-02 -3.581540659070014954e-02 -1.580052636563777924e-02 -3.062200732529163361e-02
7.730000000000000000e+02 4.500707685947418213e-01 -2.206899881362915039e+00 -4.345379304140806198e-03 -1.919635012745857239e-02 -7.062518969178199768e-03 -1.118325628340244293e-02
7.740000000000000000e+02 2.068007469177246094e+00 -4.160899353027343750e+01 5.884956941008567810e-02 4.942552745342254639e-01 1.659314483404159546e-01 -1.676585711538791656e-02
7.750000000000000000e+02 1.002508878707885742e+00 -3.863755798339843750e+01 3.836516756564378738e-03 5.753521323204040527e-01 1.737565845251083374e-01 -3.791063278913497925e-02
7.760000000000000000e+02 6.131267547607421875e-01 -3.466001510620117188e+01 -6.423301529139280319e-03 7.567251920700073242e-01 2.250905632972717285e-01 -1.969712786376476288e-02
7.770000000000000000e+02 6.313369870185852051e-01 -3.328398132324218750e+01 -1.750454073771834373e-03 7.914119958877563477e-01 2.368984520435333252e-01 -1.031622197479009628e-02
7.780000000000000000e+02 4.578733444213867188e+00 -3.043181419372558594e+01 -2.492275834083557129e-01 1.130349934101104736e-01 -4.085777699947357178e-02 1.513415873050689697e-01
7.790000000000000000e+02 1.970596551895141602e+00 -2.763305664062500000e+01 -9.202378988265991211e-02 3.082748055458068848e-01 6.487531214952468872e-02 2.929406464099884033e-01
7.800000000000000000e+02 6.589436531066894531e-01 -2.623232460021972656e+01 -4.337585996836423874e-03 1.535160541534423828e-01 4.475354403257369995e-02 1.498471051454544067e-01
7.810000000000000000e+02 5.934184074401855469e+00 -2.501027297973632812e+01 -3.364909812808036804e-02 2.677789628505706787e-01 7.023896276950836182e-02 2.057287096977233887e-01
7.820000000000000000e+02 1.672900438308715820e+00 -2.199138450622558594e+01 6.426575034856796265e-02 -5.187917947769165039e-01 -1.363578140735626221e-01 3.547768592834472656e-01
7.830000000000000000e+02 6.120007038116455078e+00 -2.226290321350097656e+01 1.039744243025779724e-01 1.296844244003295898e+00 4.202456176280975342e-01 3.473437428474426270e-01
7.840000000000000000e+02 5.658492445945739746e-01 -2.200670814514160156e+01 1.905957609415054321e-02 -9.207024574279785156e-01 -2.704928517341613770e-01 1.317440420389175415e-01
7.850000000000000000e+02 6.421942710876464844e-01 -1.639446640014648438e+01 1.871949806809425354e-02 -1.358429074287414551e+00 -4.019128680229187012e-01 -3.009313158690929413e-02
7.860000000000000000e+02 6.382499337196350098e-01 -1.496886634826660156e+01 1.093674637377262115e-02 -1.253903508186340332e+00 -3.728900253772735596e-01 -6.198661401867866516e-02
7.870000000000000000e+02 6.259220242500305176e-01 -1.354669666290283203e+01 1.488391892053186893e-03 -1.098436355590820312e+00 -3.290843963623046875e-01 -7.541526108980178833e-02
7.880000000000000000e+02 1.867363452911376953e+00 -1.359053325653076172e+01 1.362139545381069183e-02 -7.205537557601928711e-01 -2.120797187089920044e-01 -1.914097517728805542e-01
7.890000000000000000e+02 5.700625777244567871e-01 -9.329557418823242188e+00 -3.240885445848107338e-03 -5.740091800689697266e-01 -1.731750220060348511e-01 -6.593471020460128784e-02
7.900000000000000000e+02 5.520256161689758301e-01 -7.938214778900146484e+00 -3.278056858107447624e-03 -4.173179864883422852e-01 -1.261788159608840942e-01 -5.765223503112792969e-02
7.910000000000000000e+02 4.003246307373046875e+00 -2.733243942260742188e+00 -9.627952426671981812e-02 -2.416586875915527344e-02 -3.613362088799476624e-02 -1.137545928359031677e-01
7.920000000000000000e+02 4.241258621215820312e+00 -3.467879056930541992e+00 -9.777386486530303955e-02 -3.201685100793838501e-02 -3.893721476197242737e-02 -1.411882042884826660e-01
7.930000000000000000e+02 5.643349838256835938e+01 -4.110955429077148438e+01 5.718596279621124268e-02 2.202658802270889282e-01 8.323555439710617065e-02 -1.703166961669921875e-02
7.940000000000000000e+02 3.468893814086914062e+01 -3.657368850708007812e+01 -5.915040373802185059e-01 1.989635348320007324e+00 4.194393754005432129e-01 2.073289752006530762e-01
7.950000000000000000e+02 1.212253570556640625e+01 -3.925318527221679688e+01 1.226874883286654949e-04 -2.072673439979553223e-01 -6.214339658617973328e-02 4.944162070751190186e-02
7.960000000000000000e+02 7.966544342041015625e+01 -1.545190811157226562e+01 -2.186374185839667916e-04 -2.912054696935229003e-05 -7.432739221258088946e-05 3.463344910414889455e-05
7.970000000000000000e+02 7.833388519287109375e+01 -1.533594036102294922e+01 -5.205366687732748687e-05 -3.189341077813878655e-05 -2.518412293284200132e-05 -1.484342919866321608e-05
7.980000000000000000e+02 7.695205688476562500e+01 -1.626587104797363281e+01 2.014340425375849009e-04 3.564109283615835011e-05 7.112253661034628749e-05 -1.375740102957934141e-04
7.990000000000000000e+02 7.768922424316406250e+01 -1.826224708557128906e+01 -2.081212733173742890e-04 -7.180746706580976024e-06 -6.459060386987403035e-05 3.124841532553546131e-05
8.000000000000000000e+02 7.948204040527343750e+01 -2.230830383300781250e+01 5.177234997972846031e-04 5.174076068215072155e-04 3.105393261648714542e-04 -1.684903254499658942e-04
8.010000000000000000e+02 7.828153991699218750e+01 -2.471656990051269531e+01 -5.674207932315766811e-04 3.339365648571401834e-04 -7.004526560194790363e-05 -7.642538548680022359e-05
8.020000000000000000e+02 7.943418121337890625e+01 -2.503070449829101562e+01 5.161053850315511227e-04 8.928989991545677185e-04 4.227013268973678350e-04 -1.717100967653095722e-04
8.030000000000000000e+02 7.936451721191406250e+01 -2.917093276977539062e+01 -5.391393788158893585e-04 7.718241977272555232e-05 -1.385871000820770860e-04 4.476220929063856602e-04
8.040000000000000000e+02 7.800334930419921875e+01 -3.164042282104492188e+01 -2.209465601481497288e-04 -2.650366164743900299e-03 -8.613938116468489170e-04 2.368190092965960503e-03
8.050000000000000000e+02 7.933449554443359375e+01 -3.194556045532226562e+01 -5.845448467880487442e-04 -2.707086736336350441e-03 -9.874894749373197556e-04 1.005125814117491245e-03
8.060000000000000000e+02 7.927286529541015625e+01 -3.607535171508789062e+01 4.487283295020461082e-04 -1.012108661234378815e-02 -2.901707310229539871e-03 1.289257663302123547e-03
8.070000000000000000e+02 7.899855804443359375e+01 -3.876167297363281250e+01 3.756095247808843851e-04 -1.432891003787517548e-02 -4.185989964753389359e-03 1.098650973290205002e-03
8.080000000000000000e+02 7.866114807128906250e+01 -4.012744522094726562e+01 -5.256840086076408625e-05 -1.557102799415588379e-02 -4.687078762799501419e-03 9.749050368554890156e-04
8.090000000000000000e+02 7.899892425537109375e+01 -1.538445472717285156e+01 7.121622911654412746e-05 8.834635809762403369e-05 4.786877616425044835e-05 -4.750230436911806464e-05
8.100000000000000000e+02 7.889096069335937500e+01 -1.648889541625976562e+01 -5.454065831145271659e-05 -6.390133057720959187e-05 -3.553259375621564686e-05 1.878309740277472883e-05
8.110000000000000000e+02 7.766896057128906250e+01 -1.533028602600097656e+01 1.333272521151229739e-04 2.041005973296705633e-05 4.612119300873018801e-05 -4.968741632183082402e-05
8.120000000000000000e+02 7.700370025634765625e+01 -1.533362770080566406e+01 -8.782239456195384264e-05 -1.451219577575102448e-05 -3.070037564611993730e-05 3.684021794470027089e-05
8.130000000000000000e+02 7.633664703369140625e+01 -1.533626461029052734e+01 1.442345965187996626e-04 2.993109046656172723e-05 5.224970664130523801e-05 -1.020862982841208577e-04
8.140000000000000000e+02 7.348448181152343750e+01 -1.544224834442138672e+01 1.266359322471544147e-04 3.868663770845159888e-05 4.959677244187332690e-05 1.603267264727037400e-06
8.150000000000000000e+02 7.420586395263671875e+01 -1.539391326904296875e+01 -9.582550774211995304e-06 -7.327214552788063884e-05 -2.485640834493096918e-05 3.298001684015616775e-05
8.160000000000000000e+02 7.205331420898437500e+01 -1.642349624633789062e+01 -1.752165917423553765e-05 -8.352590521099045873e-05 -3.031426786037627608e-05 -1.768927540979348123e-05
8.170000000000000000e+02 7.062805938720703125e+01 -1.576775550842285156e+01 2.170019288314506412e-04 -6.331997428787872195e-05 4.610458563547581434e-05 1.705357317405287176e-05
8.180000000000000000e+02 6.890634155273437500e+01 -1.814023399353027344e+01 3.202994121238589287e-04 1.459858904127031565e-04 1.398855820298194885e-04 -5.581807272392325103e-05
8.190000000000000000e+02 7.000717926025390625e+01 -1.594616127014160156e+01 -5.074562636764312629e-07 9.841096471063792706e-05 2.937105273304041475e-05 1.227574739459669217e-05
8.200000000000000000e+02 7.277956390380859375e+01 -1.629418945312500000e+01 1.548658183310180902e-04 1.686290488578379154e-05 5.151861478225328028e-05 3.669712168630212545e-05
8.210000000000000000e+02 6.890303039550781250e+01 -2.090427398681640625e+01 3.227127890568226576e-04 3.830387140624225140e-04 2.117254625773057342e-04 8.658485967316664755e-06
8.220000000000000000e+02 6.887743377685546875e+01 -2.232702827453613281e+01 -2.633717667777091265e-04 5.774459568783640862e-04 9.422226867172867060e-05 2.331405994482338428e-04
8.230000000000000000e+02 6.879098510742187500e+01 -2.374965286254882812e+01 3.228194836992770433e-04 1.045795157551765442e-03 4.105844127479940653e-04 1.212114511872641742e-04
8.240000000000000000e+02 6.748890686035156250e+01 -2.792075729370117188e+01 -3.311911365017294884e-03 -8.212499669753015041e-04 -1.239948440343141556e-03 -1.855357433669269085e-03
8.250000000000000000e+02 6.561894226074218750e+01 -3.030931282043457031e+01 -2.607631124556064606e-02 -4.552965983748435974e-03 -9.188783355057239532e-03 -9.153369814157485962e-03
8.260000000000000000e+02 6.310485458374023438e+01 -3.191020393371582031e+01 -7.926291227340698242e-02 -9.335139766335487366e-03 -2.657941542565822601e-02 -1.725151389837265015e-02
8.270000000000000000e+02 6.039968872070312500e+01 -3.281721496582031250e+01 -1.791436076164245605e-01 -1.344986073672771454e-02 -5.777803808450698853e-02 -7.471169810742139816e-04
8.280000000000000000e+02 5.356418991088867188e+01 -2.962213897705078125e+01 2.686131186783313751e-02 1.027704700827598572e-01 3.888953477144241333e-02 -7.840916514396667480e-02
8.290000000000000000e+02 5.066998672485351562e+01 -2.652444267272949219e+01 1.382662802934646606e-01 1.926985681056976318e-01 9.928945451974868774e-02 -1.459054052829742432e-01
8.300000000000000000e+02 4.680612564086914062e+01 -2.249881744384765625e+01 2.461428642272949219e-01 3.616870045661926270e-01 1.823489516973495483e-01 -2.758991420269012451e-01
8.310000000000000000e+02 4.581420898437500000e+01 -2.151056289672851562e+01 2.877663075923919678e-01 5.159704685211181641e-01 2.411210238933563232e-01 -3.804833889007568359e-01
8.320000000000000000e+02 4.089365386962890625e+01 -1.040410041809082031e+01 2.485063821077346802e-01 1.579842090606689453e+00 5.485045313835144043e-01 -1.033443331718444824e+00
8.330000000000000000e+02 3.948421859741210938e+01 -3.495756387710571289e+00 -3.477278053760528564e-01 4.125895500183105469e+00 1.133450388908386230e+00 2.842975616455078125e+00
8.340000000000000000e+02 4.004105377197265625e+01 -5.709572792053222656e+00 1.605105757713317871e+00 7.243673801422119141e-01 6.988419294357299805e-01 1.289360284805297852e+00
8.350000000000000000e+02 3.921809005737304688e+01 -5.270367145538330078e+00 2.445502042770385742e+00 1.829373717308044434e+00 1.282462716102600098e+00 2.713355302810668945e+00
8.360000000000000000e+02 3.964577102661132812e+01 -5.627496242523193359e+00 2.200031995773315430e+00 8.862695097923278809e-01 9.258904457092285156e-01 1.706861615180969238e+00
8.370000000000000000e+02 3.943190383911132812e+01 -5.593200206756591797e+00 2.390045642852783203e+00 1.023538589477539062e+00 1.024075269699096680e+00 1.971426129341125488e+00
8.380000000000000000e+02 3.983433914184570312e+01 -5.687983036041259766e+00 1.873242735862731934e+00 8.439241647720336914e-01 8.151500821113586426e-01 1.459127545356750488e+00
8.390000000000000000e+02 3.962722396850585938e+01 -9.046158790588378906e+00 1.367565512657165527e+00 1.269466519355773926e+00 7.911096215248107910e-01 -1.495931386947631836e+00
8.400000000000000000e+02 3.674522399902343750e+01 -8.676901817321777344e+00 8.538590669631958008e-01 1.282979488372802734e+01 4.105096340179443359e+00 -2.504886150360107422e+00
8.410000000000000000e+02 3.725273513793945312e+01 -9.052390098571777344e+00 1.096589326858520508e+00 8.869208335876464844e+00 2.989739179611206055e+00 -3.519117355346679688e+00
8.420000000000000000e+02 3.821595382690429688e+01 -8.827804565429687500e+00 2.352565050125122070e+00 4.001863479614257812e+00 1.906328558921813965e+00 -3.462450504302978516e+00
8.430000000000000000e+02 3.842662429809570312e+01 -8.838048934936523438e+00 2.290592193603515625e+00 3.294029712677001953e+00 1.675386548042297363e+00 -3.166824579238891602e+00
8.440000000000000000e+02 3.922954559326171875e+01 -8.926238059997558594e+00 1.688838362693786621e+00 1.682592153549194336e+00 1.011429190635681152e+00 -1.938505649566650391e+00
8.450000000000000000e+02 3.904787826538085938e+01 -9.227453231811523438e+00 1.687410473823547363e+00 2.333913564682006836e+00 1.206397175788879395e+00 -2.350050687789916992e+00
8.460000000000000000e+02 3.881747436523437500e+01 -8.889263153076171875e+00 2.039712667465209961e+00 2.195066690444946289e+00 1.270433902740478516e+00 -2.466582775115966797e+00
8.470000000000000000e+02 3.771762084960937500e+01 -8.926677703857421875e+00 1.897758960723876953e+00 6.644703388214111328e+00 2.562738656997680664e+00 -4.021754264831542969e+00
8.480000000000000000e+02 3.759683609008789062e+01 -9.450968742370605469e+00 1.078204989433288574e+00 6.986284732818603516e+00 2.419346809387207031e+00 -3.384071826934814453e+00
8.490000000000000000e+02 3.941238403320312500e+01 -8.962385177612304688e+00 1.522207140922546387e+00 1.503826737403869629e+00 9.078102111816406250e-01 -1.658511281013488770e+00
8.500000000000000000e+02 3.853704452514648438e+01 -9.065028190612792969e+00 2.007165670394897461e+00 3.267287254333496094e+00 1.582335829734802246e+00 -3.074232816696166992e+00
8.510000000000000000e+02 3.699349594116210938e+01 -8.690894126892089844e+00 1.316848754882812500e+00 1.113791084289550781e+01 3.736427783966064453e+00 -3.087871074676513672e+00
8.520000000000000000e+02 7.564526367187500000e+01 -1.534469318389892578e+01 -3.840077624772675335e-05 -5.303766374709084630e-05 -2.743153163464739919e-05 4.576121500576846302e-05
8.530000000000000000e+02 7.763271331787109375e+01 -1.627934455871582031e+01 -1.801587932277470827e-04 1.813667768146842718e-05 -4.860663830186240375e-05 5.561624675465282053e-06
8.540000000000000000e+02 7.953644561767578125e+01 -1.818141555786132812e+01 -3.043255710508674383e-04 9.394170047016814351e-05 -6.311516335699707270e-05 5.374881948227994144e-05
8.550000000000000000e+02 7.557159423828125000e+01 -1.619380569458007812e+01 1.838277094066143036e-04 3.112253398285247386e-05 6.448507338063791394e-05 -1.155430072685703635e-04
8.560000000000000000e+02 7.740046691894531250e+01 -7.745096683502197266e+00 -4.221417009830474854e-03 5.658946465700864792e-03 4.312588134780526161e-04 1.105707883834838867e-02
8.570000000000000000e+02 7.953254699707031250e+01 -9.725975990295410156e+00 5.666280048899352551e-04 1.810285262763500214e-02 5.600844044238328934e-03 3.717136336490511894e-03
8.580000000000000000e+02 7.846391296386718750e+01 -6.717634677886962891e+00 -2.797432476654648781e-03 2.106334082782268524e-02 5.479772575199604034e-03 6.680678110569715500e-03
8.590000000000000000e+02 7.947058868408203125e+01 -8.282809257507324219e+00 1.862987701315432787e-04 2.859626151621341705e-02 8.634768426418304443e-03 4.578244406729936600e-03
8.600000000000000000e+02 7.663032531738281250e+01 -1.060941028594970703e+01 4.605839494615793228e-03 2.773222513496875763e-04 1.464948523789644241e-03 1.313226297497749329e-02
8.610000000000000000e+02 4.065833663940429688e+01 -9.303163528442382812e+00 5.418561697006225586e-01 7.941116094589233398e-01 4.007903337478637695e-01 -6.326893568038940430e-01
8.620000000000000000e+02 3.861734771728515625e+01 -8.841423034667968750e+00 2.244044303894042969e+00 2.543256044387817383e+00 1.436190009117126465e+00 -2.809005975723266602e+00
8.630000000000000000e+02 1.854652595520019531e+01 1.011136054992675781e+00 -6.284928531385958195e-05 -8.230581443058326840e-06 -2.132396002707537264e-05 -2.954948286060243845e-05
8.640000000000000000e+02 1.774368095397949219e+01 7.307112216949462891e+00 1.542539248475804925e-04 3.163806832162663341e-05 5.576759940595366061e-05 6.286073767114430666e-05
8.650000000000000000e+02 1.852488517761230469e+01 1.938478589057922363e+00 8.989174239104613662e-05 1.891574356704950333e-05 3.264224505983293056e-05 5.410658923210576177e-05
8.660000000000000000e+02 1.730173873901367188e+01 3.565948009490966797e+00 -4.832723061554133892e-05 -8.175145194400101900e-05 -3.902360549545846879e-05 -8.074272773228585720e-05
8.670000000000000000e+02 6.197161674499511719e+00 1.891989588737487793e+00 1.558416624902747571e-05 4.534085383056662977e-05 1.827750566008035094e-05 -2.548904922150541097e-05
8.680000000000000000e+02 1.001939868927001953e+01 2.487211704254150391e+00 2.919393409683834761e-05 6.121553451521322131e-05 2.712284003791864961e-05 1.203377814817940816e-05
8.690000000000000000e+02 7.810439109802246094e+00 2.587188005447387695e+00 -1.756944948283489794e-05 -5.676927685271948576e-05 -2.230161771876737475e-05 8.556888133171014488e-06
8.700000000000000000e+02 6.928724765777587891e+00 1.879416227340698242e+00 -1.116650400945218280e-05 -5.067796519142575562e-05 -1.855334085121285170e-05 1.725911715766415000e-05
8.710000000000000000e+02 7.064961910247802734e+00 2.632791280746459961e+00 1.404111117153661326e-05 5.425305062090046704e-05 2.048824899247847497e-05 -1.646625423745717853e-05
8.720000000000000000e+02 8.719399452209472656e+00 3.248977422714233398e+00 -2.742500328167807311e-05 -6.351724732667207718e-05 -2.728267645579762757e-05 -1.108195419874391519e-06
8.730000000000000000e+02 1.982423663139343262e+00 2.571144580841064453e+00 -5.639312439598143101e-05 -7.028188520052935928e-06 -1.902639269246719778e-05 -2.457396112731657922e-05
8.740000000000000000e+02 4.042104780673980713e-01 2.093661308288574219e+00 4.485534009290859103e-05 2.254345235996879637e-05 2.021963882725685835e-05 -1.152771073975600302e-05
8.750000000000000000e+02 1.161228775978088379e+00 1.927065134048461914e+00 3.562916390364989638e-06 -3.325883517391048372e-05 -8.908776180760469288e-06 -1.209141737490426749e-05
8.760000000000000000e+02 1.136276912689208984e+01 1.649650454521179199e+00 -2.943380786746274680e-05 -5.845658961334265769e-05 -2.636711906234268099e-05 -1.716783663141541183e-05
8.770000000000000000e+02 9.453547477722167969e+00 3.219902038574218750e+00 3.174351149937137961e-05 6.419443525373935699e-05 2.878138366213534027e-05 7.883607395342551172e-06
8.780000000000000000e+02 1.392375373840332031e+01 -2.469938516616821289e+00 -4.347506165504455566e-01 4.839001223444938660e-03 -1.289734840393066406e-01 1.491291797719895840e-03
8.790000000000000000e+02 1.023452758789062500e+01 -1.962728500366210938e+00 -3.384557068347930908e-01 3.607149422168731689e-02 -9.071525931358337402e-02 -4.022054001688957214e-02
8.800000000000000000e+02 1.097456359863281250e+01 -2.837602138519287109e+00 -3.267590999603271484e-01 4.590224102139472961e-02 -8.425705879926681519e-02 -5.686205253005027771e-02
8.810000000000000000e+02 1.025478363037109375e+01 -3.529810905456542969e+00 -2.800037860870361328e-01 6.341947615146636963e-02 -6.497529149055480957e-02 -8.770613372325897217e-02
8.820000000000000000e+02 9.483977317810058594e+00 -2.694244146347045898e+00 -2.890969514846801758e-01 4.749165847897529602e-02 -7.248158752918243408e-02 -7.819013297557830811e-02
8.830000000000000000e+02 1.442930698394775391e+01 1.812751054763793945e+00 2.219636189693119377e-05 7.202039705589413643e-05 2.826502714015077800e-05 1.923015406646300107e-05
8.840000000000000000e+02 1.460766410827636719e+01 2.440702438354492188e+00 -2.564423084550071508e-05 -3.499801096040755510e-05 -1.819267345126718283e-05 -2.709601358219515532e-05
8.850000000000000000e+02 1.507678413391113281e+01 1.697338819503784180e+00 -1.811521906347479671e-05 -7.251974602695554495e-05 -2.719049007282592356e-05 -3.544973515090532601e-05
8.860000000000000000e+02 1.212397480010986328e+01 1.532398223876953125e+00 3.309035673737525940e-05 5.987978511257097125e-05 2.789104291878174990e-05 1.716123006190173328e-05
8.870000000000000000e+02 7.276423645019531250e+01 -1.552194690704345703e+01 -4.200358944217441604e-06 -6.938911246834322810e-05 -2.207684156019240618e-05 -8.053320925682783127e-06
8.880000000000000000e+02 7.352529144287109375e+01 -1.693082427978515625e+01 1.309118815697729588e-04 -3.623374141170643270e-05 2.840344131982419640e-05 4.322777749621309340e-05
8.890000000000000000e+02 7.860073852539062500e+01 -1.819098091125488281e+01 3.127148956991732121e-04 8.444493869319558144e-05 1.191479532280936837e-04 -1.011251006275415421e-04
8.900000000000000000e+02 7.417326354980468750e+01 -1.613915252685546875e+01 1.627329911570996046e-04 2.537226100685074925e-05 5.643157419399358332e-05 -5.952644278295338154e-05
8.910000000000000000e+02 7.131862640380859375e+01 -1.571820640563964844e+01 -1.298363640671595931e-04 2.071208473353181034e-05 -3.273728361818939447e-05 -3.634546737885102630e-05
8.920000000000000000e+02 7.129336547851562500e+01 -1.652057075500488281e+01 2.574819664005190134e-04 4.294189784559421241e-05 9.012716327561065555e-05 1.533344911877065897e-04
8.930000000000000000e+02 7.851395416259765625e+01 -2.079642868041992188e+01 4.236713575664907694e-04 2.118942793458700180e-04 1.906696852529421449e-04 -2.583654131740331650e-04
8.940000000000000000e+02 7.027154541015625000e+01 -1.732180213928222656e+01 3.232168091926723719e-04 1.225069718202576041e-04 1.337171415798366070e-04 3.129675314994528890e-05
8.950000000000000000e+02 7.050711822509765625e+01 -1.644687652587890625e+01 -3.148016694467514753e-04 8.168068887925983290e-08 -9.441599104320630431e-05 7.169201853685081005e-05
8.960000000000000000e+02 6.762178039550781250e+01 -8.961677551269531250e+00 9.076752699911594391e-03 1.017549727112054825e-02 5.775675177574157715e-03 -1.498702913522720337e-02
8.970000000000000000e+02 7.158418273925781250e+01 -1.123592567443847656e+01 1.457921415567398071e-02 -1.016781479120254517e-02 1.323419506661593914e-03 -3.232395509257912636e-03
8.980000000000000000e+02 6.884184265136718750e+01 -1.134113407135009766e+01 1.376895513385534286e-02 -1.743724336847662926e-03 3.607569262385368347e-03 -1.751699484884738922e-02
8.990000000000000000e+02 7.303817749023437500e+01 -1.104575634002685547e+01 1.268255058676004410e-02 -7.813712581992149353e-03 1.460651168599724770e-03 3.677068511024117470e-03
9.000000000000000000e+02 6.795100402832031250e+01 -1.006215000152587891e+01 9.291109628975391388e-03 7.069601677358150482e-03 4.908213391900062561e-03 -1.819514855742454529e-02
9.010000000000000000e+02 7.377291107177734375e+01 -1.096274662017822266e+01 9.331200271844863892e-03 -5.278213415294885635e-03 1.215896219946444035e-03 5.880721844732761383e-03
9.020000000000000000e+02 7.315634918212890625e+01 -1.173804569244384766e+01 1.657615043222904205e-02 -3.547268686816096306e-03 3.908664453774690628e-03 2.647971734404563904e-03
9.030000000000000000e+02 7.593930053710937500e+01 -1.073356723785400391e+01 7.100186776369810104e-03 -8.468505693599581718e-04 1.876000897027552128e-03 1.192293502390384674e-02
9.040000000000000000e+02 7.523208618164062500e+01 -1.081602096557617188e+01 6.900587119162082672e-03 -2.191434148699045181e-03 1.412745914421975613e-03 1.125524751842021942e-02
9.050000000000000000e+02 1.475223731994628906e+01 -3.289776325225830078e+00 -3.845306932926177979e-01 -2.989912871271371841e-03 -1.162561848759651184e-01 -1.170460041612386703e-02
9.060000000000000000e+02 1.320843124389648438e+01 -3.115910768508911133e+00 -3.671319186687469482e-01 2.270886860787868500e-02 -1.033269166946411133e-01 -2.305218763649463654e-02
9.070000000000000000e+02 1.633666610717773438e+01 -3.427127599716186523e+00 -3.997030556201934814e-01 -3.201168775558471680e-02 -1.295144259929656982e-01 -1.918938010931015015e-02
9.080000000000000000e+02 9.279953956604003906e+00 2.527474880218505859e+00 -2.813558967318385839e-05 -6.057598511688411236e-05 -2.661347207322251052e-05 -6.709828085149638355e-06
9.090000000000000000e+02 1.155387401580810547e+01 2.329278469085693359e+00 3.658343484858050942e-05 5.581192090176045895e-05 2.771860636130440980e-05 1.781014725565910339e-05
9.100000000000000000e+02 1.376714706420898438e+01 1.968525767326354980e+00 -4.023088695248588920e-05 -6.003123053233139217e-05 -3.007863597304094583e-05 -9.754005986906122416e-06
9.110000000000000000e+02 1.306004905700683594e+01 2.107747793197631836e+00 4.765468111145310104e-05 5.190605224925093353e-05 2.986821891681756824e-05 1.501791211921954527e-05
9.120000000000000000e+02 3.531490707397460938e+01 -8.001228332519531250e+00 6.114454746246337891e+00 1.034638595581054688e+01 4.938251972198486328e+00 3.502178192138671875e+00
9.130000000000000000e+02 3.674525451660156250e+01 -5.181233882904052734e+00 1.305693864822387695e+00 1.335190486907958984e+01 4.397279739379882812e+00 3.553274869918823242e+00
9.140000000000000000e+02 3.293429183959960938e+01 -5.646266937255859375e+00 3.911919832229614258e+00 1.971880435943603516e+00 1.765140056610107422e+00 -8.015742301940917969e-01
9.150000000000000000e+02 3.459716415405273438e+01 -5.454815864562988281e+00 4.264034271240234375e+00 6.603738307952880859e+00 3.260331630706787109e+00 -9.696291685104370117e-01
9.160000000000000000e+02 3.661754989624023438e+01 -1.029917716979980469e+01 2.726435475051403046e-02 8.162395477294921875e+00 2.456897974014282227e+00 -1.634730339050292969e+00
9.170000000000000000e+02 3.642319107055664062e+01 -3.625948905944824219e+00 -2.061165094375610352e+00 9.115511894226074219e+00 2.116304159164428711e+00 2.609360933303833008e+00
9.180000000000000000e+02 1.784742355346679688e+01 -2.782586574554443359e+00 -4.976757168769836426e-01 -5.467352643609046936e-02 -1.657047718763351440e-01 -3.935619443655014038e-02
9.190000000000000000e+02 1.553731727600097656e+01 -3.367506027221679688e+00 -3.900443911552429199e-01 -2.288194000720977783e-02 -1.238778978586196899e-01 -1.633057184517383575e-02
9.200000000000000000e+02 1.795460319519042969e+01 -3.495741844177246094e+00 -4.159036278724670410e-01 -6.356237083673477173e-02 -1.438398063182830811e-01 -4.904892668128013611e-02
9.210000000000000000e+02 1.714469528198242188e+01 -3.468574762344360352e+00 -4.037411510944366455e-01 -5.636390671133995056e-02 -1.380315124988555908e-01 -3.628021851181983948e-02
9.220000000000000000e+02 2.043928146362304688e+01 -3.430191755294799805e+00 -4.804666638374328613e-01 -9.390842914581298828e-02 -1.723125278949737549e-01 -1.390263587236404419e-01
9.230000000000000000e+02 2.297491073608398438e+01 -3.192186832427978516e+00 -7.517984509468078613e-01 -9.531245566904544830e-03 -2.283989042043685913e-01 -3.057421445846557617e-01
9.240000000000000000e+02 1.877153015136718750e+01 -3.503222703933715820e+00 -4.250542819499969482e-01 -8.715733140707015991e-02 -1.536634862422943115e-01 -7.711789011955261230e-02
9.250000000000000000e+02 8.706603050231933594e+00 -2.655515193939208984e+00 -2.637336552143096924e-01 4.137951508164405823e-02 -6.670624017715454102e-02 -9.023343771696090698e-02
9.260000000000000000e+02 6.337777614593505859e+00 -2.615637302398681641e+00 -1.794565320014953613e-01 9.548451751470565796e-03 -5.097242444753646851e-02 -1.189891546964645386e-01
9.270000000000000000e+02 7.042576789855957031e+00 -1.870223522186279297e+00 -2.183462381362915039e-01 1.091572176665067673e-02 -6.222915649414062500e-02 -8.532582223415374756e-02
9.280000000000000000e+02 7.918208599090576172e+00 -2.632880449295043945e+00 -2.368460297584533691e-01 3.133519738912582397e-02 -6.165325269103050232e-02 -1.019682735204696655e-01
9.290000000000000000e+02 7.127052307128906250e+00 -2.620741128921508789e+00 -2.081834524869918823e-01 2.123649418354034424e-02 -5.608408898115158081e-02 -1.125386729836463928e-01
9.300000000000000000e+02 5.418627738952636719e+00 -1.873175024986267090e+00 -1.534471362829208374e-01 -1.816528500057756901e-03 -4.657909646630287170e-02 -9.285831451416015625e-02
9.310000000000000000e+02 4.777144432067871094e+00 -2.652009487152099609e+00 -1.229302212595939636e-01 -1.242283545434474945e-02 -4.060591757297515869e-02 -1.192408949136734009e-01
9.320000000000000000e+02 1.714197397232055664e+00 -9.423693656921386719e+00 -1.051039621233940125e-02 -4.395219385623931885e-01 -1.350096911191940308e-01 -1.816644966602325439e-01
9.330000000000000000e+02 5.533050298690795898e-01 -6.549353599548339844e+00 -2.682244870811700821e-03 -2.786696851253509521e-01 -8.440557867288589478e-02 -4.975881800055503845e-02
9.340000000000000000e+02 2.914441823959350586e+00 -4.034495830535888672e+00 -5.362102389335632324e-02 -7.458727806806564331e-02 -3.846248984336853027e-02 -1.269350945949554443e-01
9.350000000000000000e+02 5.743209719657897949e-01 -3.659702062606811523e+00 -9.560741484165191650e-03 -8.077351003885269165e-02 -2.710027620196342468e-02 -3.125366941094398499e-02
9.360000000000000000e+02 2.524041557312011719e+01 -1.833927035331726074e+00 -1.434879660606384277e+00 -2.528106048703193665e-02 -4.380482137203216553e-01 -1.619391515851020813e-02
9.370000000000000000e+02 2.041256713867187500e+01 4.053380012512207031e+00 1.618366513866931200e-04 1.512221751909237355e-05 5.308766412781551480e-05 2.473796303092967719e-05
9.380000000000000000e+02 1.840360832214355469e+01 2.855566501617431641e+00 -1.008799590636044741e-04 -4.542520764516666532e-05 -4.389154855743981898e-05 -7.336898124776780605e-05
9.390000000000000000e+02 4.158475112915039062e+01 -1.553402423858642578e+00 -1.438235163688659668e+00 2.631765365600585938e+00 3.580590486526489258e-01 1.416858881711959839e-01
9.400000000000000000e+02 4.004755401611328125e+01 -5.423891544342041016e+00 1.675447940826416016e+00 8.643124699592590332e-01 7.619281411170959473e-01 1.530040860176086426e+00
9.410000000000000000e+02 5.944900035858154297e+00 -2.771712875366210938e+01 -4.425986707210540771e-01 -2.605515718460083008e-01 -2.109450697898864746e-01 3.987396657466888428e-01
9.420000000000000000e+02 3.810014343261718750e+01 -2.062341499328613281e+01 3.048192858695983887e-01 4.586678504943847656e+00 1.467449307441711426e+00 2.504273355007171631e-01
9.430000000000000000e+02 3.953310394287109375e+01 -1.366170024871826172e+01 -3.403370082378387451e-02 4.339230537414550781e+00 1.291559100151062012e+00 -1.844953298568725586e+00
9.440000000000000000e+02 7.738387584686279297e+00 -1.533325862884521484e+01 5.815036892890930176e-01 6.336904764175415039e-01 3.645582497119903564e-01 1.440124660730361938e-01
9.450000000000000000e+02 3.329095840454101562e+01 -1.694657135009765625e+01 -2.008491992950439453e+00 1.490652561187744141e+00 -1.553518623113632202e-01 -6.407029628753662109e-01
9.460000000000000000e+02 3.839094161987304688e+01 -2.367617607116699219e+01 7.513440847396850586e-01 4.071759223937988281e+00 1.446931004524230957e+00 1.409195363521575928e-01
9.470000000000000000e+02 9.783499717712402344e+00 -3.445305252075195312e+01 -1.798116564750671387e-01 -2.231974005699157715e-01 -1.209027171134948730e-01 1.218914240598678589e-01
9.480000000000000000e+02 7.353997707366943359e+00 -1.831222152709960938e+01 8.661265969276428223e-01 1.541975736618041992e+00 7.224307060241699219e-01 9.087059497833251953e-01
9.490000000000000000e+02 3.123912096023559570e+00 -1.505394935607910156e+01 1.000694110989570618e-01 -3.922395706176757812e-01 -8.765104413032531738e-02 -1.803495436906814575e-01
9.500000000000000000e+02 1.558450222015380859e+01 -1.693398666381835938e+01 6.796202659606933594e-01 5.815261229872703552e-02 2.213318645954132080e-01 -2.119859904050827026e-01
9.510000000000000000e+02 1.272894668579101562e+01 -1.495690441131591797e+01 9.635047912597656250e-01 2.437966465950012207e-01 3.621904253959655762e-01 1.309079825878143311e-01
9.520000000000000000e+02 2.842284393310546875e+01 -3.132427215576171875e+01 -2.359528392553329468e-01 1.048973500728607178e-01 -3.931664675474166870e-02 1.493985950946807861e-01
9.530000000000000000e+02 3.045182991027832031e+01 -3.216527557373046875e+01 -2.396440977463498712e-04 9.292233586311340332e-01 2.786951065063476562e-01 6.579083800315856934e-01
9.540000000000000000e+02 1.313984298706054688e+01 -3.151197242736816406e+01 -6.065099835395812988e-01 -6.743275374174118042e-02 -2.021828293800354004e-01 1.580181121826171875e-01
9.550000000000000000e+02 1.032100868225097656e+01 -3.089115333557128906e+01 -8.284794688224792480e-01 -2.966676354408264160e-01 -3.375441431999206543e-01 3.586779236793518066e-01
9.560000000000000000e+02 5.683100700378417969e+00 -1.913901519775390625e+01 5.250384807586669922e-01 8.648732304573059082e-01 4.169735014438629150e-01 5.160683393478393555e-01
9.570000000000000000e+02 3.402594375610351562e+01 -2.972069740295410156e+01 2.120340913534164429e-01 2.834731101989746094e+00 9.140295386314392090e-01 8.183274865150451660e-01
9.580000000000000000e+02 3.625618362426757812e+01 -2.542240142822265625e+01 8.946471214294433594e-01 4.891098499298095703e+00 1.735723614692687988e+00 4.648469090461730957e-01
9.590000000000000000e+02 1.140754032135009766e+01 -1.618780326843261719e+01 1.555899500846862793e+00 1.816971153020858765e-01 5.212789773941040039e-01 2.783533036708831787e-01
9.600000000000000000e+02 1.134479236602783203e+01 -1.516087913513183594e+01 1.139529705047607422e+00 2.779855132102966309e-01 4.252545535564422607e-01 2.102355062961578369e-01
9.610000000000000000e+02 1.725422096252441406e+01 -1.656272125244140625e+01 5.437317490577697754e-01 -6.202460080385208130e-02 1.445121467113494873e-01 -4.970917478203773499e-02
9.620000000000000000e+02 3.315579986572265625e+01 -2.844265174865722656e+01 1.123733282089233398e+00 2.603110551834106445e+00 1.118053197860717773e+00 1.561761736869812012e+00
9.630000000000000000e+02 3.498190307617187500e+01 -2.826468467712402344e+01 4.263403713703155518e-01 3.727627038955688477e+00 1.246190190315246582e+00 8.564673066139221191e-01
9.640000000000000000e+02 6.591058373451232910e-01 -2.764806175231933594e+01 -2.272212505340576172e-02 4.415172040462493896e-01 1.256385296583175659e-01 1.202753409743309021e-01
9.650000000000000000e+02 8.859988212585449219e+00 -1.537218284606933594e+01 6.756751537322998047e-01 7.094734907150268555e-01 4.155445694923400879e-01 3.129011392593383789e-01
9.660000000000000000e+02 5.559910535812377930e-01 -2.061609649658203125e+01 1.442106161266565323e-02 -1.205108404159545898e+00 -3.572061955928802490e-01 8.910623192787170410e-02
9.670000000000000000e+02 1.800115013122558594e+01 -1.803092956542968750e+01 3.390810489654541016e-01 -6.202384363859891891e-03 9.986359626054763794e-02 -8.757200837135314941e-02
9.680000000000000000e+02 3.284013366699218750e+01 -3.062754821777343750e+01 2.075666636228561401e-01 2.059839487075805664e+00 6.802218556404113770e-01 8.467975854873657227e-01
9.690000000000000000e+02 3.755358505249023438e+01 -2.175487136840820312e+01 4.603371620178222656e-01 4.702577114105224609e+00 1.548874258995056152e+00 3.065919876098632812e-01
9.700000000000000000e+02 1.395018768310546875e+01 -3.540605545043945312e+01 -2.500471174716949463e-01 -1.737408488988876343e-01 -1.271363943815231323e-01 1.065321862697601318e-01
9.710000000000000000e+02 1.832936096191406250e+01 -1.705710220336914062e+01 4.308900535106658936e-01 -5.500313267111778259e-02 1.127660721540451050e-01 -1.496525574475526810e-02
9.720000000000000000e+02 2.050926399230957031e+01 -1.864734840393066406e+01 1.802565306425094604e-01 -2.503292635083198547e-02 4.656708240509033203e-02 4.644454456865787506e-03
9.730000000000000000e+02 2.017262649536132812e+01 -3.191081428527832031e+01 -5.114243626594543457e-01 -7.010539993643760681e-03 -1.555304676294326782e-01 -2.780840732157230377e-02
9.740000000000000000e+02 2.300464630126953125e+01 -3.315470504760742188e+01 -3.883520662784576416e-01 7.347654551267623901e-03 -1.143013238906860352e-01 -2.923988923430442810e-02
9.750000000000000000e+02 2.055340194702148438e+01 -1.752570724487304688e+01 2.397386580705642700e-01 -6.076601892709732056e-02 5.369179323315620422e-02 8.679016679525375366e-02
9.760000000000000000e+02 2.570745277404785156e+01 -1.836899566650390625e+01 -5.259716510772705078e-01 3.070645406842231750e-02 -1.485795527696609497e-01 5.440011620521545410e-02
9.770000000000000000e+02 2.383762741088867188e+01 -1.628205871582031250e+01 -4.863779526203870773e-03 -1.045404970645904541e-01 -3.282128274440765381e-02 4.546657204627990723e-01
9.780000000000000000e+02 2.860516357421875000e+01 -1.620432281494140625e+01 -8.353095650672912598e-01 9.253742173314094543e-03 -2.478167563676834106e-01 1.142036199569702148e+00
9.790000000000000000e+02 2.893380737304687500e+01 -3.282992935180664062e+01 -7.623004913330078125e-02 4.730420112609863281e-01 1.190435886383056641e-01 4.462631046772003174e-01
9.800000000000000000e+02 2.727664184570312500e+01 -3.316769027709960938e+01 -1.803987771272659302e-01 2.195052802562713623e-01 1.173194777220487595e-02 2.211131006479263306e-01
9.810000000000000000e+02 2.556954383850097656e+01 -3.158039474487304688e+01 -4.996279776096343994e-01 2.643162943422794342e-02 -1.419589072465896606e-01 -3.842443926259875298e-03
9.820000000000000000e+02 1.493702030181884766e+01 -1.528689098358154297e+01 8.270232081413269043e-01 3.159429132938385010e-02 2.575852274894714355e-01 3.899861872196197510e-02
9.830000000000000000e+02 3.211392593383789062e+01 -1.650724601745605469e+01 -1.474631667137145996e+00 2.686207890510559082e-01 -3.618032634258270264e-01 8.265110850334167480e-02
9.840000000000000000e+02 1.969518661499023438e+00 -3.047393035888671875e+01 -7.156777381896972656e-02 4.983591735363006592e-01 1.280374228954315186e-01 8.867446333169937134e-02
9.850000000000000000e+02 6.489820480346679688e+00 -2.935846138000488281e+01 -3.978157639503479004e-01 -2.082738131284713745e-01 -1.818268746137619019e-01 2.953908741474151611e-01
9.860000000000000000e+02 2.532769775390625000e+01 -1.722648429870605469e+01 -4.357785284519195557e-01 7.003092207014560699e-03 -1.286326348781585693e-01 3.973048627376556396e-01
9.870000000000000000e+02 2.700049781799316406e+01 -1.811091423034667969e+01 -1.055488944053649902e+00 -1.561061013489961624e-02 -3.213298916816711426e-01 8.473774045705795288e-02
9.880000000000000000e+02 3.346697998046875000e+01 -1.588893604278564453e+01 -1.226474285125732422e+00 2.337510585784912109e+00 3.333108723163604736e-01 -5.389524698257446289e-01
9.890000000000000000e+02 2.310095596313476562e+01 -1.870004272460937500e+01 -2.599843218922615051e-02 -2.433182206004858017e-03 -8.529484272003173828e-03 5.877245217561721802e-02
9.900000000000000000e+02 1.757564663887023926e+00 -1.935058021545410156e+01 7.979716360569000244e-02 -7.906069755554199219e-01 -2.132429331541061401e-01 1.443635374307632446e-01
9.910000000000000000e+02 1.646492481231689453e+00 -2.068772697448730469e+01 8.687929064035415649e-02 -7.112422585487365723e-01 -1.873088926076889038e-01 2.319659739732742310e-01
9.920000000000000000e+02 1.453902816772460938e+01 -3.180129241943359375e+01 -5.689244270324707031e-01 -4.233662784099578857e-02 -1.833783239126205444e-01 1.159565821290016174e-01
9.930000000000000000e+02 1.596147155761718750e+01 -3.390999221801757812e+01 -3.947147130966186523e-01 -9.063900262117385864e-02 -1.456061154603958130e-01 6.923245638608932495e-02
9.940000000000000000e+02 1.434805679321289062e+01 -3.359290695190429688e+01 -4.144468605518341064e-01 -1.093467697501182556e-01 -1.571380943059921265e-01 1.201442703604698181e-01
9.950000000000000000e+02 1.143500423431396484e+01 -3.286686325073242188e+01 -4.502147138118743896e-01 -2.210799455642700195e-01 -2.013884037733078003e-01 2.570367753505706787e-01
9.960000000000000000e+02 1.286465072631835938e+01 -3.318647384643554688e+01 -4.414778053760528564e-01 -1.283596456050872803e-01 -1.709512472152709961e-01 1.752728819847106934e-01
9.970000000000000000e+02 3.708649063110351562e+01 -2.289912796020507812e+01 6.484494805335998535e-01 4.914442062377929688e+00 1.668867349624633789e+00 2.185943722724914551e-01
9.980000000000000000e+02 3.668862152099609375e+01 -2.411245918273925781e+01 8.997957706451416016e-01 5.288437843322753906e+00 1.856470108032226562e+00 4.040282070636749268e-01
9.990000000000000000e+02 1.975072503089904785e+00 -2.620949363708496094e+01 -6.011135131120681763e-02 1.422526240348815918e-01 2.464238181710243225e-02 3.987610936164855957e-01
1.000000000000000000e+03 2.174362182617187500e+01 -3.326451873779296875e+01 -3.964563608169555664e-01 -5.283080507069826126e-03 -1.205218359827995300e-01 -4.297879710793495178e-02
1.001000000000000000e+03 2.553281402587890625e+01 -2.967931509017944336e+00 -1.642563104629516602e+00 -1.120244413614273071e-01 -5.263762474060058594e-01 -7.130006551742553711e-01
1.002000000000000000e+03 6.226111984252929688e+01 -1.779835104942321777e+00 -9.711041450500488281e-01 3.279424831271171570e-02 -2.814929485321044922e-01 6.904902309179306030e-02
1.003000000000000000e+03 6.726173400878906250e+01 -7.725340366363525391e+00 -9.258471429347991943e-03 8.042804896831512451e-03 -3.646998375188559294e-04 -1.048377901315689087e-02
1.004000000000000000e+03 5.963869094848632812e+01 -7.832610011100769043e-01 -1.584483504295349121e+00 -1.795233786106109619e-02 -4.807307720184326172e-01 5.513259023427963257e-02
1.005000000000000000e+03 1.294598960876464844e+01 2.241359138488769531e+01 4.810404498130083084e-04 -4.252456710673868656e-05 1.315547706326469779e-04 6.423085142159834504e-05
1.006000000000000000e+03 2.114250183105468750e+01 1.778323531150817871e+00 -2.926854222096153535e-06 -5.709108336304780096e-06 -2.590788653833442368e-06 1.842345591285265982e-05
1.007000000000000000e+03 5.100559616088867188e+01 4.312864303588867188e+00 -1.980661392211914062e+00 2.368249930441379547e-02 -5.870936512947082520e-01 -1.059724211692810059e+00
1.008000000000000000e+03 1.535111713409423828e+01 1.825767135620117188e+01 -2.769084530882537365e-04 -1.422494824510067701e-05 -8.734002040000632405e-05 -3.963533890782855451e-05
1.009000000000000000e+03 1.414393234252929688e+01 1.802914237976074219e+01 3.029182844329625368e-04 -4.764352070196764544e-06 8.944618457462638617e-05 3.620210918597877026e-05
1.010000000000000000e+03 6.487098693847656250e+01 -3.075943470001220703e+00 -4.710540771484375000e-01 7.872874289751052856e-02 -1.176976040005683899e-01 4.787261411547660828e-02
1.011000000000000000e+03 2.721041107177734375e+01 3.849754333496093750e+01 -1.044967491179704666e-02 -1.883399859070777893e-02 -8.785102516412734985e-03 5.396667495369911194e-02
1.012000000000000000e+03 5.327507781982421875e+01 1.118918418884277344e+00 -2.903722763061523438e+00 2.329128682613372803e-01 -8.012429475784301758e-01 1.149065420031547546e-01
1.013000000000000000e+03 5.294611740112304688e+01 2.921177625656127930e+00 -2.484362125396728516e+00 2.586202025413513184e-01 -6.677225828170776367e-01 -6.292276382446289062e-01
1.014000000000000000e+03 6.354749679565429688e+01 -2.409265041351318359e+00 -6.915140748023986816e-01 5.275547504425048828e-02 -1.916275769472122192e-01 4.594015702605247498e-02
1.015000000000000000e+03 6.095460510253906250e+01 -1.239578366279602051e+00 -1.291548609733581543e+00 -5.771968979388475418e-03 -3.891961574554443359e-01 5.184453353285789490e-02
1.016000000000000000e+03 5.703204727172851562e+01 -2.159193158149719238e-02 -2.114146947860717773e+00 -1.440296880900859833e-02 -6.385649442672729492e-01 1.714593544602394104e-02
1.017000000000000000e+03 5.832719039916992188e+01 -3.863629102706909180e-01 -1.899310708045959473e+00 -4.542181268334388733e-02 -5.834197402000427246e-01 2.521081827580928802e-02
1.018000000000000000e+03 4.996312332153320312e+01 3.171881675720214844e+00 -3.308658599853515625e+00 -1.179652214050292969e-01 -1.027987122535705566e+00 -9.049423336982727051e-01
1.019000000000000000e+03 7.219832611083984375e+01 -1.042203330993652344e+01 8.380044251680374146e-03 -1.265318598598241806e-02 -1.281942473724484444e-03 4.516617336776107550e-04
1.020000000000000000e+03 2.837983894348144531e+01 4.116453552246093750e+01 6.756178289651870728e-02 -5.228015780448913574e-02 4.584488458931446075e-03 3.548577055335044861e-02
1.021000000000000000e+03 6.666629028320312500e+01 -9.452278137207031250e+00 6.440983619540929794e-03 3.665083646774291992e-02 1.292754616588354111e-02 -2.432611770927906036e-02
1.022000000000000000e+03 2.355615234375000000e+01 3.847545623779296875e+01 -4.825592041015625000e-03 -3.973890270572155714e-04 -1.566894236020743847e-03 8.016305975615978241e-03
1.023000000000000000e+03 1.858676528930664062e+01 3.201283264160156250e+01 6.083375192247331142e-04 2.873243647627532482e-04 2.686985826585441828e-04 1.326250145211815834e-03
1.024000000000000000e+03 1.553797817230224609e+01 3.020787811279296875e+01 1.471792813390493393e-03 -1.342947216471657157e-04 4.012494464404881001e-04 1.328989164903759956e-04
1.025000000000000000e+03 1.613699340820312500e+01 1.112287616729736328e+01 -1.941029477166011930e-04 -4.069109490956179798e-05 -7.043821096885949373e-05 -8.468319720122963190e-05
1.026000000000000000e+03 1.568347167968750000e+01 1.245653057098388672e+01 2.140591095667332411e-04 2.953760667878668755e-05 7.307901250896975398e-05 9.411235805600881577e-05
1.027000000000000000e+03 1.849945259094238281e+01 3.329547119140625000e+01 5.277044256217777729e-04 -1.636554661672562361e-04 1.092146776500158012e-04 4.331638338044285774e-04
1.028000000000000000e+03 1.405731487274169922e+01 1.952612876892089844e+01 -3.300993994344025850e-04 1.093947685149032623e-05 -9.574797877576202154e-05 -4.110869485884904861e-05
1.029000000000000000e+03 1.523827552795410156e+01 1.380182933807373047e+01 -2.416969800833612680e-04 -1.330860595771810040e-05 -7.650168117834255099e-05 -9.975190914701670408e-05
1.030000000000000000e+03 1.880069923400878906e+01 4.999210357666015625e+00 1.347415527561679482e-04 3.326209116494283080e-05 5.040109317633323371e-05 5.512443385669030249e-05
1.031000000000000000e+03 1.454903125762939453e+01 2.702472114562988281e+01 6.500020390376448631e-04 3.729207310243509710e-05 2.061882260022684932e-04 2.697074160096235573e-05
1.032000000000000000e+03 1.917654991149902344e+01 3.944579362869262695e+00 -1.370350946672260761e-04 -4.022911889478564262e-05 -5.317926479619927704e-05 -5.344340388546697795e-05
1.033000000000000000e+03 1.404971027374267578e+01 2.100640869140625000e+01 3.721578395925462246e-04 -4.105916377739049494e-05 9.932959801517426968e-05 1.904668897623196244e-05
1.034000000000000000e+03 1.820448112487792969e+01 8.917631149291992188e+00 2.059044782072305679e-04 2.922055864473804832e-05 7.053751323837786913e-05 7.353245746344327927e-05
1.035000000000000000e+03 1.607536125183105469e+01 3.005118370056152344e+00 3.649936115834861994e-05 -9.515971032669767737e-05 -1.759810584189835936e-05 4.280464963812846690e-06
1.036000000000000000e+03 7.727797698974609375e+01 -3.809367752075195312e+01 7.952655432745814323e-04 -1.170545164495706558e-02 -3.273055888712406158e-03 3.799726022407412529e-03
1.037000000000000000e+03 7.931543731689453125e+01 -3.470904159545898438e+01 -5.392975290305912495e-04 -7.465338800102472305e-03 -2.401390811428427696e-03 1.401229994371533394e-03
1.038000000000000000e+03 7.941770935058593750e+01 -2.640369987487792969e+01 -5.288681713864207268e-04 9.302562102675437927e-04 1.204164218506775796e-04 9.005394531413912773e-05
1.039000000000000000e+03 7.951020812988281250e+01 -2.095041275024414062e+01 -4.648291505873203278e-04 3.050283703487366438e-04 -4.794023334397934377e-05 2.986645813507493585e-05
1.040000000000000000e+03 7.841410064697265625e+01 -1.712002754211425781e+01 -2.764852833934128284e-04 1.062238370650447905e-04 -5.107843753648921847e-05 -1.001183045445941389e-04
1.041000000000000000e+03 7.945456695556640625e+01 -2.366868209838867188e+01 -5.303383804857730865e-04 6.746260332874953747e-04 4.328628347138874233e-05 2.546046562201809138e-05
1.042000000000000000e+03 7.825570678710937500e+01 -2.607399940490722656e+01 3.717574873007833958e-04 2.237151493318378925e-04 1.786417997209355235e-04 -5.664926356985233724e-05
1.043000000000000000e+03 7.934190368652343750e+01 -3.055706977844238281e+01 2.972545917145907879e-04 -9.993520798161625862e-04 -2.106292522512376308e-04 5.339090712368488312e-04
1.044000000000000000e+03 7.800376129150390625e+01 -3.302509307861328125e+01 -9.972368134185671806e-04 -4.348088055849075317e-03 -1.603597425855696201e-03 3.228152636438608170e-03
1.045000000000000000e+03 7.528828430175781250e+01 -3.812741851806640625e+01 2.616137033328413963e-03 -9.367629885673522949e-03 -2.025447785854339600e-03 6.295987404882907867e-03
1.046000000000000000e+03 7.918044281005859375e+01 -3.742450714111328125e+01 -2.987852203659713268e-04 -1.249152701348066330e-02 -3.837093478068709373e-03 1.306479098275303841e-03
1.047000000000000000e+03 7.652588653564453125e+01 -3.925750350952148438e+01 1.864221412688493729e-03 -1.280454825609922409e-02 -3.282098099589347839e-03 4.106429405510425568e-03
1.048000000000000000e+03 7.827896118164062500e+01 -1.627679824829101562e+01 1.519894285593181849e-04 4.899669875157997012e-05 6.029583528288640082e-05 2.526324351492803544e-06
1.049000000000000000e+03 1.430493259429931641e+01 2.546879959106445312e+01 -4.256558022461831570e-04 6.802964344387874007e-05 -1.072878440027125180e-04 1.187798261526040733e-04
1.050000000000000000e+03 1.717554473876953125e+01 8.539615631103515625e+00 -1.647425815463066101e-04 -3.519298479659482837e-05 -5.998066990287043154e-05 -6.745409336872398853e-05
1.051000000000000000e+03 1.663077163696289062e+01 9.813933372497558594e+00 1.780311868060380220e-04 3.721262328326702118e-05 6.457314157159999013e-05 7.430073310388252139e-05
1.052000000000000000e+03 1.492564582824707031e+01 2.861286926269531250e+01 -3.465570043772459030e-04 4.348669335740851238e-06 -1.026624959195032716e-04 2.247092052130028605e-04
1.053000000000000000e+03 1.479288768768310547e+01 1.516506481170654297e+01 2.751981082838028669e-04 -2.367785964452195913e-05 7.545607513748109341e-05 8.251719555119052529e-05
1.054000000000000000e+03 1.705777931213378906e+01 1.757507801055908203e+00 2.227388904429972172e-05 8.052468183450400829e-05 3.083957199123688042e-05 6.798242247896268964e-05
1.055000000000000000e+03 7.804985046386718750e+01 3.528628921508789062e+01 7.401890587061643600e-03 -1.832388758659362793e+00 -5.474960803985595703e-01 2.627159934490919113e-03
1.056000000000000000e+03 7.831817626953125000e+01 -2.675987958908081055e+00 -1.089814119040966034e-02 -4.993444774299860001e-03 -4.767475649714469910e-03 -2.187038026750087738e-02
1.057000000000000000e+03 7.814251708984375000e+01 2.876820325851440430e+00 -1.728517375886440277e-02 -1.860635727643966675e-01 -6.100462377071380615e-02 -1.009111255407333374e-01
1.058000000000000000e+03 7.808438873291015625e+01 9.857410430908203125e+00 -1.611833577044308186e-03 -6.689526438713073730e-01 -2.011693418025970459e-01 -1.747358888387680054e-01
1.059000000000000000e+03 7.809582519531250000e+01 1.678573226928710938e+01 7.747329305857419968e-03 -1.224751114845275879e+00 -3.651011586189270020e-01 -1.518928110599517822e-01
1.060000000000000000e+03 7.909800720214843750e+01 3.858480834960937500e+01 -2.891649724915623665e-03 -1.940149068832397461e+00 -5.829122066497802734e-01 2.927801012992858887e-02
1.061000000000000000e+03 7.922608184814453125e+01 3.214130401611328125e+01 -4.545036237686872482e-03 -2.027788877487182617e+00 -6.097001433372497559e-01 -1.469562994316220284e-03
1.062000000000000000e+03 7.774487304687500000e+01 2.939014816284179688e+01 1.459715049713850021e-02 -1.734324812889099121e+00 -5.159182548522949219e-01 -3.839378431439399719e-02
1.063000000000000000e+03 7.767147827148437500e+01 3.232118225097656250e+01 1.360740512609481812e-02 -1.769744157791137695e+00 -5.268410444259643555e-01 -2.514170669019222260e-02
1.064000000000000000e+03 7.931031799316406250e+01 2.511615371704101562e+01 4.994732327759265900e-03 -1.877489686012268066e+00 -5.617485046386718750e-01 -2.498013898730278015e-02
1.065000000000000000e+03 7.799044799804687500e+01 2.235374259948730469e+01 9.331724606454372406e-03 -1.548910140991210938e+00 -4.618735313415527344e-01 -1.009169295430183411e-01
1.066000000000000000e+03 7.792490386962890625e+01 2.514511489868164062e+01 9.391369298100471497e-03 -1.651843070983886719e+00 -4.927355051040649414e-01 -7.941375672817230225e-02
1.067000000000000000e+03 7.806246948242187500e+01 1.956247138977050781e+01 1.116718631237745285e-02 -1.408285379409790039e+00 -4.191354513168334961e-01 -1.267109513282775879e-01
1.068000000000000000e+03 7.935733795166015625e+01 1.954391670227050781e+01 3.872202010825276375e-03 -1.580931663513183594e+00 -4.731178581714630127e-01 -4.264017939567565918e-02
1.069000000000000000e+03 7.809272003173828125e+01 1.540149974822998047e+01 8.570118807256221771e-03 -1.121229767799377441e+00 -3.337979018688201904e-01 -1.630040705204010010e-01
1.070000000000000000e+03 7.808506774902343750e+01 1.263375186920166016e+01 4.467153921723365784e-03 -8.988754153251647949e-01 -2.683224678039550781e-01 -1.759378314018249512e-01
1.071000000000000000e+03 7.936262512207031250e+01 1.259245491027832031e+01 -1.360363676212728024e-03 -9.806434512138366699e-01 -2.946011424064636230e-01 -6.036104634404182434e-02
1.072000000000000000e+03 7.808776855468750000e+01 8.467306137084960938e+00 -8.249499835073947906e-03 -5.570315718650817871e-01 -1.695843338966369629e-01 -1.668603271245956421e-01
1.073000000000000000e+03 7.810496520996093750e+01 5.676833629608154297e+00 -1.451970450580120087e-02 -3.516800999641418457e-01 -1.098599433898925781e-01 -1.399496644735336304e-01
1.074000000000000000e+03 7.937110137939453125e+01 5.633190631866455078e+00 -1.204597720061428845e-04 -3.414393365383148193e-01 -1.024679392576217651e-01 -4.856097698211669922e-02
1.075000000000000000e+03 7.682025909423828125e+01 5.735288619995117188e+00 -2.998644486069679260e-02 -3.463205993175506592e-01 -1.128921136260032654e-01 -2.236745208501815796e-01
1.076000000000000000e+03 7.817504882812500000e+01 1.479476690292358398e+00 -1.353520620614290237e-02 -1.223141774535179138e-01 -4.075481370091438293e-02 -7.885506749153137207e-02
1.077000000000000000e+03 7.826555633544921875e+01 -1.298049449920654297e+00 -1.093480549752712250e-02 -3.208927065134048462e-02 -1.290722284466028214e-02 -3.780551627278327942e-02
1.078000000000000000e+03 7.942654418945312500e+01 -1.327713727951049805e+00 -4.153192974627017975e-03 8.267894387245178223e-03 1.234410447068512440e-03 -1.266797631978988647e-02
1.079000000000000000e+03 7.707199096679687500e+01 -1.281293272972106934e+00 -3.264550492167472839e-02 -5.515864118933677673e-02 -2.634124457836151123e-02 -6.475075334310531616e-02
1.080000000000000000e+03 7.802062225341796875e+01 -1.020143318176269531e+01 1.848527346737682819e-03 6.089975126087665558e-03 2.381550613790750504e-03 1.181965600699186325e-02
1.081000000000000000e+03 7.731263732910156250e+01 -1.036530399322509766e+01 3.640288021415472031e-03 4.553216043859720230e-03 2.458051079884171486e-03 1.289074495434761047e-02
1.082000000000000000e+03 7.812773132324218750e+01 -9.214988708496093750e+00 -2.027344453381374478e-04 9.757355786859989166e-03 2.866386435925960541e-03 1.103985775262117386e-02
1.083000000000000000e+03 3.892158126831054688e+01 5.379380702972412109e+00 2.814952373504638672e+00 1.173498439788818359e+01 4.364981174468994141e+00 5.482566833496093750e+00
1.084000000000000000e+03 4.260015106201171875e+01 9.193295836448669434e-01 -4.160587787628173828e+00 3.533504724502563477e+00 -1.881249845027923584e-01 1.214494854211807251e-01
1.085000000000000000e+03 4.254051589965820312e+01 -2.307932376861572266e+00 -4.893740415573120117e-01 1.408427476882934570e+00 2.757160365581512451e-01 2.148491591215133667e-01
1.086000000000000000e+03 3.910818481445312500e+01 -4.903744697570800781e+00 1.862138271331787109e+00 3.004995584487915039e+00 1.460140109062194824e+00 3.376799821853637695e+00
1.087000000000000000e+03 5.688805770874023438e+01 -3.490693283081054688e+01 -1.613073609769344330e-02 1.154346466064453125e-01 2.979117445647716522e-02 -4.976090788841247559e-02
1.088000000000000000e+03 5.804024124145507812e+01 -3.461496734619140625e+01 -1.523566897958517075e-02 2.881697006523609161e-02 4.074390511959791183e-03 -2.236034721136093140e-02
1.089000000000000000e+03 4.178604888916015625e+01 -1.561865425109863281e+01 3.434162437915802002e-01 5.203051567077636719e+00 1.663940310478210449e+00 -1.142299532890319824e+00
1.090000000000000000e+03 4.007947921752929688e+01 -1.552080249786376953e+01 1.290944218635559082e-01 4.423909187316894531e+00 1.365901112556457520e+00 -1.189475774765014648e+00
1.091000000000000000e+03 4.048108673095703125e+01 -5.147077083587646484e+00 1.050323247909545898e+00 1.029218077659606934e+00 6.238623857498168945e-01 1.248580694198608398e+00
1.092000000000000000e+03 2.934214401245117188e+01 3.897583389282226562e+01 -1.317608635872602463e-03 -3.497109934687614441e-02 -1.088661234825849533e-02 8.364821225404739380e-02
1.093000000000000000e+03 4.065935897827148438e+01 3.290319061279296875e+01 4.086358249187469482e-01 3.212725400924682617e+00 1.086408376693725586e+00 -8.854218125343322754e-01
1.094000000000000000e+03 3.980138015747070312e+01 3.394971466064453125e+01 2.553246915340423584e-01 2.544591665267944336e+00 8.399749398231506348e-01 -9.151858687400817871e-01
1.095000000000000000e+03 6.848691558837890625e+01 -2.857785224914550781e+01 -6.537875626236200333e-03 8.706092485226690769e-04 -1.700179884210228920e-03 -2.883220789954066277e-03
1.096000000000000000e+03 5.453463745117187500e+01 -3.065944862365722656e+01 4.547823045868426561e-04 8.575053513050079346e-02 2.586159482598304749e-02 -3.732973337173461914e-02
1.097000000000000000e+03 5.499712371826171875e+01 -3.419198608398437500e+01 -1.267861574888229370e-02 2.145228534936904907e-01 6.055326759815216064e-02 -1.303915828466415405e-01
1.098000000000000000e+03 4.293825149536132812e+01 2.859234046936035156e+01 7.265778779983520508e-01 4.652286529541015625e+00 1.613659381866455078e+00 -4.406771957874298096e-01
1.099000000000000000e+03 3.672489929199218750e+01 3.535067367553710938e+01 2.170314937829971313e-01 4.853089153766632080e-01 2.107021212577819824e-01 -3.739856779575347900e-01
1.100000000000000000e+03 3.227177810668945312e+01 3.679478836059570312e+01 -2.457689493894577026e-01 7.799328118562698364e-02 -5.033270269632339478e-02 3.171150013804435730e-02
1.101000000000000000e+03 4.130536651611328125e+01 1.375934314727783203e+01 4.575697183609008789e-01 8.425754547119140625e+00 2.664997339248657227e+00 1.504033684730529785e+00
1.102000000000000000e+03 4.296949386596679688e+01 1.802633285522460938e+01 3.190435171127319336e-01 5.926363468170166016e+00 1.873622179031372070e+00 7.509662508964538574e-01
1.103000000000000000e+03 4.046113204956054688e+01 -1.445355987548828125e+01 2.026961445808410645e-01 4.265050411224365234e+00 1.340323925018310547e+00 -1.452937483787536621e+00
1.104000000000000000e+03 4.163712310791015625e+01 3.170435523986816406e+01 4.927424192428588867e-01 3.971187591552734375e+00 1.339179039001464844e+00 -8.038883209228515625e-01
1.105000000000000000e+03 4.085055923461914062e+01 4.127646923065185547e+00 5.773113965988159180e-01 6.952111721038818359e+00 2.258826971054077148e+00 2.371299028396606445e+00
1.106000000000000000e+03 6.756460571289062500e+01 -3.315581130981445312e+01 -2.811827138066291809e-02 8.075359277427196503e-03 -6.012873258441686630e-03 1.321271620690822601e-02
1.107000000000000000e+03 2.890291213989257812e+01 -2.872486591339111328e+00 -3.451518774032592773e+00 -9.628000259399414062e-01 -1.324295639991760254e+00 -1.896511077880859375e+00
1.108000000000000000e+03 3.029814720153808594e+01 -2.717631578445434570e+00 -4.076347827911376953e+00 -1.461481809616088867e+00 -1.661348938941955566e+00 -2.445738077163696289e+00
1.109000000000000000e+03 4.036118316650390625e+01 -1.336312770843505859e+01 1.777864694595336914e-01 4.016627788543701172e+00 1.258324265480041504e+00 -1.745661854743957520e+00
1.110000000000000000e+03 4.155474090576171875e+01 -1.089508247375488281e+01 1.425641328096389771e-01 1.360110759735107422e+00 4.508024752140045166e-01 -5.088425874710083008e-01
1.111000000000000000e+03 4.054264831542968750e+01 9.421584129333496094e+00 1.278294324874877930e+00 1.096103954315185547e+01 3.671800136566162109e+00 3.207699775695800781e+00
1.112000000000000000e+03 4.361717987060546875e+01 1.222882747650146484e+01 1.375618934631347656e+00 5.805031776428222656e+00 2.154195308685302734e+00 2.064439296722412109e+00
1.113000000000000000e+03 4.117570495605468750e+01 -1.752812004089355469e+01 3.307759463787078857e-01 4.244729995727539062e+00 1.372651815414428711e+00 -6.355443596839904785e-01
1.114000000000000000e+03 4.290710449218750000e+01 -2.066047668457031250e+01 2.148166447877883911e-01 2.532350778579711914e+00 8.241502642631530762e-01 -6.519148945808410645e-01
1.115000000000000000e+03 3.834862899780273438e+01 2.319900751113891602e+00 -4.537819623947143555e-01 7.949009895324707031e+00 2.248568296432495117e+00 2.439565181732177734e+00
1.116000000000000000e+03 3.560326385498046875e+01 3.805539703369140625e+01 2.693904750049114227e-02 5.108274817466735840e-01 1.613299548625946045e-01 -2.826340794563293457e-01
1.117000000000000000e+03 3.311916351318359375e+01 3.873419189453125000e+01 3.568426147103309631e-02 1.700477749109268188e-01 6.171961128711700439e-02 -8.329951018095016479e-02
1.118000000000000000e+03 2.482534790039062500e+01 -3.986386299133300781e+00 -8.792161345481872559e-01 -2.631301581859588623e-01 -3.427038788795471191e-01 -8.087881207466125488e-01
1.119000000000000000e+03 3.446992874145507812e+01 -4.516704082489013672e+00 1.064069509506225586e+00 5.968964576721191406e+00 2.109910249710083008e+00 -5.080370306968688965e-01
1.120000000000000000e+03 3.616220474243164062e+01 -1.501701772212982178e-01 -4.110435009002685547e+00 5.308320999145507812e+00 3.593657612800598145e-01 1.183880805969238281e+00
1.121000000000000000e+03 6.659309387207031250e+01 -3.160571289062500000e+01 -2.862507291138172150e-02 4.770261235535144806e-03 -7.156443316489458084e-03 6.900875014252960682e-04
1.122000000000000000e+03 3.806673812866210938e+01 5.615285634994506836e-01 -2.859938383102416992e+00 7.515351295471191406e+00 1.396623849868774414e+00 1.827089667320251465e+00
1.123000000000000000e+03 3.745580291748046875e+01 1.253214001655578613e+00 -1.873066902160644531e+00 6.849417209625244141e+00 1.492905139923095703e+00 1.894200444221496582e+00
1.124000000000000000e+03 4.185345077514648438e+01 8.952985763549804688e+00 1.926717400550842285e+00 7.569058418273925781e+00 2.848732709884643555e+00 3.120481491088867188e+00
1.125000000000000000e+03 4.307026672363281250e+01 1.947906303405761719e+01 2.155591994524002075e-01 5.676918029785156250e+00 1.767743229866027832e+00 5.548893809318542480e-01
1.126000000000000000e+03 4.004718780517578125e+01 3.598421096801757812e+01 -2.206265330314636230e-01 2.473933935165405273e+00 6.759921908378601074e-01 -5.886034965515136719e-01
1.127000000000000000e+03 3.888562011718750000e+01 3.529371261596679688e+01 5.927177891135215759e-02 1.856320738792419434e+00 5.746777653694152832e-01 -7.266550660133361816e-01
1.128000000000000000e+03 4.174521636962890625e+01 2.519079589843750000e+01 6.414490193128585815e-02 5.522694587707519531e+00 1.676051855087280273e+00 -7.516229897737503052e-02
1.129000000000000000e+03 4.109386444091796875e+01 1.233103084564208984e+01 5.399039387702941895e-01 8.768431663513183594e+00 2.792500495910644531e+00 1.916531801223754883e+00
1.130000000000000000e+03 4.253872299194335938e+01 1.369817638397216797e+01 8.320022225379943848e-01 6.976490497589111328e+00 2.342547893524169922e+00 1.624311208724975586e+00
1.131000000000000000e+03 4.154730606079101562e+01 5.366081714630126953e+00 1.214074850082397461e+00 6.394431114196777344e+00 2.282551765441894531e+00 2.699127912521362305e+00
1.132000000000000000e+03 4.225382995605468750e+01 1.061192893981933594e+01 1.476843953132629395e+00 7.245697975158691406e+00 2.616762638092041016e+00 2.701325893402099609e+00
1.133000000000000000e+03 4.321569061279296875e+01 2.543370246887207031e+01 2.213882207870483398e-01 5.073348045349121094e+00 1.588420867919921875e+00 -1.371568441390991211e-01
1.134000000000000000e+03 4.318460845947265625e+01 2.241334342956542969e+01 1.338965445756912231e-01 5.218993663787841797e+00 1.605867028236389160e+00 2.049421966075897217e-01
1.135000000000000000e+03 4.463988113403320312e+01 2.248959732055664062e+01 2.893780171871185303e-01 4.697525024414062500e+00 1.496070981025695801e+00 2.857769429683685303e-01
1.136000000000000000e+03 4.036220550537109375e+01 -9.959383010864257812e+00 5.950369834899902344e-01 1.594460010528564453e+00 6.568490862846374512e-01 -1.307303428649902344e+00
1.137000000000000000e+03 6.100091934204101562e+01 -3.443128585815429688e+01 -5.792217329144477844e-02 -8.844695053994655609e-03 -2.003006078302860260e-02 3.147121518850326538e-02
1.138000000000000000e+03 6.332295227050781250e+01 -3.487541580200195312e+01 -3.115952201187610626e-02 3.384069941603229381e-06 -9.346841834485530853e-03 3.619925677776336670e-02
1.139000000000000000e+03 5.947254180908203125e+01 -3.470385742187500000e+01 -3.746350109577178955e-02 -1.701379381120204926e-02 -1.634318754076957703e-02 1.993841864168643951e-02
1.140000000000000000e+03 6.989823150634765625e+01 -2.413801956176757812e+01 -3.903539036400616169e-04 1.053333544405177236e-04 -8.550615893909707665e-05 5.130138015374541283e-04
1.141000000000000000e+03 5.259388351440429688e+01 -2.858664703369140625e+01 7.281284779310226440e-02 1.413939595222473145e-01 6.426203995943069458e-02 -9.681206941604614258e-02
1.142000000000000000e+03 6.908015441894531250e+01 -2.708828926086425781e+01 -2.952226437628269196e-03 -1.244554296135902405e-04 -9.230045834556221962e-04 -7.691325154155492783e-04
1.143000000000000000e+03 4.876197433471679688e+01 -2.448965263366699219e+01 1.852678656578063965e-01 2.336523979902267456e-01 1.256760805845260620e-01 -1.886965334415435791e-01
1.144000000000000000e+03 4.863423538208007812e+01 -2.646485519409179688e+01 2.392882853746414185e-01 4.527820646762847900e-01 2.076211124658584595e-01 -3.230791985988616943e-01
1.145000000000000000e+03 4.995729827880859375e+01 -3.070227050781250000e+01 8.824829757213592529e-02 5.949203372001647949e-01 2.049506008625030518e-01 -3.286343216896057129e-01
1.146000000000000000e+03 6.510655975341796875e+01 -3.274882125854492188e+01 -4.923750087618827820e-02 5.597777199000120163e-03 -1.309191714972257614e-02 1.044169347733259201e-02
1.147000000000000000e+03 6.361451721191406250e+01 -3.334452438354492188e+01 -6.527000665664672852e-02 4.285224247723817825e-03 -1.829543523490428925e-02 1.516503840684890747e-02
1.148000000000000000e+03 4.497269439697265625e+01 -2.246832084655761719e+01 3.729703426361083984e-01 1.079756975173950195e+00 4.358182251453399658e-01 -5.770331025123596191e-01
1.149000000000000000e+03 5.130405426025390625e+01 -2.967453002929687500e+01 8.453842997550964355e-02 3.384736180305480957e-01 1.269036233425140381e-01 -2.301087379455566406e-01
1.150000000000000000e+03 3.892272949218750000e+01 -1.436496543884277344e+01 -3.047098815441131592e-01 4.582967758178710938e+00 1.283477425575256348e+00 -1.683196902275085449e+00
1.151000000000000000e+03 4.951342010498046875e+01 -2.750120162963867188e+01 1.765067279338836670e-01 3.970978260040283203e-01 1.720813661813735962e-01 -3.029137849807739258e-01
1.152000000000000000e+03 5.080591964721679688e+01 -3.192238044738769531e+01 2.006368339061737061e-02 5.477905273437500000e-01 1.703562587499618530e-01 -2.980938255786895752e-01
1.153000000000000000e+03 6.888844299316406250e+01 -1.948930740356445312e+01 -2.993050147779285908e-04 1.840148324845358729e-04 -3.458705032244324684e-05 1.382320479024201632e-04
1.154000000000000000e+03 7.216156768798828125e+01 -1.727336692810058594e+01 6.290489545790478587e-05 -3.070974707952700555e-05 9.658545423008035868e-06 7.702632137807086110e-05
1.155000000000000000e+03 4.778776550292968750e+01 -2.349268913269042969e+01 1.929005384445190430e-01 2.660296857357025146e-01 1.376790702342987061e-01 -2.392299920320510864e-01
1.156000000000000000e+03 4.774504470825195312e+01 -2.545022964477539062e+01 2.568072080612182617e-01 5.113040804862976074e-01 2.304333746433258057e-01 -3.818677365779876709e-01
1.157000000000000000e+03 7.018164062500000000e+01 -2.267589950561523438e+01 5.261090118438005447e-04 1.764937624102458358e-04 2.107808395521715283e-04 1.138505976996384561e-04
1.158000000000000000e+03 7.023165893554687500e+01 -2.116602516174316406e+01 -2.950459893327206373e-04 1.370365498587489128e-04 -4.740283475257456303e-05 2.898663806263357401e-04
1.159000000000000000e+03 4.684133529663085938e+01 -2.444151306152343750e+01 3.197156190872192383e-01 6.188902854919433594e-01 2.815817594528198242e-01 -4.160677790641784668e-01
1.160000000000000000e+03 1.400045514106750488e+00 -4.000432586669921875e+01 -1.620150171220302582e-02 5.166879296302795410e-01 1.501459330320358276e-01 -5.177867412567138672e-02
1.161000000000000000e+03 8.519299626350402832e-01 3.738124847412109375e+01 -2.983149606734514236e-04 5.195969133637845516e-04 6.638458580709993839e-05 -5.711984340450726449e-05
1.162000000000000000e+03 6.318158507347106934e-01 3.322861480712890625e+01 5.530134658329188824e-04 2.563901362009346485e-04 2.428210864309221506e-04 -8.129341586027294397e-05
1.163000000000000000e+03 4.032033920288085938e+00 3.644442367553710938e+01 -4.699347773566842079e-04 2.546280738897621632e-04 -6.459201540565118194e-05 -2.457048976793885231e-04
1.164000000000000000e+03 6.333932280540466309e-01 2.625848007202148438e+01 -3.299680829513818026e-04 1.397642427036771551e-05 -9.479749860474839807e-05 4.737413291877601296e-06
1.165000000000000000e+03 1.875786423683166504e+00 2.770312500000000000e+01 -3.941964532714337111e-04 4.455079397303052247e-05 -1.048936974257230759e-04 2.249419139843666926e-06
1.166000000000000000e+03 3.158256769180297852e+00 2.499370574951171875e+01 3.478890575934201479e-04 1.703939597064163536e-05 1.094785329769365489e-04 -7.472449942724779248e-05
1.167000000000000000e+03 1.924126625061035156e+00 2.488890838623046875e+01 -2.912676136475056410e-04 6.851071702840272337e-06 -8.532495849067345262e-05 1.859128860814962536e-05
1.168000000000000000e+03 1.905693411827087402e+00 3.175445938110351562e+01 4.816814325749874115e-04 1.689831551630049944e-04 1.951993763213977218e-04 -1.086549382307566702e-04
1.169000000000000000e+03 1.894700646400451660e+00 3.306802749633789062e+01 -4.877972824033349752e-04 2.387446875218302011e-04 -7.471577555406838655e-05 -8.508910832460969687e-05
1.170000000000000000e+03 3.296062469482421875e+00 3.959804153442382812e+01 9.856837277766317129e-05 5.971875507384538651e-04 2.087267785100266337e-04 -2.132398658432066441e-04
1.171000000000000000e+03 6.208742856979370117e-01 -3.601216888427734375e+01 3.173070028424263000e-03 7.063781023025512695e-01 2.128653526306152344e-01 -2.226152457296848297e-02
1.172000000000000000e+03 7.374885082244873047e+00 -3.322467422485351562e+01 -2.079200744628906250e-01 -1.556539386510848999e-01 -1.090722009539604187e-01 9.460722655057907104e-02
1.173000000000000000e+03 6.545313000679016113e-01 -3.047801589965820312e+01 -1.223771739751100540e-02 7.565954923629760742e-01 2.233073413372039795e-01 3.287821263074874878e-02
1.174000000000000000e+03 3.278913021087646484e+00 -2.619575119018554688e+01 -1.315521001815795898e-01 1.657854169607162476e-01 1.026999205350875854e-02 4.963509738445281982e-01
1.175000000000000000e+03 1.928840637207031250e+00 -1.649514770507812500e+01 6.821660697460174561e-02 -8.153433799743652344e-01 -2.241380214691162109e-01 -7.411054521799087524e-02
1.176000000000000000e+03 6.083409786224365234e-01 -2.340415000915527344e+01 1.009917538613080978e-02 -5.575860738754272461e-01 -1.642460674047470093e-01 1.669605970382690430e-01
1.177000000000000000e+03 6.592888832092285156e-01 1.915341567993164062e+01 1.740781881380826235e-04 -1.014889403450069949e-05 4.917879050481133163e-05 1.712321818558848463e-06
1.178000000000000000e+03 1.994879484176635742e+00 2.200519371032714844e+01 -2.243831841042265296e-04 -2.001938446483109146e-05 -7.332077075261622667e-05 9.204524758388288319e-06
1.179000000000000000e+03 5.978272557258605957e-01 1.350198554992675781e+01 1.925631804624572396e-04 -4.681673544837394729e-06 5.636444984702393413e-05 4.340427040006034076e-06
1.180000000000000000e+03 1.943845272064208984e+00 1.768630409240722656e+01 1.981052919290959835e-04 1.377838543703546748e-06 5.984494055155664682e-05 1.926083677972201258e-05
1.181000000000000000e+03 1.672700166702270508e+00 1.067329025268554688e+01 -1.841024641180410981e-04 -2.833387497958028689e-07 -5.531574061024002731e-05 -2.679411636563600041e-06
1.182000000000000000e+03 5.031611919403076172e-01 7.895777225494384766e+00 1.767096400726586580e-04 5.419565241027157754e-06 5.463876368594355881e-05 7.152385023800889030e-06
1.183000000000000000e+03 2.026752233505249023e+00 -3.679175186157226562e+01 -2.969182794913649559e-03 5.225617289543151855e-01 1.558777689933776855e-01 -5.495021119713783264e-02
1.184000000000000000e+03 5.623129010200500488e-01 5.147560119628906250e+00 1.406461960868909955e-04 1.222698847413994372e-05 4.586195791489444673e-05 2.372479684709105641e-05
1.185000000000000000e+03 5.540041327476501465e-01 1.068880367279052734e+01 1.959479704964905977e-04 -2.082974106087931432e-06 5.815950135001912713e-05 5.205767138249939308e-06
1.186000000000000000e+03 1.797688841819763184e+00 1.346549797058105469e+01 -1.972937461687251925e-04 -2.252019839943386614e-06 -5.986373071209527552e-05 -1.451488333259476349e-05
1.187000000000000000e+03 1.974585652351379395e+00 1.911820602416992188e+01 -1.988224685192108154e-04 -1.535946830699685961e-05 -6.425457831937819719e-05 -9.763692105480004102e-06
1.188000000000000000e+03 5.166864871978759766e+00 -4.029188156127929688e+01 5.333698168396949768e-02 2.148259431123733521e-01 8.044887334108352661e-02 1.033033337444067001e-02
1.189000000000000000e+03 3.696742773056030273e+00 -3.886250305175781250e+01 9.206837043166160583e-03 3.870700895786285400e-01 1.188830807805061340e-01 -4.053063318133354187e-02
1.190000000000000000e+03 4.415185451507568359e+00 -3.499475097656250000e+01 -4.385169595479965210e-02 2.353962510824203491e-01 5.746336653828620911e-02 -1.816722564399242401e-02
1.191000000000000000e+03 1.960210442543029785e+00 -3.188371276855468750e+01 -4.362634196877479553e-02 5.363427996635437012e-01 1.478149443864822388e-01 1.899372786283493042e-02
1.192000000000000000e+03 4.491726398468017578e+00 -2.900400161743164062e+01 -3.286427259445190430e-01 7.179765403270721436e-02 -7.705351710319519043e-02 2.782230973243713379e-01
1.193000000000000000e+03 3.274322032928466797e+00 -2.465947914123535156e+01 -3.219003602862358093e-02 1.145786419510841370e-01 2.471658214926719666e-02 5.652578473091125488e-01
1.194000000000000000e+03 1.944162487983703613e+00 -2.476382446289062500e+01 -7.688991259783506393e-03 -7.592783123254776001e-02 -2.508504688739776611e-02 4.313118159770965576e-01
1.195000000000000000e+03 3.511456727981567383e+00 -2.132759666442871094e+01 1.834035664796829224e-01 4.259091615676879883e-02 6.779834628105163574e-02 4.490931332111358643e-01
1.196000000000000000e+03 4.477740764617919922e+00 -1.859497642517089844e+01 3.968730270862579346e-01 2.114908397197723389e-01 1.825091540813446045e-01 2.191683650016784668e-01
1.197000000000000000e+03 3.227005720138549805e+00 -1.658055114746093750e+01 1.917661875486373901e-01 -3.260675966739654541e-01 -4.029042273759841919e-02 -4.521978273987770081e-02
1.198000000000000000e+03 1.827415943145751953e+00 -1.217812538146972656e+01 5.273538641631603241e-03 -6.364687681198120117e-01 -1.893585622310638428e-01 -2.032206952571868896e-01
1.199000000000000000e+03 6.096186041831970215e-01 -1.213333415985107422e+01 8.756888564676046371e-05 -9.228203892707824707e-01 -2.768198549747467041e-01 -7.691228389739990234e-02
1.200000000000000000e+03 1.655562877655029297e+00 -6.788917064666748047e+00 -1.315222587436437607e-02 -2.511211633682250977e-01 -7.928201556205749512e-02 -1.384534686803817749e-01
1.201000000000000000e+03 1.598600029945373535e+00 -3.495131969451904297e+00 -2.180338464677333832e-02 -8.152142167091369629e-02 -3.099744208157062531e-02 -7.098998129367828369e-02
1.202000000000000000e+03 6.105467081069946289e-01 -5.129992008209228516e+00 -1.717129838652908802e-03 -1.605172157287597656e-01 -4.867030307650566101e-02 -4.443062096834182739e-02
1.203000000000000000e+03 3.405566024780273438e+01 -5.907874107360839844e+00 5.331511497497558594e+00 4.790599822998046875e+00 3.036633253097534180e+00 -6.890475153923034668e-01
1.204000000000000000e+03 3.799971771240234375e+01 -8.770308494567871094e+00 2.374079942703247070e+00 4.898303985595703125e+00 2.181715250015258789e+00 -3.808309793472290039e+00
1.205000000000000000e+03 3.903049468994140625e+01 -8.920610427856445312e+00 1.889018058776855469e+00 1.868374586105346680e+00 1.127217769622802734e+00 -2.153430461883544922e+00
1.206000000000000000e+03 3.625883865356445312e+01 -9.131352424621582031e+00 1.029440879821777344e+00 1.079045963287353516e+01 3.545970201492309570e+00 -2.953260242938995361e-01
1.207000000000000000e+03 3.780699539184570312e+01 -8.713379859924316406e+00 2.371407270431518555e+00 5.678440570831298828e+00 2.414954423904418945e+00 -4.117152690887451172e+00
1.208000000000000000e+03 3.668683242797851562e+01 -9.167049407958984375e+00 5.679217576980590820e-01 1.114294910430908203e+01 3.513261318206787109e+00 -1.765967965126037598e+00
1.209000000000000000e+03 3.913367843627929688e+01 -1.021276760101318359e+01 8.906680941581726074e-01 3.218821525573730469e+00 1.232846856117248535e+00 -2.442388296127319336e+00
1.210000000000000000e+03 3.831539916992187500e+01 -5.159573554992675781e+00 2.884305000305175781e+00 4.468674659729003906e+00 2.205893993377685547e+00 4.910662174224853516e+00
1.211000000000000000e+03 3.903037261962890625e+01 -5.538110733032226562e+00 2.717800855636596680e+00 1.766113162040710449e+00 1.345174193382263184e+00 2.757647752761840820e+00
1.212000000000000000e+03 3.769337081909179688e+01 -4.729423046112060547e+00 1.074195504188537598e+00 7.914740085601806641e+00 2.696680784225463867e+00 5.367264747619628906e+00
1.213000000000000000e+03 3.995988845825195312e+01 -2.593731403350830078e+00 -1.234216928482055664e+00 4.194485187530517578e+00 8.880804777145385742e-01 2.004531860351562500e+00
1.214000000000000000e+03 3.763570022583007812e+01 -5.127172470092773438e+00 2.088053703308105469e+00 8.073937416076660156e+00 3.048597335815429688e+00 5.678400039672851562e+00
1.215000000000000000e+03 3.982685470581054688e+01 -5.244296550750732422e+00 1.730298757553100586e+00 1.252771615982055664e+00 8.949211239814758301e-01 1.895740389823913574e+00
1.216000000000000000e+03 3.956024932861328125e+01 -4.720422744750976562e+00 1.324978232383728027e+00 2.445911169052124023e+00 1.131266832351684570e+00 2.650132179260253906e+00
1.217000000000000000e+03 4.008599853515625000e+01 -4.785041332244873047e+00 1.202683568000793457e+00 1.660918354988098145e+00 8.590805530548095703e-01 1.945529580116271973e+00
1.218000000000000000e+03 3.515853881835937500e+01 -1.072358608245849609e+00 -4.833267211914062500e+00 4.094933986663818359e+00 -2.215000241994857788e-01 6.829009652137756348e-01
1.219000000000000000e+03 3.661013412475585938e+01 -4.444867610931396484e+00 -7.409712672233581543e-01 1.018424320220947266e+01 2.832981586456298828e+00 3.063848972320556641e+00
1.220000000000000000e+03 7.626538848876953125e+01 -1.623571586608886719e+01 -8.602418529335409403e-05 -6.237028719624504447e-05 -4.451833956409245729e-05 5.013296686229296029e-05
1.221000000000000000e+03 7.858465576171875000e+01 -1.950506591796875000e+01 -3.235869808122515678e-04 1.118867076002061367e-04 -6.351008050842210650e-05 2.184556109341428964e-07
1.222000000000000000e+03 7.690720367431640625e+01 -1.721302223205566406e+01 -1.497537450632080436e-04 -5.462215995066799223e-05 -6.131277041276916862e-05 5.138005144544877112e-05
1.223000000000000000e+03 1.573158168792724609e+01 1.660217881202697754e+00 1.601873009349219501e-05 7.594273483846336603e-05 2.758843947958666831e-05 4.226233068038709462e-05
1.224000000000000000e+03 1.638893318176269531e+01 1.686279773712158203e+00 -1.000934935291297734e-05 -8.627949864603579044e-05 -2.888665403588674963e-05 -5.363973468774929643e-05
1.225000000000000000e+03 1.023720741271972656e+01 -2.756804943084716797e+00 -3.104667961597442627e-01 5.069005489349365234e-02 -7.793302088975906372e-02 -6.735798716545104980e-02
1.226000000000000000e+03 3.461245346069335938e+01 -8.494243621826171875e+00 4.853177547454833984e+00 7.321188926696777344e+00 3.652309894561767578e+00 2.859851598739624023e+00
1.227000000000000000e+03 6.948883056640625000e+01 -1.137310504913330078e+01 1.573242060840129852e-02 -3.885439829900860786e-03 3.554094117134809494e-03 -1.188043318688869476e-02
1.228000000000000000e+03 7.016158294677734375e+01 -1.135630130767822266e+01 1.434069592505693436e-02 -8.026559837162494659e-03 1.894240849651396275e-03 -1.108289789408445358e-02
1.229000000000000000e+03 6.773234558105468750e+01 -1.149864482879638672e+01 6.631777156144380569e-03 1.119419746100902557e-02 5.347792524844408035e-03 -1.608980074524879456e-02
1.230000000000000000e+03 6.754479217529296875e+01 -1.232819271087646484e+01 4.208611790090799332e-03 1.781068556010723114e-02 6.605789531022310257e-03 -9.418150410056114197e-03
1.231000000000000000e+03 7.412631988525390625e+01 -1.683650588989257812e+01 -5.404742114478722215e-05 -1.022778160404413939e-04 -4.689757042797282338e-05 9.311758185504004359e-05
1.232000000000000000e+03 7.348040771484375000e+01 -1.619221305847167969e+01 -1.275560589419910684e-05 -8.037386578507721424e-05 -2.793884050333872437e-05 2.242325354018248618e-05
1.233000000000000000e+03 3.990281677246093750e+01 -1.044601154327392578e+01 6.458695530891418457e-01 2.429075479507446289e+00 9.224835038185119629e-01 -1.889110803604125977e+00
1.234000000000000000e+03 1.830095863342285156e+01 6.126485824584960938e+00 -1.433248835382983088e-04 -3.261561505496501923e-05 -5.278215030557475984e-05 -5.929892722633667290e-05
1.235000000000000000e+03 4.070085048675537109e+00 2.725699186325073242e+00 6.821259739808738232e-05 1.798818630049936473e-05 2.586023583717178553e-05 6.105356664676264700e-09
1.236000000000000000e+03 4.816195011138916016e+00 2.745690584182739258e+00 -6.451995432144030929e-05 -2.003787813009694219e-05 -2.536734973546117544e-05 3.031306914635933936e-05
1.237000000000000000e+03 6.316022396087646484e+00 2.682051897048950195e+00 -1.585494283062871546e-05 -5.248713205219246447e-05 -2.050262264674529433e-05 2.652662442415021360e-05
1.238000000000000000e+03 5.696472167968750000e+00 3.590509891510009766e+00 -2.248203418275807053e-05 -5.432933903648518026e-05 -2.304341251146979630e-05 3.713199112098664045e-05
1.239000000000000000e+03 6.474662303924560547e+00 3.478036403656005859e+00 1.876234273368027061e-05 5.165953189134597778e-05 2.112656329700257629e-05 -2.325527566426899284e-05
1.240000000000000000e+03 1.078070163726806641e+01 2.419602870941162109e+00 -3.059772279812023044e-05 -5.774561941507272422e-05 -2.650300302775576711e-05 -1.572407200001180172e-05
1.241000000000000000e+03 7.980704307556152344e+00 3.292220115661621094e+00 1.893440821731928736e-05 6.019197826390154660e-05 2.373791539866942912e-05 -8.388899004785344005e-06
1.242000000000000000e+03 7.231928825378417969e+00 3.372063636779785156e+00 -1.716200313239824027e-05 -5.607483763014897704e-05 -2.197105277446098626e-05 1.851496381277684122e-05
1.243000000000000000e+03 4.066536903381347656e+00 3.644744634628295898e+00 -1.108208525693044066e-04 9.257614124180690851e-07 -3.296852810308337212e-05 -5.107111519464524463e-06
1.244000000000000000e+03 2.629214286804199219e+00 2.608433485031127930e+00 6.489739462267607450e-05 1.780163620423991233e-05 2.480970942997373641e-05 -2.472025926181231625e-06
1.245000000000000000e+03 1.173277568817138672e+01 3.031156778335571289e+00 -4.161249671597033739e-05 -5.777358819614164531e-05 -2.981582474603783339e-05 -2.662340921233408153e-05
1.246000000000000000e+03 1.099790859222412109e+01 -3.601050615310668945e+00 -2.936851680278778076e-01 6.275860220193862915e-02 -6.927797198295593262e-02 -7.294715940952301025e-02
1.247000000000000000e+03 1.174291324615478516e+01 -3.683574914932250977e+00 -3.023231029510498047e-01 5.327919870615005493e-02 -7.471317052841186523e-02 -6.160888448357582092e-02
1.248000000000000000e+03 1.245363616943359375e+01 -3.022588491439819336e+00 -3.546225726604461670e-01 3.035680949687957764e-02 -9.727972745895385742e-02 -3.539429232478141785e-02
1.249000000000000000e+03 9.503868103027343750e+00 -3.475266218185424805e+00 -2.638746201992034912e-01 6.293043494224548340e-02 -6.028325483202934265e-02 -1.008367761969566345e-01
1.250000000000000000e+03 1.399896335601806641e+01 2.693213939666748047e+00 5.165872789802961051e-05 4.690074274549260736e-05 2.956784010166302323e-05 1.305283149122260511e-05
1.251000000000000000e+03 1.231634235382080078e+01 2.226459980010986328e+00 -4.297492341720499098e-05 -5.439379310701042414e-05 -2.921061422966886312e-05 -1.858778159657958895e-05
1.252000000000000000e+03 7.487248992919921875e+01 -1.615324974060058594e+01 -4.373328556539490819e-05 -8.494797657476738095e-05 -3.860437936964444816e-05 5.777168917120434344e-05
1.253000000000000000e+03 7.604726409912109375e+01 -1.806033134460449219e+01 -7.240496779559180140e-05 -1.762434840202331543e-04 -7.459453627234324813e-05 4.688755871029570699e-05
1.254000000000000000e+03 7.269528198242187500e+01 -1.783990859985351562e+01 4.762911994475871325e-04 -3.172634387738071382e-05 1.333694672212004662e-04 5.172335295355878770e-05
1.255000000000000000e+03 7.015113830566406250e+01 -1.844255638122558594e+01 -2.602803579065948725e-04 -4.939451628160895780e-06 -7.956594345159828663e-05 1.451002899557352066e-04
1.256000000000000000e+03 7.239597320556640625e+01 -1.877624320983886719e+01 -1.985514390980824828e-04 -1.413622812833636999e-04 -1.019741175696253777e-04 8.653989061713218689e-05
1.257000000000000000e+03 7.286449432373046875e+01 -1.707099723815917969e+01 -1.198402824229560792e-04 -1.306475041928933933e-05 -3.987150921602733433e-05 4.241966234985738993e-05
1.258000000000000000e+03 7.450559234619140625e+01 -1.088854598999023438e+01 1.037704572081565857e-02 -4.782389849424362183e-03 1.678396714851260185e-03 9.243564680218696594e-03
1.259000000000000000e+03 7.230648803710937500e+01 -1.113980674743652344e+01 1.219109538942575455e-02 -7.816560566425323486e-03 1.312360516749322414e-03 -1.058596652001142502e-03
1.260000000000000000e+03 6.874785614013671875e+01 -9.743547439575195312e+00 1.094931084662675858e-02 -3.520201891660690308e-03 2.228732686489820480e-03 -1.503825467079877853e-02
1.261000000000000000e+03 6.951595306396484375e+01 -9.688679695129394531e+00 1.058449130505323410e-02 -1.176231354475021362e-02 -3.533465787768363953e-04 -1.008272916078567505e-02
1.262000000000000000e+03 7.084030151367187500e+01 -1.059288406372070312e+01 1.025191973894834518e-02 -1.385504938662052155e-02 -1.080938847735524178e-03 -5.799341481178998947e-03
1.263000000000000000e+03 7.362318420410156250e+01 -1.022293567657470703e+01 6.304716691374778748e-03 -9.956601075828075409e-03 -1.095565385185182095e-03 6.729842163622379303e-03
1.264000000000000000e+03 7.573542785644531250e+01 -9.992135047912597656e+00 1.873057801276445389e-03 -1.949890633113682270e-03 -2.304985719092655927e-05 1.331323385238647461e-02
1.265000000000000000e+03 6.951393127441406250e+01 -1.057716941833496094e+01 1.209233608096837997e-02 -7.104817777872085571e-03 1.496255281381309032e-03 -1.428258232772350311e-02
1.266000000000000000e+03 1.397670936584472656e+01 -3.204298019409179688e+00 -3.752487003803253174e-01 6.406361237168312073e-03 -1.106527075171470642e-01 -1.880733110010623932e-02
1.267000000000000000e+03 1.481686401367187500e+01 -4.031688213348388672e+00 -3.188675343990325928e-01 -6.115693598985671997e-03 -9.749496728181838989e-02 -2.578532695770263672e-02
1.268000000000000000e+03 1.249363613128662109e+01 -3.774124145507812500e+00 -3.104740977287292480e-01 4.581015184521675110e-02 -7.939918339252471924e-02 -4.642588645219802856e-02
1.269000000000000000e+03 1.325661468505859375e+01 -3.864499330520629883e+00 -3.140756785869598389e-01 2.908964455127716064e-02 -8.549580723047256470e-02 -3.843967616558074951e-02
1.270000000000000000e+03 1.250674247741699219e+01 2.952142477035522461e+00 5.670006430591456592e-05 4.651579365599900484e-05 3.096475847996771336e-05 2.435263195366133004e-05
1.271000000000000000e+03 1.326420974731445312e+01 2.845184564590454102e+00 -5.952897117822431028e-05 -4.677009928855113685e-05 -3.188972186762839556e-05 -1.534053262730594724e-05
1.272000000000000000e+03 1.095883560180664062e+01 3.105696678161621094e+00 3.291650136816315353e-05 6.371923518599942327e-05 2.899072205764241517e-05 1.734383658913429826e-05
1.273000000000000000e+03 1.642414093017578125e+01 -4.158732414245605469e+00 -3.196295499801635742e-01 -4.901943355798721313e-02 -1.105946898460388184e-01 -3.310278803110122681e-02
1.274000000000000000e+03 1.806545829772949219e+01 -4.220619201660156250e+00 -3.239867687225341797e-01 -9.414366632699966431e-02 -1.254391223192214966e-01 -6.598249822854995728e-02
1.275000000000000000e+03 1.734273529052734375e+01 -4.942354679107666016e+00 -2.341423928737640381e-01 -8.982708305120468140e-02 -9.719084203243255615e-02 -5.049658939242362976e-02
1.276000000000000000e+03 4.114466857910156250e+01 -4.893262863159179688e+00 6.110866069793701172e-01 8.146125078201293945e-01 4.277097284793853760e-01 9.516467452049255371e-01
1.277000000000000000e+03 1.960258102416992188e+01 -3.480489969253540039e+00 -4.513329267501831055e-01 -8.408495038747787476e-02 -1.606253683567047119e-01 -1.013693436980247498e-01
1.278000000000000000e+03 2.058288764953613281e+01 -4.168098449707031250e+00 -3.858105838298797607e-01 -1.241118311882019043e-01 -1.529767215251922607e-01 -1.712740361690521240e-01
1.279000000000000000e+03 2.226756477355957031e+01 -4.071924686431884766e+00 -5.086881518363952637e-01 -1.171717867255210876e-01 -1.877579838037490845e-01 -3.207931816577911377e-01
1.280000000000000000e+03 2.211346626281738281e+01 -3.288487911224365234e+00 -6.191099286079406738e-01 -4.719616845250129700e-02 -1.998918354511260986e-01 -2.293501645326614380e-01
1.281000000000000000e+03 7.290649414062500000e+01 -1.031988143920898438e+01 4.747251514345407486e-03 -1.023607887327671051e-02 -1.646648277528584003e-03 2.261052140966057777e-03
1.282000000000000000e+03 6.432770252227783203e+00 -3.381487369537353516e+00 -1.723516881465911865e-01 1.666740141808986664e-02 -4.670528694987297058e-02 -1.454747319221496582e-01
1.283000000000000000e+03 2.446756839752197266e+00 -3.143296957015991211e+00 -4.622355476021766663e-02 -5.864665284752845764e-02 -3.146106377243995667e-02 -9.336525946855545044e-02
1.284000000000000000e+03 3.850795030593872070e+00 -8.244100570678710938e+00 -5.717302113771438599e-02 -1.346760541200637817e-01 -5.755472555756568909e-02 -2.619687020778656006e-01
1.285000000000000000e+03 7.969172477722167969e+00 -3.413578987121582031e+00 -2.211727201938629150e-01 4.496584832668304443e-02 -5.286205932497978210e-02 -1.277419775724411011e-01
1.286000000000000000e+03 5.554126739501953125e+00 -2.621121644973754883e+00 -1.520150154829025269e-01 1.791938266251236200e-04 -4.555074870586395264e-02 -1.215670853853225708e-01
1.287000000000000000e+03 5.679474830627441406e+00 -3.374069452285766602e+00 -1.462601125240325928e-01 4.367908695712685585e-04 -4.374699667096138000e-02 -1.471422016620635986e-01
1.288000000000000000e+03 1.779524207115173340e+00 -5.523532390594482422e+00 -2.040092460811138153e-02 -1.693924218416213989e-01 -5.693800374865531921e-02 -1.189521998167037964e-01
1.289000000000000000e+03 8.739557266235351562e+00 -3.439118146896362305e+00 -2.441357672214508057e-01 5.545291304588317871e-02 -5.660485848784446716e-02 -1.148648932576179504e-01
1.290000000000000000e+03 1.561364936828613281e+01 -4.103950023651123047e+00 -3.211708366870880127e-01 -2.143781259655952454e-02 -1.027825921773910522e-01 -2.176495082676410675e-02
1.291000000000000000e+03 1.037627601623535156e+01 3.890876770019531250e+00 3.599835690692998469e-05 6.967928493395447731e-05 3.170329364365898073e-05 5.323895038600312546e-06
1.292000000000000000e+03 1.889568710327148438e+01 -4.224564552307128906e+00 -3.373155295848846436e-01 -1.045349836349487305e-01 -1.325551420450210571e-01 -8.748546987771987915e-02
1.293000000000000000e+03 2.470277786254882812e+01 -3.022542953491210938e+00 -1.214486122131347656e+00 -2.161354944109916687e-02 -3.708298802375793457e-01 -5.188236832618713379e-01
1.294000000000000000e+03 2.142436981201171875e+01 -4.121177196502685547e+00 -4.287753403186798096e-01 -1.301428824663162231e-01 -1.676754653453826904e-01 -2.359421253204345703e-01
1.295000000000000000e+03 2.070756149291992188e+01 -4.928448200225830078e+00 -2.550612688064575195e-01 -1.891808658838272095e-01 -1.332726478576660156e-01 -2.050333619117736816e-01
1.296000000000000000e+03 3.802405166625976562e+01 -3.431825637817382812e+00 -1.323092460632324219e+00 7.020693302154541016e+00 1.709280252456665039e+00 3.812093496322631836e+00
1.297000000000000000e+03 4.173144912719726562e+01 -9.664678573608398438e+00 2.368855476379394531e-02 -2.668983936309814453e-01 -7.296295464038848877e-02 -9.038767963647842407e-02
1.298000000000000000e+03 3.383083343505859375e+01 -8.201579093933105469e+00 5.334669113159179688e+00 4.822629451751708984e+00 3.047189474105834961e+00 2.399242639541625977e+00
1.299000000000000000e+03 3.535576629638671875e+01 -9.304154396057128906e+00 1.671434521675109863e+00 9.879527091979980469e+00 3.465288400650024414e+00 1.549748659133911133e+00
1.300000000000000000e+03 3.540541839599609375e+01 -4.279061794281005859e+00 -2.467584162950515747e-01 8.557841300964355469e+00 2.493324756622314453e+00 3.361762464046478271e-01
1.301000000000000000e+03 2.050975799560546875e+01 -1.643121147155761719e+01 3.233806490898132324e-01 -1.254668831825256348e-01 5.937413498759269714e-02 1.418328136205673218e-01
1.302000000000000000e+03 2.291852760314941406e+01 -1.753569221496582031e+01 9.101849980652332306e-03 -4.101295769214630127e-02 -9.573332034051418304e-03 2.058553099632263184e-01
1.303000000000000000e+03 6.684793853759765625e+01 -6.389496803283691406e+00 -4.457646235823631287e-02 4.536275286227464676e-03 -1.201205607503652573e-02 1.486935745924711227e-02
1.304000000000000000e+03 5.885939407348632812e+01 6.158661246299743652e-01 -1.618558406829833984e+00 3.591594845056533813e-02 -4.747927486896514893e-01 -2.143812030553817749e-01
1.305000000000000000e+03 5.382642745971679688e+01 4.100520610809326172e+00 -1.697769761085510254e+00 1.925534754991531372e-01 -4.515648782253265381e-01 -7.944784164428710938e-01
1.306000000000000000e+03 1.868858337402343750e+01 -1.618835449218750000e+01 4.632278680801391602e-01 -1.240137368440628052e-01 1.017642393708229065e-01 5.863588303327560425e-02
1.307000000000000000e+03 2.868255615234375000e+01 -1.459050941467285156e+01 7.117491960525512695e-02 -5.409394204616546631e-02 5.124292336404323578e-03 1.233141779899597168e+00
1.308000000000000000e+03 2.761988639831542969e+01 -1.661632347106933594e+01 -1.138300180435180664e+00 5.445491895079612732e-02 -3.251535892486572266e-01 7.686405777931213379e-01
1.309000000000000000e+03 1.781896400451660156e+01 -1.564475440979003906e+01 5.712012648582458496e-01 -1.181656494736671448e-01 1.359106898307800293e-01 5.978934839367866516e-02
1.310000000000000000e+03 2.251177787780761719e+01 -1.530745601654052734e+01 2.845926284790039062e-01 -2.204209268093109131e-01 1.925151608884334564e-02 4.128511548042297363e-01
1.311000000000000000e+03 1.152793693542480469e+01 1.783190345764160156e+01 2.829407749231904745e-04 2.251901059935335070e-05 9.163793583866208792e-05 -7.903634104877710342e-05
1.312000000000000000e+03 2.565169906616210938e+01 -3.319350433349609375e+01 -2.899100780487060547e-01 1.020457297563552856e-01 -5.635929852724075317e-02 7.766196876764297485e-02
1.313000000000000000e+03 2.453210830688476562e+01 -1.498718261718750000e+01 1.858140230178833008e-01 -2.393508553504943848e-01 -1.606105268001556396e-02 6.900405287742614746e-01
1.314000000000000000e+03 1.920071601867675781e+01 -3.375044250488281250e+01 -3.953687548637390137e-01 -4.668613895773887634e-02 -1.326164752244949341e-01 4.823726136237382889e-03
1.315000000000000000e+03 1.991880607604980469e+01 -3.548962783813476562e+01 -2.537121772766113281e-01 -7.105226069688796997e-02 -9.742933511734008789e-02 3.392784157767891884e-03
1.316000000000000000e+03 8.063271045684814453e-01 3.039729833602905273e+00 5.948610851191915572e-05 -1.029232771543320268e-05 1.475813405704684556e-05 6.190707063069567084e-05
1.317000000000000000e+03 5.358988046646118164e-01 3.851731777191162109e+00 -1.314215769525617361e-04 -1.269332460651639849e-05 -4.323446773923933506e-05 -3.398265471332706511e-05
1.318000000000000000e+03 3.756879043579101562e+01 -1.718651962280273438e+01 -9.931218624114990234e-01 4.770607948303222656e+00 1.133245944976806641e+00 -4.513606727123260498e-01
1.319000000000000000e+03 3.866083145141601562e+01 -1.492900371551513672e+01 -4.132862091064453125e-01 4.648567199707031250e+00 1.270584225654602051e+00 -1.503540515899658203e+00
1.320000000000000000e+03 2.277029609680175781e+01 -3.567826080322265625e+01 -2.101660221815109253e-01 5.361878126859664917e-02 -4.696417227387428284e-02 1.750878058373928070e-02
1.321000000000000000e+03 2.546368026733398438e+01 -3.484018325805664062e+01 -1.915808618068695068e-01 1.908026486635208130e-01 -2.334650052944198251e-04 1.239135488867759705e-01
1.322000000000000000e+03 1.418518447875976562e+01 1.341980457305908203e+01 2.053931093541905284e-04 1.215007341670570895e-05 6.526295328512787819e-05 1.201624909299425781e-04
1.323000000000000000e+03 1.682434272766113281e+01 -1.502898406982421875e+01 6.356739997863769531e-01 -9.519988298416137695e-02 1.621422469615936279e-01 8.820597827434539795e-02
1.324000000000000000e+03 2.598825836181640625e+01 -1.580305480957031250e+01 -2.716395556926727295e-01 -8.373750746250152588e-02 -1.066131144762039185e-01 8.071996569633483887e-01
1.325000000000000000e+03 2.130645179748535156e+01 -3.454458999633789062e+01 -2.964037358760833740e-01 -2.409744635224342346e-02 -9.615036100149154663e-02 -2.033124864101409912e-02
1.326000000000000000e+03 1.248041057586669922e+01 -3.475743865966796875e+01 -2.647415995597839355e-01 -2.008307576179504395e-01 -1.396717131137847900e-01 1.653748601675033569e-01
1.327000000000000000e+03 1.919880986213684082e+00 -3.326584243774414062e+01 -2.479877695441246033e-02 5.584966540336608887e-01 1.601093560457229614e-01 -2.089490555226802826e-02
1.328000000000000000e+03 4.744352722167968750e+01 -2.743400001525878906e+01 2.356807142496109009e-01 7.577556967735290527e-01 2.980309128761291504e-01 -4.803829789161682129e-01
1.329000000000000000e+03 7.151416778564453125e+01 -1.052932071685791016e+01 8.345825597643852234e-03 -1.218965649604797363e-02 -1.153149409219622612e-03 -4.303436260670423508e-03
1.330000000000000000e+03 7.407420349121093750e+01 -3.866682434082031250e+01 5.472799763083457947e-03 -8.965928107500076294e-03 -1.047938596457242966e-03 6.484651006758213043e-03
1.331000000000000000e+03 7.509718322753906250e+01 -3.512815475463867188e+01 -1.045087119564414024e-03 -4.989798646420240402e-03 -1.810465822927653790e-03 8.172352798283100128e-03
1.332000000000000000e+03 7.641980743408203125e+01 -3.643970489501953125e+01 2.519922563806176186e-04 -8.393164724111557007e-03 -2.442351542413234711e-03 6.134763360023498535e-03
1.333000000000000000e+03 7.808370208740234375e+01 -2.882153701782226562e+01 4.118841843592235819e-06 -5.406530690379440784e-04 -1.609602768439799547e-04 9.125471115112304688e-04
1.334000000000000000e+03 7.842754364013671875e+01 -2.209056282043457031e+01 -4.312317760195583105e-04 2.393545728409662843e-04 -5.756316022598184645e-05 -6.507162470370531082e-05
1.335000000000000000e+03 7.708103942871093750e+01 -2.440999794006347656e+01 4.646271117962896824e-04 -1.714279351290315390e-04 8.795975008979439735e-05 -2.123692247550934553e-04
1.336000000000000000e+03 7.668369293212890625e+01 -3.140620994567871094e+01 -2.063347725197672844e-03 -2.192133804783225060e-03 -1.276644528843462467e-03 3.467954229563474655e-03
1.337000000000000000e+03 7.734004974365234375e+01 -2.182025337219238281e+01 4.507100384216755629e-04 5.205153502174653113e-05 1.508284767623990774e-04 -3.954081912524998188e-04
1.338000000000000000e+03 7.713833618164062500e+01 -2.307551002502441406e+01 -4.945655236952006817e-04 9.993201501856674440e-07 -1.480698556406423450e-04 -5.442287874757312238e-05
1.339000000000000000e+03 7.796889495849609375e+01 -3.437749099731445312e+01 2.451449690852314234e-04 -6.445994134992361069e-03 -1.860254793427884579e-03 3.628237172961235046e-03
1.340000000000000000e+03 7.818772888183593750e+01 -2.744879913330078125e+01 -8.640750311315059662e-04 2.354844582441728562e-05 -2.521579735912382603e-04 4.055042518302798271e-04
1.341000000000000000e+03 7.665797424316406250e+01 -2.990085411071777344e+01 -1.005692407488822937e-03 -1.249095657840371132e-03 -6.764364079572260380e-04 2.302428707480430603e-03
1.342000000000000000e+03 7.765540313720703125e+01 -1.722722434997558594e+01 3.095681313425302505e-04 2.644376763782929629e-05 1.008035687846131623e-04 -1.657051616348326206e-04
1.343000000000000000e+03 7.700756835937500000e+01 -2.707488059997558594e+01 -6.126514199422672391e-05 -3.248083521611988544e-04 -1.158220475190319121e-04 4.087162087671458721e-04
1.344000000000000000e+03 7.713475799560546875e+01 -2.576497459411621094e+01 -9.222866501659154892e-04 -6.370885967044159770e-05 -2.957986434921622276e-04 5.126101314090192318e-05
1.345000000000000000e+03 7.677053833007812500e+01 -2.841544914245605469e+01 -1.713879290036857128e-03 -6.082818727008998394e-04 -6.966483779251575470e-04 1.240306883119046688e-03
1.346000000000000000e+03 7.652722167968750000e+01 -3.532839202880859375e+01 5.224343622103333473e-04 -7.139278575778007507e-03 -1.985053298994898796e-03 6.248627323657274246e-03
1.347000000000000000e+03 7.540338897705078125e+01 -3.384979248046875000e+01 -1.408955082297325134e-03 -3.749917726963758469e-03 -1.547661842778325081e-03 7.567904423922300339e-03
1.348000000000000000e+03 7.669986724853515625e+01 -3.277900695800781250e+01 -9.461043518967926502e-04 -3.449863288551568985e-03 -1.318790251389145851e-03 4.617123398929834366e-03
1.349000000000000000e+03 7.510540771484375000e+01 -4.051243972778320312e+01 3.917600493878126144e-03 -1.089761219918727875e-02 -2.094003604725003242e-03 3.758852137252688408e-03
1.350000000000000000e+03 7.550079345703125000e+01 9.989870071411132812e+00 -1.396771147847175598e-02 -5.697749257087707520e-01 -1.751227825880050659e-01 -3.599514663219451904e-01
1.351000000000000000e+03 7.680065155029296875e+01 8.531918525695800781e+00 -1.519328169524669647e-02 -5.256379246711730957e-01 -1.622493565082550049e-01 -2.633704841136932373e-01
1.352000000000000000e+03 7.552389526367187500e+01 1.679303932189941406e+01 4.032620415091514587e-02 -9.721186161041259766e-01 -2.795377075672149658e-01 -3.114425837993621826e-01
1.353000000000000000e+03 7.681263732910156250e+01 1.542918491363525391e+01 1.710929535329341888e-02 -1.006771445274353027e+00 -2.968986332416534424e-01 -2.531008422374725342e-01
1.354000000000000000e+03 7.652164459228515625e+01 2.517875862121582031e+01 2.790769562125205994e-02 -1.436947345733642578e+00 -4.227119088172912598e-01 -1.225533708930015564e-01
1.355000000000000000e+03 7.659835052490234375e+01 2.237731170654296875e+01 2.996950969099998474e-02 -1.357603669166564941e+00 -3.982902467250823975e-01 -1.601535379886627197e-01
1.356000000000000000e+03 7.431777954101562500e+01 3.270259094238281250e+01 3.491175547242164612e-02 -1.237780570983886719e+00 -3.608606457710266113e-01 -5.363893881440162659e-02
1.357000000000000000e+03 7.623393249511718750e+01 2.943164825439453125e+01 2.740965597331523895e-02 -1.483390331268310547e+00 -4.367942214012145996e-01 -6.729318201541900635e-02
1.358000000000000000e+03 7.516033172607421875e+01 3.660281372070312500e+01 3.407099843025207520e-02 -1.409165263175964355e+00 -4.125282764434814453e-01 -4.984015598893165588e-02
1.359000000000000000e+03 7.669506072998046875e+01 3.586204147338867188e+01 3.479159250855445862e-02 -1.668239593505859375e+00 -4.900344014167785645e-01 1.546129956841468811e-02
1.360000000000000000e+03 7.622709655761718750e+01 3.418291854858398438e+01 3.057879209518432617e-02 -1.561699748039245605e+00 -4.593362808227539062e-01 -3.721721842885017395e-02
1.361000000000000000e+03 7.638410186767578125e+01 2.798839378356933594e+01 3.124855831265449524e-02 -1.482988119125366211e+00 -4.355218708515167236e-01 -8.023656159639358521e-02
1.362000000000000000e+03 7.667459869384765625e+01 2.096617698669433594e+01 3.121495991945266724e-02 -1.308123111724853516e+00 -3.830724358558654785e-01 -1.808191239833831787e-01
1.363000000000000000e+03 7.680435180664062500e+01 1.405130767822265625e+01 1.395080424845218658e-02 -9.144620895385742188e-01 -2.701534032821655273e-01 -2.668509483337402344e-01
1.364000000000000000e+03 7.686431884765625000e+01 2.911314249038696289e+00 -3.667664527893066406e-02 -1.989547908306121826e-01 -7.068943232297897339e-02 -1.622990965843200684e-01
1.365000000000000000e+03 7.837784576416015625e+01 -4.040199279785156250e+00 -6.320748943835496902e-03 1.132259611040353775e-02 1.500554033555090427e-03 -8.653782308101654053e-03
1.366000000000000000e+03 7.488486480712890625e+01 -9.265789985656738281e+00 -3.793245414271950722e-03 -7.019751239567995071e-03 -3.243898972868919373e-03 1.026033703237771988e-02
1.367000000000000000e+03 7.690135955810546875e+01 -9.590616226196289062e+00 -3.127011004835367203e-04 1.601241528987884521e-03 3.865621401928365231e-04 1.330112665891647339e-02
1.368000000000000000e+03 7.736012268066406250e+01 -5.309591770172119141e+00 -1.246223319321870804e-02 -1.055135580827482045e-04 -3.770323935896158218e-03 -3.547114087268710136e-03
1.369000000000000000e+03 7.433804321289062500e+01 -1.013523197174072266e+01 2.469650236889719963e-03 -6.597220432013273239e-03 -1.238271011970937252e-03 8.587881922721862793e-03
1.370000000000000000e+03 7.855503845214843750e+01 3.659756088256835938e+01 8.740964345633983612e-03 -1.912400245666503906e+00 -5.710977911949157715e-01 2.344829961657524109e-02
1.371000000000000000e+03 7.715927886962890625e+01 -2.655843496322631836e+00 -2.366971038281917572e-02 -2.943798154592514038e-02 -1.593230664730072021e-02 -3.829504549503326416e-02
1.372000000000000000e+03 7.811872863769531250e+01 4.278826713562011719e+00 -1.239664666354656219e-02 -2.639949619770050049e-01 -8.291748166084289551e-02 -1.218816041946411133e-01
1.373000000000000000e+03 7.691323852539062500e+01 1.500904083251953125e+00 -4.060212895274162292e-02 -1.391272693872451782e-01 -5.391881987452507019e-02 -1.292961686849594116e-01
1.374000000000000000e+03 7.679675292968750000e+01 9.920696258544921875e+00 -9.093334898352622986e-03 -6.214523911476135254e-01 -1.891637295484542847e-01 -2.721720933914184570e-01
1.375000000000000000e+03 7.681543731689453125e+01 1.680358695983886719e+01 2.305525541305541992e-02 -1.095369458198547363e+00 -3.216942846775054932e-01 -2.386561632156372070e-01
1.376000000000000000e+03 7.795454406738281250e+01 2.375064849853515625e+01 1.166254468262195587e-02 -1.603741049766540527e+00 -4.776235520839691162e-01 -8.946956694126129150e-02
1.377000000000000000e+03 7.767981719970703125e+01 3.084300041198730469e+01 5.060484632849693298e-03 -1.742614150047302246e+00 -5.212661027908325195e-01 -2.886934950947761536e-02
1.378000000000000000e+03 7.609860229492187500e+01 3.093876075744628906e+01 2.316665090620517731e-02 -1.494470834732055664e+00 -4.413912296295166016e-01 -5.025685206055641174e-02
1.379000000000000000e+03 7.606514739990234375e+01 3.252339172363281250e+01 1.974824815988540649e-02 -1.493018746376037598e+00 -4.419811367988586426e-01 -3.246279805898666382e-02
1.380000000000000000e+03 7.648344421386718750e+01 2.657634735107421875e+01 3.207864612340927124e-02 -1.469624876976013184e+00 -4.312638640403747559e-01 -1.049140244722366333e-01
1.381000000000000000e+03 7.674259185791015625e+01 1.956495475769042969e+01 3.239151835441589355e-02 -1.245944499969482422e+00 -3.640659153461456299e-01 -2.033544033765792847e-01
1.382000000000000000e+03 7.679994201660156250e+01 1.267718124389648438e+01 6.197007372975349426e-03 -8.174988031387329102e-01 -2.433905452489852905e-01 -2.733368873596191406e-01
1.383000000000000000e+03 7.680939483642578125e+01 7.136487007141113281e+00 -2.534068748354911804e-02 -4.323131740093231201e-01 -1.372961550951004028e-01 -2.450520098209381104e-01
1.384000000000000000e+03 7.698724365234375000e+01 1.058574765920639038e-01 -3.526692837476730347e-02 -9.250521659851074219e-02 -3.833164274692535400e-02 -9.510132670402526855e-02
1.385000000000000000e+03 1.317520999908447266e+01 6.670584678649902344e+00 -5.120401692693121731e-05 -3.953224222641438246e-05 -2.722087810980156064e-05 -4.185886064078658819e-05
1.386000000000000000e+03 1.935655212402343750e+01 2.959337711334228516e+00 1.312447275267913938e-04 8.901301953301299363e-06 4.204380820738151670e-05 4.701935540651902556e-05
1.387000000000000000e+03 4.269953918457031250e+01 1.513867568969726562e+01 6.421434283256530762e-01 6.678135871887207031e+00 2.196083784103393555e+00 1.319518566131591797e+00
1.388000000000000000e+03 4.412951278686523438e+01 1.647891044616699219e+01 7.393224835395812988e-01 5.367224693298339844e+00 1.831964135169982910e+00 1.186053872108459473e+00
1.389000000000000000e+03 5.040333175659179688e+01 -2.857034683227539062e+01 1.424021273851394653e-01 3.825380802154541016e-01 1.574820578098297119e-01 -2.492527663707733154e-01
1.390000000000000000e+03 4.100956726074218750e+01 -2.361994361877441406e+01 4.611029028892517090e-01 2.948336601257324219e+00 1.022831797599792480e+00 -3.692381978034973145e-01
1.391000000000000000e+03 4.470693588256835938e+01 -2.625420570373535156e+01 3.467147350311279297e-01 1.425685405731201172e+00 5.317200422286987305e-01 -6.256442070007324219e-01
1.392000000000000000e+03 7.150975799560546875e+01 -2.331356620788574219e+01 -3.417894185986369848e-04 -4.528000426944345236e-04 -2.383768296567723155e-04 4.458667535800486803e-04
1.393000000000000000e+03 4.858742523193359375e+01 -3.164191055297851562e+01 3.589278832077980042e-02 8.321308493614196777e-01 2.604070901870727539e-01 -4.201795756816864014e-01
1.394000000000000000e+03 5.172935485839843750e+01 -3.314103317260742188e+01 -9.868165943771600723e-04 5.272360444068908691e-01 1.578747779130935669e-01 -2.472084313631057739e-01
1.395000000000000000e+03 1.405334091186523438e+01 3.086082267761230469e+01 -4.957165219821035862e-04 2.082227911159861833e-05 -1.424682850483804941e-04 -1.935398722707759589e-05
1.396000000000000000e+03 4.449439239501953125e+01 1.943570899963378906e+01 4.199250340461730957e-01 4.977637290954589844e+00 1.619268655776977539e+00 7.005867362022399902e-01
1.397000000000000000e+03 4.470410156250000000e+01 2.565714454650878906e+01 4.333264231681823730e-01 4.440953731536865234e+00 1.462283968925476074e+00 -8.926926553249359131e-02
1.398000000000000000e+03 4.581958389282226562e+01 -2.537613868713378906e+01 3.270264267921447754e-01 1.012670636177062988e+00 4.019091129302978516e-01 -5.597513914108276367e-01
1.399000000000000000e+03 1.506622314453125000e+01 1.074894618988037109e+01 1.588666200404986739e-04 5.678817251464352012e-05 6.469643994932994246e-05 8.401807281188666821e-05
1.400000000000000000e+03 4.313993835449218750e+01 2.093505096435546875e+01 1.344446688890457153e-01 5.388458251953125000e+00 1.656870841979980469e+00 3.353501558303833008e-01
1.401000000000000000e+03 4.468126678466796875e+01 2.405305671691894531e+01 3.164086341857910156e-01 4.586553096771240234e+00 1.470888614654541016e+00 1.164330020546913147e-01
1.402000000000000000e+03 4.613757705688476562e+01 2.415568161010742188e+01 4.675264954566955566e-01 4.032816886901855469e+00 1.350103020668029785e+00 1.814378350973129272e-01
1.403000000000000000e+03 4.321591949462890625e+01 2.391299819946289062e+01 1.476462036371231079e-01 5.108599185943603516e+00 1.576873660087585449e+00 3.812866657972335815e-02
1.404000000000000000e+03 4.668624877929687500e+00 3.157911872863769531e+01 4.935812321491539478e-04 9.048572246683761477e-05 1.752200914779677987e-04 -1.932815648615360260e-04
1.405000000000000000e+03 1.972520351409912109e+00 3.437307357788085938e+01 4.981812671758234501e-04 2.133273228537291288e-04 2.134525857400149107e-04 -8.412175520788878202e-05
1.406000000000000000e+03 3.196209192276000977e+00 3.038307952880859375e+01 5.048306193202733994e-04 7.175613427534699440e-05 1.729760260786861181e-04 -9.679322101874276996e-05
1.407000000000000000e+03 3.259178161621093750e+00 2.353864669799804688e+01 -2.637272409629076719e-04 -2.211225728387944400e-05 -8.575184619985520840e-05 2.836264320649206638e-05
1.408000000000000000e+03 1.878924608230590820e+00 2.906278991699218750e+01 4.545033443719148636e-04 8.074010111158713698e-05 1.605730358278378844e-04 -8.850650192471221089e-05
1.409000000000000000e+03 2.192910194396972656e+00 3.567188644409179688e+01 -4.530504520516842604e-04 3.626731340773403645e-04 -2.711319575610104948e-05 -1.862010831246152520e-04
1.410000000000000000e+03 8.756400108337402344e+00 3.790442657470703125e+01 -5.467825685627758503e-04 -8.163817255990579724e-05 -1.885262317955493927e-04 -3.723264171640039422e-06
1.411000000000000000e+03 4.506213188171386719e+00 3.777958297729492188e+01 4.245170857757329941e-04 2.003208792302757502e-04 1.874513982329517603e-04 -9.547930676490068436e-05
1.412000000000000000e+03 3.123945713043212891e+00 2.777225685119628906e+01 4.423176869750022888e-04 4.907982292934320867e-05 1.474192540626972914e-04 -1.169539609691128135e-04
1.413000000000000000e+03 4.324088573455810547e+00 2.516701889038085938e+01 -3.251078014727681875e-04 1.204833210977085400e-06 -9.717089415062218904e-05 3.402280344744212925e-05
1.414000000000000000e+03 5.063545227050781250e+00 3.273180007934570312e+01 -3.567575477063655853e-04 1.572276960359886289e-04 -5.985895404592156410e-05 -5.636857531499117613e-05
1.415000000000000000e+03 4.514128684997558594e+00 3.030768775939941406e+01 -4.294492537155747414e-04 7.192024349933490157e-05 -1.072587037924677134e-04 -1.320735755143687129e-04
1.416000000000000000e+03 3.268970489501953125e+00 3.172694206237792969e+01 -4.058535560034215450e-04 1.218047473230399191e-04 -8.521464042132720351e-05 -1.620647090021520853e-04
1.417000000000000000e+03 3.832196474075317383e+00 -3.645801162719726562e+01 -2.299291081726551056e-02 3.272129595279693604e-01 9.126601368188858032e-02 -5.635816231369972229e-02
1.418000000000000000e+03 1.966907143592834473e+00 -2.905193138122558594e+01 -9.259380400180816650e-02 4.175338447093963623e-01 9.748201072216033936e-02 1.899420917034149170e-01
1.419000000000000000e+03 3.255967378616333008e+00 -2.903418159484863281e+01 -2.065307945013046265e-01 2.765488028526306152e-01 2.100540138781070709e-02 2.435660213232040405e-01
1.420000000000000000e+03 1.850673317909240723e+00 -3.458416748046875000e+01 -9.984578937292098999e-03 5.709220170974731445e-01 1.682812273502349854e-01 -3.981256484985351562e-02
1.421000000000000000e+03 4.618750095367431641e+00 -3.348461532592773438e+01 -9.047198295593261719e-02 1.618764251470565796e-01 2.142133377492427826e-02 1.407181657850742340e-02
1.422000000000000000e+03 2.970038652420043945e+00 -1.081655025482177734e+01 -1.020049955695867538e-02 -3.233990967273712158e-01 -1.000798791646957397e-01 -2.692800164222717285e-01
1.423000000000000000e+03 3.179269552230834961e+00 1.622011375427246094e+01 2.150691871065646410e-04 4.545294814306544140e-06 6.588434189325198531e-05 3.322479096823371947e-05
1.424000000000000000e+03 1.993343234062194824e+00 2.055958557128906250e+01 2.101248537655919790e-04 9.651553227740805596e-06 6.593292346224188805e-05 1.521176272945012897e-06
1.425000000000000000e+03 1.507697463035583496e+00 7.956922531127929688e+00 -1.629674807190895081e-04 -1.238776917489303742e-06 -4.926187466480769217e-05 1.322191656072391197e-05
1.426000000000000000e+03 2.816114425659179688e+00 1.062475109100341797e+01 2.019064413616433740e-04 -1.971961319213733077e-05 5.465605136123485863e-05 3.545050276443362236e-06
1.427000000000000000e+03 2.173477411270141602e+00 4.711917877197265625e+00 5.003128535463474691e-05 -1.066099048330215737e-05 1.181108837045030668e-05 8.225626515923067927e-05
1.428000000000000000e+03 2.470197677612304688e+00 7.988492012023925781e+00 1.648745674174278975e-04 -7.298892342078033835e-06 4.727270061266608536e-05 -5.286672967486083508e-05
1.429000000000000000e+03 1.851378083229064941e+00 1.486884021759033203e+01 1.984733535209670663e-04 -3.706754796439781785e-06 5.842998143634758890e-05 2.106427382386755198e-05
1.430000000000000000e+03 3.091681003570556641e+00 1.481959819793701172e+01 -2.129672793671488762e-04 9.163551339952391572e-07 -6.361527630360797048e-05 -2.568186027929186821e-05
1.431000000000000000e+03 1.824976444244384766e+00 -2.333918380737304688e+01 1.018704660236835480e-02 -2.838208377361297607e-01 -8.209013938903808594e-02 4.012717604637145996e-01
1.432000000000000000e+03 2.683748245239257812e+00 -2.187742996215820312e+01 1.293637603521347046e-01 -2.211091667413711548e-01 -2.752362005412578583e-02 4.267187714576721191e-01
1.433000000000000000e+03 1.901561856269836426e+00 -1.503145694732666016e+01 5.510174855589866638e-02 -7.768687009811401367e-01 -2.165300846099853516e-01 -1.457984298467636108e-01
1.434000000000000000e+03 3.046716928482055664e+00 -1.219398975372314453e+01 7.542341481894254684e-03 -3.592861592769622803e-01 -1.055231392383575439e-01 -2.712965309619903564e-01
1.435000000000000000e+03 1.659509658813476562e+00 -8.088438034057617188e+00 -1.550822239369153976e-02 -3.426754772663116455e-01 -1.074551120400428772e-01 -1.581547111272811890e-01
1.436000000000000000e+03 5.067879676818847656e+00 -4.114479541778564453e+00 -1.172762885689735413e-01 -1.765836589038372040e-02 -4.048039764165878296e-02 -1.696609556674957275e-01
1.437000000000000000e+03 2.625176429748535156e+00 9.255287170410156250e+00 -1.863237703219056129e-04 3.204673703294247389e-05 -4.628311216947622597e-05 3.895343979820609093e-05
1.438000000000000000e+03 2.721642494201660156e+00 -7.030371189117431641e+00 -3.905156999826431274e-02 -1.938490718603134155e-01 -6.987019628286361694e-02 -1.999431401491165161e-01
1.439000000000000000e+03 2.239138841629028320e+00 -4.575062274932861328e+00 -3.138777986168861389e-02 -1.120351105928421021e-01 -4.302686825394630432e-02 -1.181389614939689636e-01
1.440000000000000000e+03 4.380774021148681641e+00 -1.641687774658203125e+01 2.773432135581970215e-01 2.214804477989673615e-02 8.984737843275070190e-02 -5.208593606948852539e-02
1.441000000000000000e+03 1.884624838829040527e+00 -1.794748306274414062e+01 8.885076642036437988e-02 -8.311972022056579590e-01 -2.227039337158203125e-01 3.706732392311096191e-02
1.442000000000000000e+03 2.656408071517944336e+00 -2.081671905517578125e+01 1.628785729408264160e-01 -3.042813539505004883e-01 -4.242083057761192322e-02 3.710825145244598389e-01
1.443000000000000000e+03 5.092707157135009766e+00 -2.206511688232421875e+01 2.337654680013656616e-01 6.789452433586120605e-01 2.738132178783416748e-01 4.799601733684539795e-01
1.444000000000000000e+03 2.865325212478637695e+00 -9.481000900268554688e+00 -2.822910249233245850e-02 -2.873273193836212158e-01 -9.466692060232162476e-02 -2.521119415760040283e-01
1.445000000000000000e+03 2.766278266906738281e+00 -8.208054542541503906e+00 -3.007255494594573975e-02 -2.421191483736038208e-01 -8.165751397609710693e-02 -2.287731170654296875e-01
1.446000000000000000e+03 3.306566476821899414e+00 2.056602478027343750e+01 -2.189197111874818802e-04 -2.978022166644223034e-05 -7.460998313035815954e-05 -1.152449294750113040e-05
1.447000000000000000e+03 2.786425590515136719e+00 -3.590518951416015625e+01 -9.957951493561267853e-03 4.290845394134521484e-01 1.257379800081253052e-01 -5.436676740646362305e-02
1.448000000000000000e+03 2.911121845245361328e+00 1.202604389190673828e+01 -2.064340806100517511e-04 8.392692507186438888e-06 -5.941241397522389889e-05 -1.634138789086136967e-05
1.449000000000000000e+03 3.001357793807983398e+00 1.341965579986572266e+01 2.061726845568045974e-04 -6.337790182442404330e-06 5.995046740281395614e-05 2.557935295044444501e-05
1.450000000000000000e+03 3.316893339157104492e+00 2.205488204956054688e+01 2.416458592051640153e-04 4.946533954353071749e-05 8.733335562283173203e-05 -1.946495103766210377e-05
1.451000000000000000e+03 3.242177009582519531e+00 1.763992881774902344e+01 -2.132445661118254066e-04 -1.541646088298875839e-05 -6.859831046313047409e-05 -2.381267222517635673e-05
1.452000000000000000e+03 4.470435619354248047e+00 1.616713523864746094e+01 -2.296293532708659768e-04 -3.991320681961951777e-06 -7.008620013948529959e-05 -3.947442746721208096e-05
1.453000000000000000e+03 1.780486822128295898e+00 -3.578514099121093750e+01 -9.637322276830673218e-03 5.638136863708496094e-01 1.662529110908508301e-01 -5.390696227550506592e-02
1.454000000000000000e+03 3.253079175949096680e+00 -3.333214569091796875e+01 -5.900711938738822937e-02 3.553294241428375244e-01 8.889669179916381836e-02 -8.505708537995815277e-03
1.455000000000000000e+03 4.664681911468505859e+00 -3.194761085510253906e+01 -1.591890454292297363e-01 1.232413575053215027e-01 -1.078430749475955963e-02 7.063858211040496826e-02
1.456000000000000000e+03 4.115600109100341797e+00 -2.247201156616210938e+01 1.915511488914489746e-01 2.450547218322753906e-01 1.309817582368850708e-01 5.311183333396911621e-01
1.457000000000000000e+03 3.087922811508178711e+00 -1.360629272460937500e+01 5.636440217494964600e-02 -3.809620440006256104e-01 -9.737929701805114746e-02 -2.357932329177856445e-01
1.458000000000000000e+03 3.570219802856445312e+01 -2.681615447998046875e+01 6.177642941474914551e-01 4.638923645019531250e+00 1.577006340026855469e+00 5.939951539039611816e-01
1.459000000000000000e+03 4.363159561157226562e+01 1.072210216522216797e+01 1.700728774070739746e+00 5.377857685089111328e+00 2.123575925827026367e+00 2.309272289276123047e+00
1.460000000000000000e+03 4.663785552978515625e+01 -2.640802764892578125e+01 3.121870458126068115e-01 8.551463484764099121e-01 3.502000272274017334e-01 -5.064693689346313477e-01
1.461000000000000000e+03 4.496724700927734375e+01 3.229100036621093750e+01 1.748877018690109253e-01 3.403500556945800781e+00 1.073516488075256348e+00 7.998174428939819336e-02
1.462000000000000000e+03 7.217873382568359375e+01 -2.219073867797851562e+01 4.303631430957466364e-04 -1.835472212405875325e-04 7.404477946693077683e-05 -2.023645502049475908e-04
1.463000000000000000e+03 4.411583328247070312e+01 -2.341092109680175781e+01 3.486382067203521729e-01 1.602955460548400879e+00 5.854780673980712891e-01 -6.550108790397644043e-01
1.464000000000000000e+03 4.498101425170898438e+01 -2.436439704895019531e+01 3.755465149879455566e-01 1.240199327468872070e+00 4.847237765789031982e-01 -5.968074798583984375e-01
1.465000000000000000e+03 1.126896667480468750e+01 -1.409419155120849609e+01 7.304601073265075684e-01 4.032994508743286133e-01 3.401278853416442871e-01 2.294952273368835449e-01
1.466000000000000000e+03 8.960361480712890625e+00 -1.409616184234619141e+01 5.434656739234924316e-01 5.209760069847106934e-01 3.193325102329254150e-01 1.244267001748085022e-01
1.467000000000000000e+03 1.584926986694335938e+01 -3.591046905517578125e+01 -2.282750308513641357e-01 -1.347528398036956787e-01 -1.089083626866340637e-01 6.860563904047012329e-02
1.468000000000000000e+03 5.406929016113281250e+01 -3.550654983520507812e+01 -8.494056761264801025e-03 3.598256707191467285e-01 1.053994819521903992e-01 -1.526297777891159058e-01
1.469000000000000000e+03 5.406459045410156250e+01 -3.303297424316406250e+01 -2.000277675688266754e-02 2.660537958145141602e-01 7.381530106067657471e-02 -1.434937864542007446e-01
1.470000000000000000e+03 3.521451187133789062e+01 -3.091457366943359375e+01 -1.854917705059051514e-01 2.847907543182373047e+00 7.987247109413146973e-01 4.285452663898468018e-01
1.471000000000000000e+03 5.206603622436523438e+01 1.630059480667114258e+00 -3.410745143890380859e+00 3.542395234107971191e-01 -9.169516563415527344e-01 -6.250634789466857910e-02
1.472000000000000000e+03 5.191765594482421875e+01 5.618566036224365234e+00 -9.770030975341796875e-01 3.710716590285301208e-02 -2.819687724113464355e-01 -9.651210308074951172e-01
1.473000000000000000e+03 3.316080856323242188e+01 -2.147696971893310547e+00 -4.261155605316162109e+00 7.152557969093322754e-01 -1.063769936561584473e+00 -1.157307147979736328e+00
1.474000000000000000e+03 3.170061492919921875e+01 -2.438175201416015625e+00 -4.359413146972656250e+00 -1.420248389244079590e+00 -1.733898401260375977e+00 -2.274993181228637695e+00
1.475000000000000000e+03 2.959346580505371094e+01 -3.446297836303710938e+01 -1.834399998188018799e-01 8.564225435256958008e-01 2.018947601318359375e-01 4.996435642242431641e-01
1.476000000000000000e+03 1.464633655548095703e+01 1.209351539611816406e+01 -1.831207773648202419e-04 -4.368734516901895404e-05 -6.804243457736447453e-05 -1.088559365598484874e-04
1.477000000000000000e+03 4.629092216491699219e+00 -2.476399040222167969e+01 -2.870372124016284943e-02 2.186862826347351074e-01 5.699476972222328186e-02 5.595625042915344238e-01
1.478000000000000000e+03 4.898631572723388672e+00 -2.336600685119628906e+01 8.186211436986923218e-02 4.804401993751525879e-01 1.686906963586807251e-01 4.766512513160705566e-01
1.479000000000000000e+03 2.787217140197753906e+01 -1.505175590515136719e+01 -9.839268028736114502e-02 -1.734605878591537476e-01 -8.155597746372222900e-02 1.008866667747497559e+00
1.480000000000000000e+03 3.915764236450195312e+01 3.533658504486083984e+00 9.083439707756042480e-01 8.585921287536621094e+00 2.848279714584350586e+00 3.087255716323852539e+00
1.481000000000000000e+03 1.606894111633300781e+01 4.030673503875732422e+00 3.988908065366558731e-05 -8.071581396507099271e-05 -1.224801962962374091e-05 -5.986425094306468964e-05
1.482000000000000000e+03 1.628522491455078125e+01 2.371898412704467773e+00 -5.857507403561612591e-06 1.011459316941909492e-04 2.858652624126989394e-05 3.481648673187009990e-05
1.483000000000000000e+03 5.450456237792968750e+01 7.009373307228088379e-01 -2.498057842254638672e+00 1.126022264361381531e-01 -7.156366705894470215e-01 1.134973317384719849e-01
1.484000000000000000e+03 9.972287178039550781e+00 -3.263011932373046875e+01 -3.577960133552551270e-01 -3.358024656772613525e-01 -2.080795466899871826e-01 2.304377406835556030e-01
1.485000000000000000e+03 1.341214847564697266e+01 2.899208641052246094e+01 1.105054747313261032e-03 -2.662961924215778708e-05 3.235275507904589176e-04 2.452588523738086224e-04
1.486000000000000000e+03 1.613143730163574219e+01 8.128974914550781250e+00 1.291711960220709443e-04 3.840098725049756467e-05 5.027165752835571766e-05 6.839022535132244229e-05
1.487000000000000000e+03 1.672400474548339844e+01 6.923036575317382812e+00 -1.170887117041274905e-04 -4.341818203101865947e-05 -4.815206921193748713e-05 -6.864022725494578481e-05
1.488000000000000000e+03 4.825807952880859375e+01 -2.846570014953613281e+01 1.987164616584777832e-01 6.948740482330322266e-01 2.680771648883819580e-01 -4.140039086341857910e-01
1.489000000000000000e+03 4.321495819091796875e+01 -2.254737091064453125e+01 3.252153992652893066e-01 2.112550258636474609e+00 7.313297390937805176e-01 -5.969953536987304688e-01
1.490000000000000000e+03 3.932956695556640625e+01 -1.070415878295898438e+01 5.971266627311706543e-01 3.253829002380371094e+00 1.155286669731140137e+00 -2.337893962860107422e+00
1.491000000000000000e+03 1.366512012481689453e+01 1.475795173645019531e+01 -2.325437817489728332e-04 1.159294970420887694e-05 -6.628525443375110626e-05 -1.337390713160857558e-04
1.492000000000000000e+03 2.184857177734375000e+01 4.133229446411132812e+01 3.915395122021436691e-03 -9.975604712963104248e-03 -1.818062853999435902e-03 3.086004639044404030e-03
1.493000000000000000e+03 2.089564895629882812e+01 3.916611099243164062e+01 -3.155668266117572784e-03 -3.985647577792406082e-03 -2.142394892871379852e-03 3.196072997525334358e-03
1.494000000000000000e+03 3.890896606445312500e+01 -1.386889266967773438e+01 -2.147175669670104980e-01 4.552033424377441406e+00 1.301194667816162109e+00 -1.839992880821228027e+00
1.495000000000000000e+03 4.118194961547851562e+01 7.439015865325927734e+00 2.141098260879516602e+00 8.370542526245117188e+00 3.153492212295532227e+00 3.523385047912597656e+00
1.496000000000000000e+03 4.408242797851562500e+01 9.360353469848632812e+00 1.951899170875549316e+00 4.393157005310058594e+00 1.903516888618469238e+00 2.234348773956298828e+00
1.497000000000000000e+03 6.849156188964843750e+01 -3.498741531372070312e+01 -6.832074839621782303e-03 4.013950005173683167e-03 -8.454374619759619236e-04 2.381024509668350220e-02
1.498000000000000000e+03 3.262001037597656250e+01 4.115496063232421875e+01 1.057334318757057190e-01 2.111351341009140015e-01 9.506057202816009521e-02 -2.763509005308151245e-02
1.499000000000000000e+03 5.247918128967285156e+00 -2.058995246887207031e+01 3.117278516292572021e-01 7.752444148063659668e-01 3.260916769504547119e-01 4.690402746200561523e-01
1.500000000000000000e+03 4.311664581298828125e+01 2.349235296249389648e+00 -2.857342004776000977e+00 2.732850551605224609e+00 -3.734746202826499939e-02 9.471943378448486328e-01
1.501000000000000000e+03 6.142284870147705078e+00 -1.786789131164550781e+01 6.425189971923828125e-01 7.192640900611877441e-01 4.085349440574645996e-01 3.426319658756256104e-01
1.502000000000000000e+03 4.303416442871093750e+01 8.178833007812500000e+00 2.023213863372802734e+00 5.147859573364257812e+00 2.151321887969970703e+00 2.632356882095336914e+00
1.503000000000000000e+03 1.286440467834472656e+01 1.940829277038574219e+01 3.848924534395337105e-04 -3.429238859098404646e-05 1.051800209097564220e-04 3.079837551922537386e-05
1.504000000000000000e+03 1.283480262756347656e+01 1.777982902526855469e+01 -3.344483266118913889e-04 9.381479685544036329e-06 -9.752005280461162329e-05 -5.293223875924013555e-05
1.505000000000000000e+03 4.539842987060546875e+01 4.593513965606689453e+00 -4.908834695816040039e-01 2.583628892898559570e-01 -6.975617259740829468e-02 5.475441217422485352e-01
1.506000000000000000e+03 4.603312301635742188e+01 2.841211557388305664e+00 -3.034929037094116211e+00 -1.483214378356933594e+00 -1.355443000793457031e+00 -2.500621415674686432e-02
1.507000000000000000e+03 7.011798858642578125e+01 -2.762677574157714844e+01 -3.259503282606601715e-03 3.998803149443119764e-04 -8.578869164921343327e-04 -1.159743173047900200e-03
1.508000000000000000e+03 4.394615936279296875e+01 1.505028533935546875e+01 9.365246295928955078e-01 5.600678443908691406e+00 1.961160898208618164e+00 1.417232275009155273e+00
1.509000000000000000e+03 4.543041610717773438e+01 1.628558158874511719e+01 9.777982234954833984e-01 4.506580829620361328e+00 1.645313620567321777e+00 1.201979398727416992e+00
1.510000000000000000e+03 4.446388626098632812e+01 2.920918846130371094e+01 5.919640064239501953e-01 3.972740173339843750e+00 1.369411230087280273e+00 -8.969542384147644043e-02
1.511000000000000000e+03 1.554953765869140625e+01 3.416455459594726562e+01 -2.011681499425321817e-04 -8.270341204479336739e-04 -3.084606723859906197e-04 -6.061269668862223625e-04
1.512000000000000000e+03 1.506037807464599609e+01 3.248414230346679688e+01 2.065263455733656883e-03 -7.169763557612895966e-04 4.044861125294119120e-04 2.023004781221970916e-04
1.513000000000000000e+03 2.901256942749023438e+01 -3.898184537887573242e+00 -1.219188928604125977e+00 -1.420076966285705566e+00 -7.917797565460205078e-01 -1.983815789222717285e+00
1.514000000000000000e+03 4.112214660644531250e+01 -3.283306121826171875e+00 -2.335895001888275146e-01 2.155675888061523438e+00 5.766259431838989258e-01 1.172835111618041992e+00
1.515000000000000000e+03 3.885459899902343750e+01 8.078042268753051758e-01 -2.710145950317382812e+00 7.521623134613037109e+00 1.443443179130554199e+00 1.603540062904357910e+00
1.516000000000000000e+03 1.403826522827148438e+01 -1.272175312042236328e+01 5.348309278488159180e-01 1.307546794414520264e-01 1.996756792068481445e-01 1.670515388250350952e-01
1.517000000000000000e+03 1.580847358703613281e+01 -1.434853649139404297e+01 6.654142141342163086e-01 -3.019079007208347321e-02 1.905670166015625000e-01 1.297031641006469727e-01
1.518000000000000000e+03 4.038475036621093750e+01 3.849109649658203125e+01 -3.899710774421691895e-01 2.273880720138549805e+00 5.651729106903076172e-01 -3.650115132331848145e-01
1.519000000000000000e+03 6.397331619262695312e+01 -1.262576222419738770e+00 -7.874216437339782715e-01 1.303668767213821411e-01 -1.971164196729660034e-01 -9.425121545791625977e-02
1.520000000000000000e+03 4.322900390625000000e+01 -2.428171348571777344e+01 3.720358014106750488e-01 1.982994556427001953e+00 7.065091133117675781e-01 -6.063082218170166016e-01
1.521000000000000000e+03 1.309802246093750000e+01 2.548170852661132812e+01 6.810032646171748638e-04 -4.221890776534564793e-05 1.916353066917508841e-04 1.414513535564765334e-04
1.522000000000000000e+03 6.672775268554687500e+01 -3.586539840698242188e+01 -7.150263525545597076e-03 3.575469600036740303e-03 -1.072438200935721397e-03 3.025518544018268585e-02
1.523000000000000000e+03 3.916538619995117188e+01 1.656966805458068848e+00 -2.059523582458496094e+00 7.422463417053222656e+00 1.608881950378417969e+00 1.607727885246276855e+00
1.524000000000000000e+03 4.107223892211914062e+01 2.356478214263916016e+00 -2.051843166351318359e+00 5.721538066864013672e+00 1.100908398628234863e+00 1.249951481819152832e+00
1.525000000000000000e+03 5.190957260131835938e+01 3.573504686355590820e+00 -2.314771175384521484e+00 1.887536942958831787e-01 -6.378052830696105957e-01 -8.225035071372985840e-01
1.526000000000000000e+03 1.408492755889892578e+01 2.246889877319335938e+01 -4.013023863080888987e-04 4.773904583998955786e-05 -1.060690046870149672e-04 1.181234529212815687e-05
1.527000000000000000e+03 2.758644294738769531e+01 -2.931744098663330078e+00 -2.658541679382324219e+00 -6.563189625740051270e-01 -9.944581985473632812e-01 -1.289042830467224121e+00
1.528000000000000000e+03 2.776345252990722656e+01 -3.974479198455810547e+00 -1.255964040756225586e+00 -1.011300921440124512e+00 -6.801794767379760742e-01 -1.683119058609008789e+00
1.529000000000000000e+03 3.168365478515625000e+01 -3.128346252441406250e+01 1.391631364822387695e-01 1.376778125762939453e+00 4.547823965549468994e-01 7.664023041725158691e-01
1.530000000000000000e+03 3.267840194702148438e+01 -3.209040832519531250e+01 -1.644874960184097290e-01 1.967568397521972656e+00 5.409242510795593262e-01 7.277253270149230957e-01
1.531000000000000000e+03 5.642721557617187500e+01 1.452624440193176270e+00 -1.963193178176879883e+00 8.967488259077072144e-02 -5.620554685592651367e-01 -2.316405773162841797e-01
1.532000000000000000e+03 7.059372711181640625e+01 -2.613990211486816406e+01 -1.998527906835079193e-03 -3.591807908378541470e-04 -7.073126034811139107e-04 -1.670422207098454237e-04
1.533000000000000000e+03 6.893390655517578125e+01 -3.073801422119140625e+01 -1.612291857600212097e-02 5.483658052980899811e-03 -3.191778203472495079e-03 2.805647673085331917e-03
1.534000000000000000e+03 5.608556747436523438e+00 -2.899904251098632812e+01 -3.564673960208892822e-01 -7.638248056173324585e-02 -1.298549622297286987e-01 2.790112793445587158e-01
1.535000000000000000e+03 4.606504917144775391e+00 -2.625533866882324219e+01 -2.733414471149444580e-01 1.802000701427459717e-01 -2.794241160154342651e-02 5.105959773063659668e-01
1.536000000000000000e+03 3.606707763671875000e+01 -2.920194816589355469e+01 7.607229799032211304e-02 3.495659589767456055e+00 1.071519494056701660e+00 2.192379534244537354e-01
1.537000000000000000e+03 4.164333724975585938e+01 -1.884823989868164062e+01 1.450726240873336792e-01 3.780721426010131836e+00 1.177738189697265625e+00 -4.660846292972564697e-01
1.538000000000000000e+03 4.135929107666015625e+01 -2.134295845031738281e+01 1.963047832250595093e-01 3.130896091461181641e+00 9.981602430343627930e-01 -2.997962236404418945e-01
1.539000000000000000e+03 5.985427093505859375e+01 -3.686568832397460938e+01 3.346847370266914368e-02 2.355313673615455627e-02 1.710648275911808014e-02 3.991133533418178558e-03
1.540000000000000000e+03 3.695282745361328125e+01 -1.989799499511718750e+01 -4.724296554923057556e-02 4.694337844848632812e+00 1.394128441810607910e+00 3.460889458656311035e-01
1.541000000000000000e+03 4.071263885498046875e+01 -1.631617736816406250e+01 3.258957862854003906e-01 4.471726417541503906e+00 1.439286708831787109e+00 -9.094545245170593262e-01
1.542000000000000000e+03 3.506161117553710938e+01 -1.803575897216796875e+01 -2.006336450576782227e+00 4.279416561126708984e+00 6.819240450859069824e-01 -5.420306921005249023e-01
1.543000000000000000e+03 6.489183044433593750e+01 -3.571947860717773438e+01 -1.833806373178958893e-02 -8.873674087226390839e-04 -5.767629481852054596e-03 3.288208693265914917e-02
1.544000000000000000e+03 4.726395034790039062e+01 2.646120309829711914e+00 -4.413636207580566406e+00 -1.610536575317382812e+00 -1.807251811027526855e+00 -1.231471300125122070e+00
1.545000000000000000e+03 4.864958572387695312e+01 2.602677583694458008e+00 -4.580102920532226562e+00 -5.147427916526794434e-01 -1.528453826904296875e+00 -1.001225590705871582e+00
1.546000000000000000e+03 3.138883399963378906e+01 -3.347572708129882812e+01 -2.231691628694534302e-01 1.398639082908630371e+00 3.526409864425659180e-01 6.222453117370605469e-01
1.547000000000000000e+03 6.272798538208007812e+01 -7.074359655380249023e-01 -9.921723604202270508e-01 1.036741286516189575e-01 -2.665494680404663086e-01 -1.407752633094787598e-01
1.548000000000000000e+03 3.109447288513183594e+01 -1.585664367675781250e+01 -1.057906508445739746e+00 9.537059813737869263e-02 -2.887607514858245850e-01 7.454727292060852051e-01
1.549000000000000000e+03 4.215929031372070312e+01 -3.998778462409973145e-01 -3.430852651596069336e+00 2.820564270019531250e+00 -1.830864846706390381e-01 -8.995322585105895996e-01
1.550000000000000000e+03 3.355017089843750000e+01 -5.369245052337646484e+00 3.826903104782104492e+00 3.462128639221191406e+00 2.186709642410278320e+00 -8.668158054351806641e-01
1.551000000000000000e+03 6.440941619873046875e+01 -1.195901259779930115e-01 -7.924298644065856934e-01 1.397768855094909668e-01 -1.957959085702896118e-01 -2.537836134433746338e-01
1.552000000000000000e+03 6.142587280273437500e+01 -2.186165750026702881e-01 -1.194971799850463867e+00 8.163613080978393555e-02 -3.340007066726684570e-01 -1.630690544843673706e-01
1.553000000000000000e+03 3.556667709350585938e+01 -3.450567483901977539e+00 -2.291445970535278320e+00 7.962382793426513672e+00 1.701281070709228516e+00 1.392893314361572266e+00
1.554000000000000000e+03 3.956565856933593750e+01 -4.132615089416503906e+00 6.216500401496887207e-01 3.363031387329101562e+00 1.195404410362243652e+00 2.941164731979370117e+00
1.555000000000000000e+03 4.271785736083984375e+01 3.242669296264648438e+01 2.198772877454757690e-01 3.588674306869506836e+00 1.142565488815307617e+00 -3.119871020317077637e-01
1.556000000000000000e+03 4.267710113525390625e+01 3.531760025024414062e+01 -2.406453937292098999e-01 3.043312311172485352e+00 8.408001065254211426e-01 -2.464836388826370239e-01
1.557000000000000000e+03 6.957299041748046875e+01 -2.916096496582031250e+01 -1.074822060763835907e-02 1.862700097262859344e-03 -2.665656153112649918e-03 -9.216350154019892216e-04
1.558000000000000000e+03 4.171460342407226562e+01 -2.018867683410644531e+01 1.530506759881973267e-01 3.345248699188232422e+00 1.049489855766296387e+00 -4.135129451751708984e-01
1.559000000000000000e+03 4.121480941772460938e+01 6.573080271482467651e-02 -3.598487138748168945e+00 4.965694904327392578e+00 4.101623892784118652e-01 5.216408967971801758e-01
1.560000000000000000e+03 7.379701995849609375e+01 -2.505350112915039062e+01 -1.041272305883467197e-03 -6.833270308561623096e-04 -5.173798417672514915e-04 1.350520469713956118e-04
1.561000000000000000e+03 6.602814197540283203e+00 -1.519034767150878906e+01 4.672840833663940430e-01 5.788344740867614746e-01 3.138355612754821777e-01 3.275194391608238220e-02
1.562000000000000000e+03 4.377633285522460938e+01 3.095838356018066406e+01 4.934794008731842041e-01 3.788844347000122070e+00 1.284697175025939941e+00 -1.426004618406295776e-01
1.563000000000000000e+03 2.945368194580078125e+01 -1.566007328033447266e+01 -5.292627811431884766e-01 -5.892680585384368896e-02 -1.764568835496902466e-01 1.070174932479858398e+00
1.564000000000000000e+03 3.877316665649414062e+01 -1.841436004638671875e+01 -4.645409286022186279e-01 4.549818992614746094e+00 1.225583434104919434e+00 -1.306640952825546265e-01
1.565000000000000000e+03 3.679049682617187500e+01 -2.766830825805664062e+01 3.935655653476715088e-01 3.818613767623901367e+00 1.263653755187988281e+00 1.164266467094421387e-01
1.566000000000000000e+03 3.740023040771484375e+01 -2.625821876525878906e+01 6.173181533813476562e-01 4.107571601867675781e+00 1.417466878890991211e+00 -4.952909890562295914e-03
1.567000000000000000e+03 1.238697528839111328e+01 -1.395655727386474609e+01 7.316302061080932617e-01 2.654758989810943604e-01 2.991318404674530029e-01 1.711141467094421387e-01
1.568000000000000000e+03 1.936190223693847656e+01 3.462822341918945312e+01 2.727288752794265747e-03 1.199946636916138232e-04 8.541850256733596325e-04 3.051880921702831984e-04
1.569000000000000000e+03 1.820804595947265625e+01 3.541876602172851562e+01 3.928043297491967678e-04 -4.308044735807925463e-04 -1.140004405897343531e-05 7.739173015579581261e-04
1.570000000000000000e+03 6.771316528320312500e+01 -4.651020050048828125e+00 -1.960081756114959717e-01 2.151652798056602478e-02 -5.234749615192413330e-02 7.396650966256856918e-03
1.571000000000000000e+03 6.761729431152343750e+01 -3.276198387145996094e+00 -2.986975312232971191e-01 5.385558307170867920e-02 -7.345258444547653198e-02 -3.002287819981575012e-02
1.572000000000000000e+03 5.406931304931640625e+01 2.364546298980712891e+00 -2.388329029083251953e+00 2.731542587280273438e-01 -6.345524787902832031e-01 -3.772476315498352051e-01
1.573000000000000000e+03 1.289958763122558594e+01 2.092957115173339844e+01 -4.132477624807506800e-04 4.441167038748972118e-05 -1.106508207158185542e-04 -3.569520413293503225e-05
1.574000000000000000e+03 5.449755191802978516e+00 -1.505327510833740234e+01 2.808434963226318359e-01 2.717110216617584229e-01 1.657663583755493164e-01 -1.097309440374374390e-01
1.575000000000000000e+03 6.991714000701904297e+00 -3.190625381469726562e+01 -2.621596753597259521e-01 -1.599514335393905640e-01 -1.266333311796188354e-01 1.148180961608886719e-01
1.576000000000000000e+03 8.582408905029296875e+00 -3.264780807495117188e+01 -3.042140305042266846e-01 -2.866306304931640625e-01 -1.772533953189849854e-01 1.441427171230316162e-01
1.577000000000000000e+03 4.488182544708251953e+00 4.079030227661132812e+01 -3.480956365820020437e-04 2.331169089302420616e-04 -3.449362338869832456e-05 -1.317565966019174084e-05
1.578000000000000000e+03 4.404753875732421875e+01 7.225576400756835938e+00 1.692271828651428223e+00 3.180466413497924805e+00 1.461821556091308594e+00 1.961891770362854004e+00
1.579000000000000000e+03 3.578321838378906250e+01 -9.156346321105957031e+00 1.320355057716369629e+00 1.050042629241943359e+01 3.546234369277954102e+00 5.383687615394592285e-01
1.580000000000000000e+03 4.103530502319335938e+01 -4.190691947937011719e+00 4.921847581863403320e-01 1.469992876052856445e+00 5.886532664299011230e-01 1.309615254402160645e+00
1.581000000000000000e+03 3.877492523193359375e+01 -9.175217628479003906e+00 1.875169634819030762e+00 2.843280792236328125e+00 1.415535092353820801e+00 -2.741270065307617188e+00
1.582000000000000000e+03 3.951320648193359375e+01 -9.387920379638671875e+00 1.344090819358825684e+00 1.789743900299072266e+00 9.401504397392272949e-01 -1.853476524353027344e+00
1.583000000000000000e+03 3.508072662353515625e+01 -8.921939849853515625e+00 3.343020915985107422e+00 9.231076240539550781e+00 3.772229194641113281e+00 2.766809940338134766e+00
1.584000000000000000e+03 3.826802062988281250e+01 -1.219522857666015625e+01 -2.066847234964370728e-01 4.945500850677490234e+00 1.421644806861877441e+00 -2.320715665817260742e+00
1.585000000000000000e+03 9.532600402832031250e+00 -4.256225585937500000e+00 -2.378181815147399902e-01 7.864706963300704956e-02 -4.775133356451988220e-02 -1.187406629323959351e-01
1.586000000000000000e+03 1.027911186218261719e+01 -4.297885417938232422e+00 -2.496127486228942871e-01 8.169398456811904907e-02 -5.037562921643257141e-02 -1.009673550724983215e-01
1.587000000000000000e+03 3.409562301635742188e+01 -7.481842517852783203e+00 6.581655502319335938e+00 4.907936096191406250e+00 3.446877479553222656e+00 2.006120204925537109e+00
1.588000000000000000e+03 3.423598480224609375e+01 -9.090399742126464844e+00 3.472465276718139648e+00 6.291203975677490234e+00 2.929100751876831055e+00 2.548575401306152344e+00
1.589000000000000000e+03 7.617758941650390625e+01 -1.714457511901855469e+01 2.238794841105118394e-04 5.726809104089625180e-05 8.434427581960335374e-05 -1.708879426587373018e-04
1.590000000000000000e+03 7.546225738525390625e+01 -1.704543685913085938e+01 -6.207561091287061572e-05 -1.258473348570987582e-04 -5.637688082060776651e-05 3.705645212903618813e-05
1.591000000000000000e+03 1.569161891937255859e+01 2.288384199142456055e+00 -2.660095015016850084e-05 -6.667282286798581481e-05 -2.798213245114311576e-05 -1.977997089852578938e-05
1.592000000000000000e+03 1.759857559204101562e+01 2.701538085937500000e+00 5.309145853971131146e-05 7.962548988871276379e-05 3.981508416472934186e-05 8.108586189337074757e-05
1.593000000000000000e+03 1.777457427978515625e+01 4.763204574584960938e+00 -1.017647300614044070e-04 -4.942226587445475161e-05 -4.535610059974715114e-05 -6.836242391727864742e-05
1.594000000000000000e+03 7.637544250488281250e+01 -9.903479576110839844e+00 2.968979300931096077e-03 2.250797551823779941e-04 9.582177153788506985e-04 1.240077987313270569e-02
1.595000000000000000e+03 7.629189300537109375e+01 -9.269399642944335938e+00 -9.440960129722952843e-04 4.455861344467848539e-04 -1.495529722888022661e-04 1.432930026203393936e-02
1.596000000000000000e+03 7.431851196289062500e+01 -1.839081001281738281e+01 3.066686040256172419e-04 2.179454713768791407e-05 9.853894152911379933e-05 3.149154144921340048e-05
1.597000000000000000e+03 7.639721679687500000e+01 -2.036129379272460938e+01 3.275032795500010252e-04 4.069923306815326214e-05 1.104607581510208547e-04 -3.175389429088681936e-04
1.598000000000000000e+03 1.346896743774414062e+01 3.649421215057373047e+00 8.998167322715744376e-05 2.493880856491159648e-05 3.447614290053024888e-05 5.236821834841975942e-06
1.599000000000000000e+03 7.131177520751953125e+01 -1.746468544006347656e+01 -1.521899248473346233e-04 -4.695334064308553934e-05 -5.974297891953028738e-05 1.311287451244425029e-05
1.600000000000000000e+03 8.882900238037109375e+00 3.934475421905517578e+00 3.079815724049694836e-05 7.009397086221724749e-05 3.026763806701637805e-05 6.436713647417491302e-06
1.601000000000000000e+03 1.019836616516113281e+01 3.174049139022827148e+00 -3.427436240599490702e-05 -6.338528328342363238e-05 -2.929789297922980040e-05 -1.201612212753389031e-05
1.602000000000000000e+03 1.102160930633544922e+01 -4.360525608062744141e+00 -2.571153342723846436e-01 7.639520615339279175e-02 -5.421604216098785400e-02 -8.675529807806015015e-02
1.603000000000000000e+03 1.512459087371826172e+01 2.275022268295288086e+00 4.076466939295642078e-05 4.486777106649242342e-05 2.568973286543041468e-05 3.536882286425679922e-05
1.604000000000000000e+03 1.420998954772949219e+01 3.472873926162719727e+00 -3.656796980067156255e-05 -6.923392356839030981e-05 -3.174056837451644242e-05 1.381325455440673977e-05
1.605000000000000000e+03 7.198686599731445312e+00 -3.395246982574462891e+00 -1.970619857311248779e-01 3.123512677848339081e-02 -4.974805936217308044e-02 -1.380115747451782227e-01
1.606000000000000000e+03 8.775422096252441406e+00 -4.233848094940185547e+00 -2.222236394882202148e-01 7.264098525047302246e-02 -4.487479478120803833e-02 -1.344415545463562012e-01
1.607000000000000000e+03 3.989058303833007812e+01 -9.627750396728515625e+00 9.720659852027893066e-01 1.699801802635192871e+00 8.015603423118591309e-01 -1.533199071884155273e+00
1.608000000000000000e+03 8.163595199584960938e+00 3.973195791244506836e+00 -1.407594936608802527e-05 -6.954339914955198765e-05 -2.508580473659094423e-05 1.206590150104602799e-05
1.609000000000000000e+03 7.455336093902587891e+00 5.773524761199951172e+00 -1.381545826006913558e-05 -3.966642907471396029e-05 -1.604456519999075681e-05 7.743117748759686947e-05
1.610000000000000000e+03 5.911991596221923828e+00 4.482096195220947266e+00 2.258735366922337562e-05 3.538289820426143706e-05 1.739107574394438416e-05 -2.208868500019889325e-05
1.611000000000000000e+03 3.730650901794433594e+00 5.868651390075683594e+00 -1.404265349265187979e-04 -2.339539605600293726e-05 -4.914657984045334160e-05 3.565043152775615454e-05
1.612000000000000000e+03 4.894870758056640625e+00 3.678328752517700195e+00 7.248749170685186982e-05 3.005958569701761007e-05 3.076412394875660539e-05 -5.432359466794878244e-05
1.613000000000000000e+03 3.947374820709228516e+00 4.700121879577636719e+00 1.395721192238852382e-04 1.455666824767831713e-05 4.623863424058072269e-05 -1.676392639637924731e-05
1.614000000000000000e+03 2.951422929763793945e+00 4.169157028198242188e+00 -8.332144352607429028e-05 -1.003196575766196474e-05 -2.800602305796928704e-05 -4.530390287982299924e-05
1.615000000000000000e+03 3.294114112854003906e+00 3.456581115722656250e+00 4.303197783883661032e-05 4.965761036146432161e-05 2.780687646009027958e-05 3.491330426186323166e-05
1.616000000000000000e+03 4.015665435791015625e+01 -1.436277508735656738e+00 -2.440755367279052734e+00 4.891374111175537109e+00 7.351856231689453125e-01 1.130415558815002441e+00
1.617000000000000000e+03 1.619536876678466797e+00 5.496355056762695312e+00 -1.004514269880019128e-04 -4.949405411025509238e-05 -4.498364432947710156e-05 -1.533116301288828254e-05
1.618000000000000000e+03 1.921069264411926270e+00 3.243471860885620117e+00 1.037841138895601034e-04 2.673009112186264247e-05 3.915425986633636057e-05 1.298112692893482745e-05
1.619000000000000000e+03 7.476702880859375000e+01 -1.693566894531250000e+01 2.465055731590837240e-04 2.324791239516343921e-06 7.464910595444962382e-05 -9.607113315723836422e-05
1.620000000000000000e+03 7.389172363281250000e+01 -1.743963432312011719e+01 3.706372808665037155e-04 -4.064051609020680189e-05 9.899902943288907409e-05 -6.801061681471765041e-05
1.621000000000000000e+03 7.128763580322265625e+01 -1.982434654235839844e+01 -1.981394598260521889e-04 -3.669514626380987465e-05 -7.045037636999040842e-05 1.627430319786071777e-04
1.622000000000000000e+03 7.131147003173828125e+01 -1.859368324279785156e+01 3.514536947477608919e-04 4.141174576943740249e-05 1.178596357931382954e-04 1.215755692101083696e-04
1.623000000000000000e+03 7.237448883056640625e+01 -1.991311454772949219e+01 4.732970555778592825e-04 -1.927780540427193046e-04 8.415570482611656189e-05 4.505513788899406791e-05
1.624000000000000000e+03 7.683970642089843750e+01 -1.820100784301757812e+01 2.747768594417721033e-04 7.662257121410220861e-05 1.054198291967622936e-04 -2.302059001522138715e-04
1.625000000000000000e+03 3.437465667724609375e+01 -1.593734645843505859e+01 -1.514319419860839844e+00 3.078054904937744141e+00 4.691206514835357666e-01 -8.794074654579162598e-01
1.626000000000000000e+03 1.403211402893066406e+01 -3.950275421142578125e+00 -3.184493780136108398e-01 1.655560359358787537e-02 -9.056813269853591919e-02 -2.634145878255367279e-02
1.627000000000000000e+03 7.016851043701171875e+01 -1.058945083618164062e+01 1.426769979298114777e-02 -1.125347800552845001e-02 9.042664314620196819e-04 -1.048728451132774353e-02
1.628000000000000000e+03 1.724259948730468750e+01 -4.197095870971679688e+00 -3.241716325283050537e-01 -6.448654085397720337e-02 -1.165974512696266174e-01 -4.025854170322418213e-02
1.629000000000000000e+03 7.347163391113281250e+01 -9.466879844665527344e+00 -3.144786227494478226e-03 -1.240968517959117889e-02 -4.666341468691825867e-03 4.514023195952177048e-03
1.630000000000000000e+03 7.141288757324218750e+01 -9.822179794311523438e+00 3.327549900859594345e-03 -1.646209694445133209e-02 -3.940363880246877670e-03 -1.077670487575232983e-03
1.631000000000000000e+03 1.329763031005859375e+01 -4.616925239562988281e+00 -2.621620297431945801e-01 4.295841977000236511e-02 -6.576108932495117188e-02 -4.090251773595809937e-02
1.632000000000000000e+03 1.267234420776367188e+01 3.718787908554077148e+00 -7.290067151188850403e-05 -4.128544605919159949e-05 -3.425583417993038893e-05 -4.729870124720036983e-05
1.633000000000000000e+03 7.560189819335937500e+01 -9.228729248046875000e+00 2.484516007825732231e-04 -5.808688234537839890e-03 -1.668071025051176548e-03 1.139670051634311676e-02
1.634000000000000000e+03 7.398663330078125000e+01 -8.540782928466796875e+00 -1.238605193793773651e-02 -1.354993041604757309e-02 -7.780794519931077957e-03 5.030423868447542191e-03
1.635000000000000000e+03 7.638418579101562500e+01 -8.504789352416992188e+00 -3.316042479127645493e-03 -2.822565613314509392e-03 -1.841582474298775196e-03 1.201358623802661896e-02
1.636000000000000000e+03 6.888556671142578125e+01 -1.061651611328125000e+01 1.395450811833143234e-02 -2.782268915325403214e-03 3.351671854034066200e-03 -1.236087363213300705e-02
1.637000000000000000e+03 3.957085037231445312e+01 -9.997566223144531250e+00 9.440568089485168457e-01 2.350422859191894531e+00 9.883438944816589355e-01 -2.034518718719482422e+00
1.638000000000000000e+03 1.176926231384277344e+01 -4.438477039337158203e+00 -2.621647715568542480e-01 7.101693004369735718e-02 -5.734435468912124634e-02 -6.872364133596420288e-02
1.639000000000000000e+03 1.252650260925292969e+01 -4.526427745819091797e+00 -2.625228166580200195e-01 5.590907111763954163e-02 -6.198412552475929260e-02 -5.733948945999145508e-02
1.640000000000000000e+03 3.596316528320312500e+01 -1.901308441162109375e+01 -1.159748673439025879e+00 4.839742660522460938e+00 1.103998184204101562e+00 3.421902954578399658e-01
1.641000000000000000e+03 3.958007431030273438e+01 -1.441578197479248047e+01 -7.026629894971847534e-02 4.391707420349121094e+00 1.296432375907897949e+00 -1.624212384223937988e+00
1.642000000000000000e+03 2.321415901184082031e+01 -4.874114513397216797e+00 -3.681014180183410645e-01 -2.734280824661254883e-01 -1.924588531255722046e-01 -5.286232233047485352e-01
1.643000000000000000e+03 1.651378059387207031e+01 -4.908610820770263672e+00 -2.420772165060043335e-01 -5.444701015949249268e-02 -8.895727246999740601e-02 -3.027977608144283295e-02
1.644000000000000000e+03 1.973695755004882812e+01 -4.205887794494628906e+00 -3.490015864372253418e-01 -1.275309920310974121e-01 -1.429597735404968262e-01 -1.287506669759750366e-01
1.645000000000000000e+03 1.985968399047851562e+01 -4.952483177185058594e+00 -2.455806285142898560e-01 -1.614237874746322632e-01 -1.221013292670249939e-01 -1.422773450613021851e-01
1.646000000000000000e+03 7.417183685302734375e+01 -9.352123260498046875e+00 1.955349434865638614e-04 -1.162256207317113876e-02 -3.428108058869838715e-03 8.627866394817829132e-03
1.647000000000000000e+03 7.105424499511718750e+01 -9.298296928405761719e+00 -4.533170722424983978e-03 -2.019838988780975342e-02 -7.419468369334936142e-03 -4.305623006075620651e-03
1.648000000000000000e+03 6.496406555175781250e+00 -4.181948184967041016e+00 -1.617658883333206177e-01 2.386804483830928802e-02 -4.136935248970985413e-02 -1.697352528572082520e-01
1.649000000000000000e+03 5.762403964996337891e+00 -4.150642395019531250e+00 -1.410543918609619141e-01 3.438783111050724983e-03 -4.128468409180641174e-02 -1.732788085937500000e-01
1.650000000000000000e+03 4.445108890533447266e+00 -4.106735706329345703e+00 -1.001628786325454712e-01 -3.433349728584289551e-02 -4.034891352057456970e-02 -1.646010726690292358e-01
1.651000000000000000e+03 3.513572216033935547e+00 -4.697302341461181641e+00 -6.406008452177047729e-02 -8.030829578638076782e-02 -4.331051558256149292e-02 -1.620749384164810181e-01
1.652000000000000000e+03 7.250227451324462891e+00 -4.202547550201416016e+00 -1.836819946765899658e-01 4.314618557691574097e-02 -4.216074198484420776e-02 -1.626949012279510498e-01
1.653000000000000000e+03 3.566698789596557617e+00 -3.673473596572875977e+00 -7.489402592182159424e-02 -5.115733668208122253e-02 -3.781541064381599426e-02 -1.348211765289306641e-01
1.654000000000000000e+03 4.397904396057128906e+00 -6.186150550842285156e+00 -8.487815409898757935e-02 -6.389540433883666992e-02 -4.463206604123115540e-02 -2.260635644197463989e-01
1.655000000000000000e+03 2.806447029113769531e+00 -6.013222694396972656e+00 -4.097921773791313171e-02 -1.494679003953933716e-01 -5.713413655757904053e-02 -1.835798770189285278e-01
1.656000000000000000e+03 3.751031112670898438e+01 -3.889727830886840820e+00 -1.128394246101379395e+00 8.198603630065917969e+00 2.121062994003295898e+00 4.000936508178710938e+00
1.657000000000000000e+03 1.408302688598632812e+01 -4.705933094024658203e+00 -2.577322125434875488e-01 1.909344084560871124e-02 -7.159163057804107666e-02 -3.513289988040924072e-02
1.658000000000000000e+03 1.487990093231201172e+01 -4.789837837219238281e+00 -2.534536421298980713e-01 -5.466089351102709770e-04 -7.620007544755935669e-02 -2.499613165855407715e-02
1.659000000000000000e+03 9.731855392456054688e+00 4.679547309875488281e+00 3.703713809954933822e-05 7.920741336420178413e-05 3.487336653051897883e-05 -7.217449820018373430e-06
1.660000000000000000e+03 1.569031238555908203e+01 -4.859225273132324219e+00 -2.460300475358963013e-01 -3.137540072202682495e-02 -8.322163671255111694e-02 -2.996732480823993683e-02
1.661000000000000000e+03 1.188252735137939453e+01 3.747294187545776367e+00 3.605084930313751101e-05 7.057313632685691118e-05 3.198719423380680382e-05 4.198870738036930561e-05
1.662000000000000000e+03 3.339486694335937500e+01 -7.247844219207763672e+00 5.786221981048583984e+00 3.178911685943603516e+00 2.689540147781372070e+00 1.284211039543151855e+00
1.663000000000000000e+03 1.817483329772949219e+01 -4.962251186370849609e+00 -2.351997345685958862e-01 -1.116646677255630493e-01 -1.040593236684799194e-01 -6.584591418504714966e-02
1.664000000000000000e+03 3.504557037353515625e+01 -4.927450656890869141e+00 2.234745025634765625e+00 8.170497894287109375e+00 3.121572732925415039e+00 -6.669769287109375000e-01
1.665000000000000000e+03 2.311773109436035156e+01 -4.024851799011230469e+00 -6.009356975555419922e-01 -1.298518031835556030e-01 -2.192362546920776367e-01 -4.350656569004058838e-01
1.666000000000000000e+03 2.396963310241699219e+01 -3.993871450424194336e+00 -7.415760755538940430e-01 -1.564532965421676636e-01 -2.694088220596313477e-01 -5.971123576164245605e-01
1.667000000000000000e+03 2.404260444641113281e+01 -4.882842540740966797e+00 -3.855673670768737793e-01 -3.681961297988891602e-01 -2.261290550231933594e-01 -6.980346441268920898e-01
1.668000000000000000e+03 2.154623794555664062e+01 -4.904792785644531250e+00 -2.903026640415191650e-01 -2.003961056470870972e-01 -1.472096294164657593e-01 -2.818626463413238525e-01
1.669000000000000000e+03 3.969261550903320312e+01 -1.700798797607421875e+01 -1.253614276647567749e-01 4.423073291778564453e+00 1.289313554763793945e+00 -6.118773221969604492e-01
1.670000000000000000e+03 2.493254089355468750e+01 -1.608297538757324219e+01 -7.813081145286560059e-02 -8.967723697423934937e-02 -5.034241452813148499e-02 5.735827088356018066e-01
1.671000000000000000e+03 1.952738380432128906e+01 -1.643453598022460938e+01 3.864737451076507568e-01 -1.196237578988075256e-01 8.005499839782714844e-02 1.027726233005523682e-01
1.672000000000000000e+03 3.996945953369140625e+01 -1.252873134613037109e+01 4.351818189024925232e-02 3.923197746276855469e+00 1.190014719963073730e+00 -1.959997773170471191e+00
1.673000000000000000e+03 2.132728958129882812e+01 -1.430494880676269531e+01 4.536558985710144043e-01 -2.892179191112518311e-01 4.933139309287071228e-02 3.430591225624084473e-01
1.674000000000000000e+03 2.547939682006835938e+01 -1.469668769836425781e+01 3.360709846019744873e-01 -2.954077422618865967e-01 1.219896785914897919e-02 8.343601822853088379e-01
1.675000000000000000e+03 3.826110076904296875e+01 -2.495322465896606445e+00 -2.458964109420776367e+00 6.751716613769531250e+00 1.287825703620910645e+00 3.061072349548339844e+00
1.676000000000000000e+03 4.080438995361328125e+01 -2.268866539001464844e+00 -1.191328167915344238e+00 3.298586845397949219e+00 6.321775913238525391e-01 1.175434231758117676e+00
1.677000000000000000e+03 3.887675857543945312e+01 -2.252395153045654297e+00 -2.229691028594970703e+00 5.944927215576171875e+00 1.114570856094360352e+00 2.560617208480834961e+00
1.678000000000000000e+03 1.756984519958496094e+01 -1.412558746337890625e+01 5.809619426727294922e-01 -1.511531472206115723e-01 1.289426386356353760e-01 1.569474637508392334e-01
1.679000000000000000e+03 6.012569046020507812e+01 2.055916488170623779e-01 -1.433167934417724609e+00 4.405912384390830994e-02 -4.167326390743255615e-01 -2.044033557176589966e-01
1.680000000000000000e+03 5.828641510009765625e+01 2.087988853454589844e+00 -1.509576559066772461e+00 9.162383526563644409e-02 -4.253858327865600586e-01 -4.493374228477478027e-01
1.681000000000000000e+03 3.458109283447265625e+01 -2.189897060394287109e+00 -3.916634559631347656e+00 4.063347339630126953e+00 4.401383548974990845e-02 2.985889613628387451e-01
1.682000000000000000e+03 3.296810150146484375e+01 -4.981045722961425781e+00 2.646628141403198242e+00 1.957581281661987305e+00 1.381262779235839844e+00 -1.109546780586242676e+00
1.683000000000000000e+03 2.697801780700683594e+01 -1.545405483245849609e+01 -7.881531864404678345e-02 -1.343808174133300781e-01 -6.395884603261947632e-02 1.018230795860290527e+00
1.684000000000000000e+03 2.354217720031738281e+01 -1.519429588317871094e+01 2.684690058231353760e-01 -2.301221340894699097e-01 1.150406338274478912e-02 5.112559795379638672e-01
1.685000000000000000e+03 3.717928314208984375e+01 2.805020511150360107e-01 -3.196544647216796875e+00 6.611243724822998047e+00 1.024409770965576172e+00 1.709902286529541016e+00
1.686000000000000000e+03 3.613110733032226562e+01 -1.698025345802307129e+00 -4.012630939483642578e+00 6.811358928680419922e+00 8.396183848381042480e-01 1.800762891769409180e+00
1.687000000000000000e+03 2.724189567565917969e+01 -1.396036624908447266e+01 5.207490921020507812e-01 -2.466168254613876343e-01 8.223967254161834717e-02 1.175213456153869629e+00
1.688000000000000000e+03 3.932553863525390625e+01 -1.517817497253417969e+01 -2.047972679138183594e-01 4.485450267791748047e+00 1.284195899963378906e+00 -1.389489889144897461e+00
1.689000000000000000e+03 3.678466796875000000e+01 -1.665728187561035156e+01 -1.246500015258789062e+00 4.750940799713134766e+00 1.051332235336303711e+00 -7.587336897850036621e-01
1.690000000000000000e+03 3.450350570678710938e+01 -1.695827293395996094e+01 -2.036521434783935547e+00 3.265287637710571289e+00 3.686298727989196777e-01 -9.828289151191711426e-01
1.691000000000000000e+03 2.490387344360351562e+01 -3.664073562622070312e+01 -1.459654718637466431e-01 2.226032018661499023e-01 2.299131639301776886e-02 1.134738102555274963e-01
1.692000000000000000e+03 4.077532577514648438e+01 -8.300986289978027344e-01 -3.102349758148193359e+00 4.789894104003906250e+00 5.062631964683532715e-01 3.559152185916900635e-01
1.693000000000000000e+03 1.019084358215332031e+01 -1.304529857635498047e+01 4.346307218074798584e-01 4.352613389492034912e-01 2.609676122665405273e-01 1.109656170010566711e-01
1.694000000000000000e+03 4.008897781372070312e+01 2.069771528244018555e+00 -1.674614906311035156e+00 7.108099460601806641e+00 1.630045413970947266e+00 1.404105544090270996e+00
1.695000000000000000e+03 5.523792266845703125e+01 1.887237429618835449e+00 -2.189800500869750977e+00 1.603667438030242920e-01 -6.088300943374633789e-01 -2.719300985336303711e-01
1.696000000000000000e+03 5.285244369506835938e+01 4.797454357147216797e+00 -1.470299601554870605e+00 1.394579410552978516e-01 -3.992524743080139160e-01 -9.516997933387756348e-01
1.697000000000000000e+03 9.463084220886230469e+00 2.071978950500488281e+01 2.054907090496271849e-04 1.109807926695793867e-04 9.494145342614501715e-05 9.936325659509748220e-05
1.698000000000000000e+03 1.815696907043457031e+01 3.786893606185913086e+00 9.909693471854552627e-05 5.681272523361258209e-05 4.677289689425379038e-05 7.238659600261598825e-05
1.699000000000000000e+03 7.480679321289062500e+01 -2.588512229919433594e+01 -5.648381775245070457e-04 -3.497859870549291372e-04 -2.743872464634478092e-04 1.000795164145529270e-04
1.700000000000000000e+03 7.543482208251953125e+01 -2.984800338745117188e+01 -2.829965436831116676e-03 -7.646647864021360874e-04 -1.078389002941548824e-03 2.502809045836329460e-03
1.701000000000000000e+03 6.995553588867187500e+01 -3.377139282226562500e+01 -1.198870502412319183e-02 2.547153504565358162e-03 -2.832465572282671928e-03 1.460580062121152878e-02
1.702000000000000000e+03 7.426300811767578125e+01 -3.718914031982421875e+01 4.285257775336503983e-03 -8.056491613388061523e-03 -1.131370197981595993e-03 9.205686859786510468e-03
1.703000000000000000e+03 7.548709106445312500e+01 -2.775239372253417969e+01 -1.227434724569320679e-03 -3.499362501315772533e-04 -4.732112865895032883e-04 9.032216621562838554e-04
1.704000000000000000e+03 7.599006652832031250e+01 -2.254063415527343750e+01 2.862283145077526569e-04 -1.566158898640424013e-04 3.888372884830459952e-05 -4.498994385357946157e-04
1.705000000000000000e+03 7.272344970703125000e+01 -2.418238258361816406e+01 6.063965338398702443e-05 -3.866752958856523037e-04 -9.781069093151018023e-05 -2.555088722147047520e-04
1.706000000000000000e+03 7.524120330810546875e+01 -3.638742446899414062e+01 1.044818665832281113e-03 -6.892275530844926834e-03 -1.754236989654600620e-03 9.232075884938240051e-03
1.707000000000000000e+03 7.534117889404296875e+01 -3.130960845947265625e+01 -2.332038944587111473e-03 -1.481154467910528183e-03 -1.143958070315420628e-03 4.364544991403818130e-03
1.708000000000000000e+03 7.748380279541015625e+01 -2.060721397399902344e+01 -2.484267461113631725e-04 -1.070484631782164797e-05 -7.773947436362504959e-05 -9.718291039462201297e-06
1.709000000000000000e+03 7.525780487060546875e+01 -2.333949851989746094e+01 -5.036616857978515327e-05 -4.935106844641268253e-04 -1.631630584597587585e-04 1.923843519762158394e-04
1.710000000000000000e+03 7.762438201904296875e+01 -1.941455459594726562e+01 3.142010245937854052e-04 1.080887523130513728e-04 1.266869367100298405e-04 -2.364184620091691613e-04
1.711000000000000000e+03 7.529588317871093750e+01 -1.787524986267089844e+01 2.361621445743367076e-04 6.268975266721099615e-05 8.965557208284735680e-05 -1.270829816348850727e-04
1.712000000000000000e+03 7.550863647460937500e+01 8.605784416198730469e+00 -2.973964624106884003e-02 -4.848112165927886963e-01 -1.543652564287185669e-01 -3.455192744731903076e-01
1.713000000000000000e+03 7.552183532714843750e+01 1.543717575073242188e+01 3.334195166826248169e-02 -8.991225957870483398e-01 -2.597341835498809814e-01 -3.329487740993499756e-01
1.714000000000000000e+03 7.559355926513671875e+01 1.508150577545166016e+00 -7.008238136768341064e-02 -1.415193080902099609e-01 -6.348050385713577271e-02 -1.752596199512481689e-01
1.715000000000000000e+03 7.679749298095703125e+01 1.130263805389404297e+01 8.614585385657846928e-04 -7.204041481018066406e-01 -2.158628106117248535e-01 -2.770434021949768066e-01
1.716000000000000000e+03 7.550966644287109375e+01 1.407050704956054688e+01 2.400441095232963562e-02 -8.187247514724731445e-01 -2.384160906076431274e-01 -3.477442562580108643e-01
1.717000000000000000e+03 7.683492279052734375e+01 4.327720165252685547e+00 -3.835078701376914978e-02 -2.657934427261352539e-01 -9.124327450990676880e-02 -1.939356625080108643e-01
1.718000000000000000e+03 7.553163146972656250e+01 4.393562793731689453e+00 -6.646397709846496582e-02 -2.562042176723480225e-01 -9.680045396089553833e-02 -2.631758153438568115e-01
1.719000000000000000e+03 7.679226684570312500e+01 1.817839241027832031e+01 2.552896179258823395e-02 -1.173911929130554199e+00 -3.445148766040802002e-01 -2.208912819623947144e-01
1.720000000000000000e+03 7.527819824218750000e+01 2.093461036682128906e+01 6.328987330198287964e-02 -1.134753584861755371e+00 -3.214391171932220459e-01 -2.427092939615249634e-01
1.721000000000000000e+03 7.420132446289062500e+01 1.005128574371337891e+01 -2.076088450849056244e-02 -5.124334096908569336e-01 -1.599582880735397339e-01 -4.338401556015014648e-01
1.722000000000000000e+03 7.549933624267578125e+01 1.135772132873535156e+01 -1.810488174669444561e-04 -6.536275744438171387e-01 -1.961425989866256714e-01 -3.623021543025970459e-01
1.723000000000000000e+03 7.552551269531250000e+01 5.811189651489257812e+00 -5.731158703565597534e-02 -3.258995115756988525e-01 -1.149633303284645081e-01 -2.962123751640319824e-01
1.724000000000000000e+03 7.551895904541015625e+01 7.212878704071044922e+00 -4.301171377301216125e-02 -4.040998220443725586e-01 -1.341334581375122070e-01 -3.266233801841735840e-01
1.725000000000000000e+03 7.654500579833984375e+01 2.378419876098632812e+01 2.517221309244632721e-02 -1.400315403938293457e+00 -4.125429391860961914e-01 -1.412503868341445923e-01
1.726000000000000000e+03 7.513462829589843750e+01 2.238306617736816406e+01 5.756606161594390869e-02 -1.172662734985351562e+00 -3.345290124416351318e-01 -2.120716422796249390e-01
1.727000000000000000e+03 7.497038269042968750e+01 2.795896720886230469e+01 6.043924018740653992e-02 -1.266279935836791992e+00 -3.617522120475769043e-01 -1.099926978349685669e-01
1.728000000000000000e+03 7.421463775634765625e+01 1.674263954162597656e+01 6.240813434123992920e-02 -8.544855117797851562e-01 -2.376232147216796875e-01 -3.771370351314544678e-01
1.729000000000000000e+03 7.548942565917968750e+01 1.814514160156250000e+01 4.788057878613471985e-02 -1.037123084068298340e+00 -2.967727780342102051e-01 -2.910856604576110840e-01
1.730000000000000000e+03 7.509495544433593750e+01 2.524127197265625000e+01 5.135136470198631287e-02 -1.239521861076354980e+00 -3.564511537551879883e-01 -1.556093841791152954e-01
1.731000000000000000e+03 7.506458282470703125e+01 2.383473777770996094e+01 5.205850303173065186e-02 -1.205507397651672363e+00 -3.460346460342407227e-01 -1.840829700231552124e-01
1.732000000000000000e+03 7.511027526855468750e+01 2.660251998901367188e+01 5.196759849786758423e-02 -1.258779764175415039e+00 -3.620436489582061768e-01 -1.315270960330963135e-01
1.733000000000000000e+03 7.382372283935546875e+01 2.666147422790527344e+01 7.106135040521621704e-02 -1.094911932945251465e+00 -3.071551620960235596e-01 -1.528185456991195679e-01
1.734000000000000000e+03 7.596137237548828125e+01 -2.664195299148559570e+00 -4.629379883408546448e-02 -4.127612337470054626e-02 -2.627097629010677338e-02 -5.623640120029449463e-02
1.735000000000000000e+03 7.611728668212890625e+01 -4.011337280273437500e+00 -3.465463221073150635e-02 -2.476167306303977966e-02 -1.782489195466041565e-02 -2.889499254524707794e-02
1.736000000000000000e+03 7.441472625732421875e+01 3.095711898803710938e+01 4.367998242378234863e-02 -1.216409087181091309e+00 -3.518187105655670166e-01 -6.862486153841018677e-02
1.737000000000000000e+03 7.468504333496093750e+01 2.938419723510742188e+01 4.542255029082298279e-02 -1.249568939208984375e+00 -3.612439036369323730e-01 -8.436554670333862305e-02
1.738000000000000000e+03 7.584999084472656250e+01 -1.285157918930053711e+00 -5.796609446406364441e-02 -6.367941200733184814e-02 -3.649365156888961792e-02 -8.746121078729629517e-02
1.739000000000000000e+03 7.572081756591796875e+01 9.733445942401885986e-02 -7.201469689607620239e-02 -9.680105000734329224e-02 -5.064472556114196777e-02 -1.331340074539184570e-01
1.740000000000000000e+03 7.232762908935546875e+01 3.278688430786132812e+01 6.515727192163467407e-02 -9.083531498908996582e-01 -2.529587745666503906e-01 -5.236215144395828247e-02
1.741000000000000000e+03 7.452033996582031250e+01 3.460380935668945312e+01 3.409014269709587097e-02 -1.255323886871337891e+00 -3.663701117038726807e-01 -3.354321792721748352e-02
1.742000000000000000e+03 7.627070617675781250e+01 -5.281111240386962891e+00 -2.457276545464992523e-02 -1.277754455804824829e-02 -1.120509300380945206e-02 -1.037066057324409485e-02
1.743000000000000000e+03 7.455556488037109375e+01 -7.513693332672119141e+00 -2.076545543968677521e-02 -1.486131176352500916e-02 -1.068803016096353531e-02 3.717419458553195000e-03
1.744000000000000000e+03 7.742380523681640625e+01 -6.560194492340087891e+00 -8.359605446457862854e-03 5.732598714530467987e-03 -7.881020428612828255e-04 5.053041502833366394e-03
1.745000000000000000e+03 3.254406356811523438e+01 -1.554483222961425781e+01 -9.463680982589721680e-01 1.373985052108764648e+00 1.282850801944732666e-01 -8.649689704179763794e-02
1.746000000000000000e+03 3.166440200805664062e+01 -1.499960041046142578e+01 -4.467785954475402832e-01 8.489370346069335938e-01 1.206475272774696350e-01 4.435042440891265869e-01
1.747000000000000000e+03 4.611296463012695312e+01 2.093926811218261719e+01 5.411516427993774414e-01 4.166720390319824219e+00 1.412361621856689453e+00 5.562070012092590332e-01
1.748000000000000000e+03 4.431514739990234375e+01 1.794268989562988281e+01 5.646337866783142090e-01 5.195648670196533203e+00 1.728084683418273926e+00 9.363635182380676270e-01
1.749000000000000000e+03 7.104232025146484375e+01 -2.470180511474609375e+01 1.613340282347053289e-04 -2.801080117933452129e-04 -3.563219433999620378e-05 -2.650809183251112700e-04
1.750000000000000000e+03 7.141844940185546875e+01 -2.114003562927246094e+01 3.439937718212604523e-04 -1.743156899465247989e-04 5.090342892799526453e-05 2.298104955116286874e-04
1.751000000000000000e+03 4.622484588623046875e+01 2.582105636596679688e+01 5.514742136001586914e-01 3.824824810028076172e+00 1.312889695167541504e+00 1.104786694049835205e-01
1.752000000000000000e+03 4.491775512695312500e+01 1.116850185394287109e+01 1.719827413558959961e+00 3.913112163543701172e+00 1.689881920814514160e+00 1.810531139373779297e+00
1.753000000000000000e+03 4.376293945312500000e+01 1.364349746704101562e+01 1.089231610298156738e+00 5.789890289306640625e+00 2.063736677169799805e+00 1.713720083236694336e+00
1.754000000000000000e+03 4.910431671142578125e+01 -2.954339218139648438e+01 1.368475407361984253e-01 6.227531433105468750e-01 2.278802096843719482e-01 -3.854697644710540771e-01
1.755000000000000000e+03 4.927618408203125000e+01 -3.305262374877929688e+01 -4.315400496125221252e-03 7.978233695030212402e-01 2.380523979663848877e-01 -3.664363920688629150e-01
1.756000000000000000e+03 1.510167121887207031e+01 7.679191589355468750e+00 -8.351891301572322845e-05 -5.706391675630584359e-05 -4.217484820401296020e-05 -8.041207911446690559e-05
1.757000000000000000e+03 1.555099391937255859e+01 9.412106513977050781e+00 -1.410880067851394415e-04 -4.553334656520746648e-05 -5.598640564130619168e-05 -6.880166620248928666e-05
1.758000000000000000e+03 4.459951782226562500e+01 2.094880867004394531e+01 3.427206277847290039e-01 4.851187705993652344e+00 1.558172464370727539e+00 5.219928622245788574e-01
1.759000000000000000e+03 4.608015441894531250e+01 2.255929946899414062e+01 4.705567657947540283e-01 4.146350383758544922e+00 1.385072112083435059e+00 3.755441009998321533e-01
1.760000000000000000e+03 4.398417282104492188e+01 -2.521986007690429688e+01 3.431897461414337158e-01 1.673102974891662598e+00 6.048878431320190430e-01 -6.474134922027587891e-01
1.761000000000000000e+03 4.295729637145996094e+00 -1.502632522583007812e+01 1.835069358348846436e-01 -4.218733310699462891e-02 4.239588230848312378e-02 -1.548775583505630493e-01
1.762000000000000000e+03 4.650933742523193359e+00 2.215020942687988281e+01 -2.198629954364150763e-04 -7.854621071601286530e-05 -8.952275675255805254e-05 -3.701000423461664468e-06
1.763000000000000000e+03 4.075566291809082031e+00 -2.010910606384277344e+01 3.012971282005310059e-01 1.864412277936935425e-01 1.463215053081512451e-01 4.026542603969573975e-01
1.764000000000000000e+03 3.186657667160034180e+00 -1.814621543884277344e+01 2.135238349437713623e-01 -2.830846607685089111e-01 -2.086825110018253326e-02 1.007553488016128540e-01
1.765000000000000000e+03 5.013230323791503906e+00 -1.738567543029785156e+01 3.953723907470703125e-01 3.279926180839538574e-01 2.170094996690750122e-01 1.536168307065963745e-01
1.766000000000000000e+03 2.926449298858642578e+00 -1.960270881652832031e+01 1.990749090909957886e-01 -3.310690224170684814e-01 -3.959823772311210632e-02 2.503675818443298340e-01
1.767000000000000000e+03 3.279101371765136719e+00 1.909211730957031250e+01 2.199797454522922635e-04 1.909063939820043743e-05 7.172111509134992957e-05 2.057981873804237694e-05
1.768000000000000000e+03 6.385332584381103516e+00 2.328787040710449219e+01 4.318761057220399380e-06 -6.803446740377694368e-05 -1.911471372295636684e-05 8.334459380421321839e-06
1.769000000000000000e+03 5.432517528533935547e+00 2.548479080200195312e+01 3.031810920219868422e-04 5.727041570935398340e-05 1.081354566849768162e-04 -1.264796155737712979e-04
1.770000000000000000e+03 3.107712984085083008e+00 2.641014480590820312e+01 -3.468590730335563421e-04 2.307045542693231255e-05 -9.713658073451370001e-05 5.555979896598728374e-06
1.771000000000000000e+03 4.416668891906738281e+00 2.911673545837402344e+01 5.692244158126413822e-04 -8.013877231860533357e-05 1.467256952309980989e-04 -1.058276466210372746e-04
1.772000000000000000e+03 4.548806667327880859e+00 1.760590934753417969e+01 2.203482290497049689e-04 2.830276207532733679e-05 7.459530024789273739e-05 3.787066452787257731e-05
1.773000000000000000e+03 4.562940120697021484e+00 1.908383941650390625e+01 -2.220452442998066545e-04 -2.907156886067241430e-05 -7.533504685852676630e-05 -2.348011003050487489e-05
1.774000000000000000e+03 4.547780990600585938e+00 2.372210884094238281e+01 3.038260911125689745e-04 5.720223998650908470e-05 1.083085007849149406e-04 -6.548712553922086954e-05
1.775000000000000000e+03 4.099903583526611328e+00 1.198672485351562500e+01 2.101559948641806841e-04 -1.098880784411448985e-05 5.975015301373787224e-05 2.720168777159415185e-05
1.776000000000000000e+03 4.199206829071044922e+00 1.337211322784423828e+01 -2.240897156298160553e-04 9.972695806936826557e-06 -6.423510785680264235e-05 -2.459416282363235950e-05
1.777000000000000000e+03 4.012513160705566406e+00 -9.474007606506347656e+00 -3.621326014399528503e-02 -1.305101513862609863e-01 -5.001702159643173218e-02 -2.839004397392272949e-01
1.778000000000000000e+03 4.297560691833496094e+00 -1.361115646362304688e+01 9.666879475116729736e-02 -8.364515751600265503e-02 3.907090518623590469e-03 -2.499619573354721069e-01
1.779000000000000000e+03 3.285476922988891602e+00 -3.047015190124511719e+01 -1.577731519937515259e-01 2.870901823043823242e-01 3.879510611295700073e-02 1.243581920862197876e-01
1.780000000000000000e+03 6.147320747375488281e+00 3.720603942871093750e+01 -5.411094753071665764e-04 1.014327353914268315e-04 -1.319030270678922534e-04 -1.957183849299326539e-04
1.781000000000000000e+03 3.171438932418823242e+00 3.408726501464843750e+01 -4.603774868883192539e-04 2.818129432853311300e-04 -5.356936526368372142e-05 -2.347109839320182800e-04
1.782000000000000000e+03 3.930701971054077148e+00 1.066274738311767578e+01 -2.123156009474769235e-04 2.588353891042061150e-05 -5.592961679212749004e-05 -2.876925282180309296e-05
1.783000000000000000e+03 4.184863567352294922e+00 -1.079778480529785156e+01 -2.129806205630302429e-02 -1.184070631861686707e-01 -4.191153496503829956e-02 -2.935934662818908691e-01
1.784000000000000000e+03 4.806577205657958984e+00 1.034877967834472656e+01 -2.373332063143607229e-05 4.856171017308952287e-06 -5.663144747813930735e-06 -4.394174902699887753e-05
1.785000000000000000e+03 3.832619905471801758e+00 -5.682381153106689453e+00 -6.981187313795089722e-02 -8.804306387901306152e-02 -4.735648259520530701e-02 -1.988202035427093506e-01
1.786000000000000000e+03 3.303542613983154297e+00 -3.191240310668945312e+01 -9.710237383842468262e-02 3.188216090202331543e-01 6.651576608419418335e-02 4.598760604858398438e-02
1.787000000000000000e+03 5.527044773101806641e+00 2.970099449157714844e+01 1.122362373280338943e-04 1.477855257689952850e-04 7.800653111189603806e-05 -2.153667446691542864e-04
1.788000000000000000e+03 5.927604675292968750e+00 3.377433395385742188e+01 4.332857788540422916e-04 3.604259836720302701e-05 1.407985109835863113e-04 -2.616065321490168571e-04
1.789000000000000000e+03 4.804550647735595703e+00 3.457503890991210938e+01 -3.804687876254320145e-04 1.334264525212347507e-04 -7.411270053125917912e-05 -1.732483797241002321e-04
1.790000000000000000e+03 2.513011455535888672e+00 6.812273025512695312e+00 -1.403828500770032406e-04 -2.335902900085784495e-05 -4.912256554234772921e-05 6.510305684059858322e-05
1.791000000000000000e+03 3.510927915573120117e+00 8.954892158508300781e+00 5.801507722935639322e-05 -2.189824954257346690e-05 1.083504866983275861e-05 -8.852594328345730901e-05
1.792000000000000000e+03 3.945965051651000977e+00 -4.288859367370605469e+00 -7.958522439002990723e-02 -5.867741256952285767e-02 -4.147879034280776978e-02 -1.607491225004196167e-01
1.793000000000000000e+03 4.598153686523437500e+01 1.930476188659667969e+01 6.608366370201110840e-01 4.247244834899902344e+00 1.472424507141113281e+00 7.838657498359680176e-01
1.794000000000000000e+03 2.603982210159301758e+00 5.697731018066406250e+00 9.056973794940859079e-05 6.198827031766995788e-05 4.576740320771932602e-05 -8.866608550306409597e-05
1.795000000000000000e+03 5.023093700408935547e+00 4.734651088714599609e+00 -3.939985617762431502e-05 -5.533147123060189188e-05 -2.841939749487210065e-05 5.519843762158416212e-05
1.796000000000000000e+03 3.092606782913208008e+00 -5.245252132415771484e+00 -5.488044396042823792e-02 -1.136624366044998169e-01 -5.056286230683326721e-02 -1.700819134712219238e-01
1.797000000000000000e+03 7.333554840087890625e+01 -1.898110389709472656e+01 4.174872010480612516e-04 -7.757920684525743127e-05 1.019723931676708162e-04 7.654669025214388967e-05
1.798000000000000000e+03 5.126350402832031250e+00 -3.720289993286132812e+01 1.466167275793850422e-03 1.813990920782089233e-01 5.485957488417625427e-02 -8.129720576107501984e-03
1.799000000000000000e+03 7.250710296630859375e+01 -2.112080764770507812e+01 -2.504287695046514273e-04 -2.020662213908508420e-04 -1.357485016342252493e-04 2.655376738402992487e-04
1.800000000000000000e+03 5.715345382690429688e+01 2.555157899856567383e+00 -1.638693451881408691e+00 1.116632595658302307e-01 -4.581090509891510010e-01 -4.960255920886993408e-01
1.801000000000000000e+03 1.728236007690429688e+01 5.802948951721191406e+00 1.069164500222541392e-04 4.281251676729880273e-05 4.491869185585528612e-05 6.833649968029931188e-05
1.802000000000000000e+03 4.562005519866943359e+00 -2.762904930114746094e+01 -2.999081015586853027e-01 1.264116615056991577e-01 -5.204893276095390320e-02 3.659746348857879639e-01
1.803000000000000000e+03 2.638521003723144531e+01 -1.434207916259765625e+01 3.223017156124114990e-01 -2.937491834163665771e-01 8.565758354961872101e-03 9.456019997596740723e-01
1.804000000000000000e+03 4.227868652343750000e+01 -2.183416557312011719e+01 2.647873759269714355e-01 2.724374294281005859e+00 8.967484831809997559e-01 -4.494117200374603271e-01
1.805000000000000000e+03 4.245277023315429688e+01 -2.345491027832031250e+01 3.578108847141265869e-01 2.389221668243408203e+00 8.241097331047058105e-01 -5.361431241035461426e-01
1.806000000000000000e+03 4.261986923217773438e+01 4.565943241119384766e+00 3.365525603294372559e-02 4.155316352844238281e+00 1.256691455841064453e+00 1.992522597312927246e+00
1.807000000000000000e+03 4.489047622680664062e+01 3.201423645019531250e+00 -2.720834016799926758e+00 1.827991008758544922e-01 -7.614104747772216797e-01 7.943173050880432129e-01
1.808000000000000000e+03 4.689687347412109375e+01 -2.947715568542480469e+01 1.544726639986038208e-01 1.013527512550354004e+00 3.504000604152679443e-01 -5.348384380340576172e-01
1.809000000000000000e+03 1.571381855010986328e+01 6.484470844268798828e+00 7.170819299062713981e-05 6.031436714692972600e-05 3.960676986025646329e-05 6.806997407693415880e-05
1.810000000000000000e+03 1.469805049896240234e+01 5.977920055389404297e+00 -3.892874156008474529e-05 -7.620014366693794727e-05 -3.453866520430892706e-05 -6.419002602342516184e-05
1.811000000000000000e+03 6.841437530517578125e+01 -7.320789813995361328e+00 -2.738487161695957184e-02 -1.110676303505897522e-02 -1.154749095439910889e-02 1.476409146562218666e-03
1.812000000000000000e+03 1.259866333007812500e+01 1.418972301483154297e+01 1.227277825819328427e-04 1.167701611848315224e-05 4.032143988297320902e-05 1.192672862089239061e-04
1.813000000000000000e+03 1.442513275146484375e+01 8.995440483093261719e+00 1.112021564040333033e-04 4.469035411602817476e-05 4.676775279222056270e-05 7.867009844630956650e-05
1.814000000000000000e+03 5.113159561157226562e+01 7.681377410888671875e+00 2.212202697992324829e-01 1.333108395338058472e-01 1.063593327999114990e-01 -6.460188627243041992e-01
1.815000000000000000e+03 7.840874671936035156e+00 -1.396830463409423828e+01 3.525743186473846436e-01 5.407007932662963867e-01 2.679825425148010254e-01 4.716375842690467834e-02
1.816000000000000000e+03 4.566668701171875000e+01 1.775084114074707031e+01 7.903128862380981445e-01 4.378163337707519531e+00 1.550542950630187988e+00 9.989920258522033691e-01
1.817000000000000000e+03 4.624465179443359375e+01 2.759229660034179688e+01 5.729066133499145508e-01 3.675781726837158203e+00 1.274606466293334961e+00 6.946948170661926270e-02
1.818000000000000000e+03 4.465966033935546875e+01 2.734380340576171875e+01 6.092448830604553223e-01 4.173019409179687500e+00 1.434679269790649414e+00 -1.057046055793762207e-01
1.819000000000000000e+03 5.678122711181640625e+01 4.108303070068359375e+00 -1.310102820396423340e+00 1.394059807062149048e-01 -3.512090742588043213e-01 -7.396250367164611816e-01
1.820000000000000000e+03 1.798519325256347656e+01 -3.599917602539062500e+01 -2.310427427291870117e-01 -1.025796011090278625e-01 -1.000867038965225220e-01 3.267179802060127258e-02
1.821000000000000000e+03 1.488743305206298828e+01 -1.357316589355468750e+01 6.118800640106201172e-01 4.884296283125877380e-02 1.982169151306152344e-01 1.470102220773696899e-01
1.822000000000000000e+03 5.709709167480468750e+00 -3.012522506713867188e+01 -3.699810802936553955e-01 -5.427040532231330872e-02 -1.272754520177841187e-01 2.372602075338363647e-01
1.823000000000000000e+03 6.800572204589843750e+01 -6.003663539886474609e+00 -9.718927741050720215e-02 -7.569411536678671837e-04 -2.938386611640453339e-02 1.715721748769283295e-02
1.824000000000000000e+03 4.500669479370117188e+01 1.352624320983886719e+01 1.385323643684387207e+00 4.585619926452636719e+00 1.791283130645751953e+00 1.654152512550354004e+00
1.825000000000000000e+03 3.887870407104492188e+01 -2.242333030700683594e+01 4.843330383300781250e-01 4.035068511962890625e+00 1.355820417404174805e+00 6.801789999008178711e-02
1.826000000000000000e+03 3.792639541625976562e+01 -2.493634986877441406e+01 8.085540533065795898e-01 3.946814537048339844e+00 1.426610589027404785e+00 -5.267158150672912598e-02
1.827000000000000000e+03 4.478409576416015625e+01 1.227841281890869141e+01 1.571751832962036133e+00 4.538637161254882812e+00 1.833116769790649414e+00 1.854713439941406250e+00
1.828000000000000000e+03 4.224736022949218750e+01 6.723598480224609375e+00 1.859792470932006836e+00 5.845082283020019531e+00 2.311462402343750000e+00 2.838189840316772461e+00
1.829000000000000000e+03 4.526502609252929688e+01 1.011057186126708984e+01 1.806580185890197754e+00 3.326948404312133789e+00 1.540058612823486328e+00 1.684955477714538574e+00
1.830000000000000000e+03 4.940145874023437500e+01 4.088918685913085938e+00 -2.342020988464355469e+00 -4.419013559818267822e-01 -8.351767063140869141e-01 -1.281859636306762695e+00
1.831000000000000000e+03 4.748126220703125000e+01 3.848273038864135742e+00 -1.892035126686096191e+00 -9.673078656196594238e-01 -8.578029274940490723e-01 -5.841572880744934082e-01
1.832000000000000000e+03 4.489528274536132812e+01 8.354691505432128906e+00 1.872295260429382324e+00 2.844213485717773438e+00 1.414952635765075684e+00 1.719159364700317383e+00
1.833000000000000000e+03 3.178237533569335938e+01 -3.508142232894897461e+00 -1.043067574501037598e+00 -7.046038508415222168e-01 -5.243014097213745117e-01 -1.702353119850158691e+00
1.834000000000000000e+03 3.040122985839843750e+01 -3.799174547195434570e+00 -9.288098216056823730e-01 -1.446736454963684082e+00 -7.126638889312744141e-01 -2.045827627182006836e+00
1.835000000000000000e+03 4.139932632446289062e+01 1.219435095787048340e+00 -2.856461763381958008e+00 5.126263141632080078e+00 6.809403896331787109e-01 7.653510570526123047e-01
1.836000000000000000e+03 1.846991539001464844e+01 -3.829498672485351562e+01 -1.102141067385673523e-01 -1.103874891996383667e-01 -6.618047505617141724e-02 2.690996229648590088e-02
1.837000000000000000e+03 1.268323707580566406e+01 3.198363304138183594e+01 9.699202491901814938e-04 -5.950892227701842785e-04 1.124493064708076417e-04 -3.156490856781601906e-05
1.838000000000000000e+03 4.435866165161132812e+01 5.180748939514160156e+00 3.070629537105560303e-01 1.739259243011474609e+00 6.138966679573059082e-01 1.378019809722900391e+00
1.839000000000000000e+03 3.083224105834960938e+01 -1.429502201080322266e+01 1.739682406187057495e-01 5.356370210647583008e-01 2.128815799951553345e-01 9.436963200569152832e-01
1.840000000000000000e+03 3.911966323852539062e+01 -4.449595510959625244e-02 -3.250513792037963867e+00 7.010307312011718750e+00 1.127938032150268555e+00 1.578935146331787109e+00
1.841000000000000000e+03 3.571306228637695312e+01 -2.541887998580932617e+00 -3.521484851837158203e+00 7.046681404113769531e+00 1.057559013366699219e+00 1.679816484451293945e+00
1.842000000000000000e+03 6.720879364013671875e+01 -3.817322158813476562e+01 2.223536372184753418e-02 -5.237184930592775345e-03 5.099453963339328766e-03 2.391206845641136169e-02
1.843000000000000000e+03 4.038377380371093750e+01 1.143234133720397949e+00 -2.843358516693115234e+00 6.485885143280029297e+00 1.092758059501647949e+00 1.107040762901306152e+00
1.844000000000000000e+03 4.191127395629882812e+01 3.253973960876464844e+00 -1.467901706695556641e+00 5.065294265747070312e+00 1.079217791557312012e+00 1.460443019866943359e+00
1.845000000000000000e+03 3.725820922851562500e+01 -2.996132850646972656e+01 -7.064697146415710449e-02 3.180494070053100586e+00 9.329541325569152832e-01 -5.702929198741912842e-02
1.846000000000000000e+03 3.796621704101562500e+01 -2.851210975646972656e+01 1.567412018775939941e-01 3.355339288711547852e+00 1.053624153137207031e+00 -2.029710412025451660e-01
1.847000000000000000e+03 6.600382995605468750e+01 -3.424274444580078125e+01 -2.969584055244922638e-02 5.464264657348394394e-03 -7.269472815096378326e-03 2.235594205558300018e-02
1.848000000000000000e+03 3.419568634033203125e+01 -3.291624450683593750e+01 -3.848708570003509521e-01 2.295100212097167969e+00 5.730687975883483887e-01 4.281151294708251953e-01
1.849000000000000000e+03 3.686879348754882812e+01 -3.160966110229492188e+01 -3.367040753364562988e-01 2.811726331710815430e+00 7.425066828727722168e-01 -2.747844206169247627e-03
1.850000000000000000e+03 3.110686683654785156e+01 -7.251585483551025391e+00 3.796924591064453125e+00 -1.736363172531127930e-01 1.086986422538757324e+00 2.853367030620574951e-01
1.851000000000000000e+03 3.030887603759765625e+01 -4.940387725830078125e+00 1.127374529838562012e+00 -1.290179848670959473e+00 -4.884158819913864136e-02 -1.551389098167419434e+00
1.852000000000000000e+03 5.016279983520507812e+01 5.008187294006347656e+00 -1.408944249153137207e+00 -2.527523636817932129e-01 -4.985089898109436035e-01 -1.030818462371826172e+00
1.853000000000000000e+03 1.089768409729003906e+01 1.643330574035644531e+01 -1.512834423920139670e-04 3.758323509828187525e-05 -3.411006400710903108e-05 1.684093294898048043e-04
1.854000000000000000e+03 7.601184082031250000e+01 -2.442429542541503906e+01 -5.454343045130372047e-04 -1.769989466993138194e-04 -2.167299826396629214e-04 -3.390267957001924515e-04
1.855000000000000000e+03 2.045185852050781250e+01 3.566933822631835938e+01 7.504124369006603956e-05 6.646889378316700459e-04 2.219190646428614855e-04 1.407889649271965027e-03
1.856000000000000000e+03 1.762971878051757812e+01 3.689433288574218750e+01 -8.581666043028235435e-04 -1.241785823367536068e-03 -6.299857050180435181e-04 -7.526927511207759380e-04
1.857000000000000000e+03 6.865985107421875000e+01 -8.606093406677246094e+00 -4.484825301915407181e-03 -8.550770580768585205e-03 -3.910678904503583908e-03 -8.529815822839736938e-03
1.858000000000000000e+03 4.223696899414062500e+01 3.396331787109375000e+01 -5.945330113172531128e-02 3.287635326385498047e+00 9.684545993804931641e-01 -3.685737848281860352e-01
1.859000000000000000e+03 2.764462852478027344e+01 -3.688719177246093750e+01 -1.940379589796066284e-01 6.057108044624328613e-01 1.235018521547317505e-01 2.604883015155792236e-01
1.860000000000000000e+03 6.323648834228515625e+01 4.887087941169738770e-01 -9.296281933784484863e-01 1.437871456146240234e-01 -2.357523143291473389e-01 -3.040477037429809570e-01
1.861000000000000000e+03 1.185766983032226562e+01 2.700741195678710938e+01 6.211827276274561882e-04 7.410575199173763394e-05 2.085865417029708624e-04 3.470317169558256865e-04
1.862000000000000000e+03 5.754074096679687500e+00 2.423318290710449219e+01 -1.285240869037806988e-04 -4.829357931157574058e-05 -5.304529986460693181e-05 2.360442340432200581e-05
1.863000000000000000e+03 1.300966358184814453e+01 2.391627120971679688e+01 -4.826223885174840689e-04 6.323410343611612916e-05 -1.258164847968146205e-04 -3.696794010465964675e-05
1.864000000000000000e+03 1.181287288665771484e+01 2.232187652587890625e+01 -3.892591048497706652e-04 9.282768587581813335e-06 -1.139929008786566556e-04 -8.752685243962332606e-05
1.865000000000000000e+03 3.053212404251098633e+00 -2.312690734863281250e+01 6.780898571014404297e-02 -4.079225286841392517e-02 8.105020970106124878e-03 5.490432977676391602e-01
1.866000000000000000e+03 4.245384597778320312e+01 3.773940277099609375e+01 -4.589187502861022949e-01 2.716493606567382812e+00 6.772724390029907227e-01 -1.645398139953613281e-01
1.867000000000000000e+03 4.667000961303710938e+01 3.130786132812500000e+01 3.091759085655212402e-01 3.201984643936157227e+00 1.053348183631896973e+00 2.345597743988037109e-01
1.868000000000000000e+03 5.577960014343261719e+00 -1.217165946960449219e+01 4.094241932034492493e-02 1.328296065330505371e-01 5.213160812854766846e-02 -2.486082017421722412e-01
1.869000000000000000e+03 3.858412551879882812e+01 -2.709061622619628906e+01 4.513777196407318115e-01 3.310224533081054688e+00 1.128480672836303711e+00 -2.975413799285888672e-01
1.870000000000000000e+03 7.190045928955078125e+01 -3.007440376281738281e+01 -7.806055713444948196e-03 1.512050046585500240e-03 -1.888201804831624031e-03 3.641285700723528862e-03
1.871000000000000000e+03 7.074192810058593750e+01 -2.975526809692382812e+01 -9.053675457835197449e-03 2.957503776997327805e-03 -1.828851527534425259e-03 1.969580305740237236e-03
1.872000000000000000e+03 1.127483940124511719e+01 -1.305093002319335938e+01 4.484648704528808594e-01 3.905782103538513184e-01 2.517129182815551758e-01 1.263669133186340332e-01
1.873000000000000000e+03 6.519413757324218750e+01 -1.723044633865356445e+00 -6.099324822425842285e-01 1.114380508661270142e-01 -1.495483219623565674e-01 -9.096398949623107910e-02
1.874000000000000000e+03 6.540666961669921875e+01 -5.609086155891418457e-01 -6.643110513687133789e-01 1.354399919509887695e-01 -1.586613208055496216e-01 -1.840314269065856934e-01
1.875000000000000000e+03 4.611225891113281250e+01 2.948903465270996094e+01 5.494273900985717773e-01 3.494039773941040039e+00 1.213040113449096680e+00 1.103107780218124390e-01
1.876000000000000000e+03 6.642984771728515625e+01 -1.921873331069946289e+00 -5.006501078605651855e-01 1.065671369433403015e-01 -1.182248890399932861e-01 -8.134682476520538330e-02
1.877000000000000000e+03 4.040022659301757812e+01 -2.126226043701171875e+01 2.069556713104248047e-01 3.645331621170043945e+00 1.155686259269714355e+00 -1.261204034090042114e-01
1.878000000000000000e+03 4.043415069580078125e+01 -1.916989707946777344e+01 3.680951427668333054e-03 4.078453540802001953e+00 1.224640369415283203e+00 -8.922212570905685425e-02
1.879000000000000000e+03 7.166427612304687500e+01 -2.673014640808105469e+01 -1.739400322549045086e-03 -7.587732397951185703e-05 -5.445833085104823112e-04 -3.800558624789118767e-04
1.880000000000000000e+03 7.324387359619140625e+01 -2.614692497253417969e+01 -1.029649982228875160e-03 -2.883078414015471935e-04 -3.953873529098927975e-04 -6.693660543533042073e-05
1.881000000000000000e+03 3.272338867187500000e+01 -3.489015197753906250e+01 -4.103989303112030029e-01 1.715774655342102051e+00 3.916127085685729980e-01 4.705653488636016846e-01
1.882000000000000000e+03 7.117074584960937500e+01 -3.243626785278320312e+01 -9.324311278760433197e-03 2.712994348257780075e-03 -1.983395311981439590e-03 7.425110321491956711e-03
1.883000000000000000e+03 7.223151397705078125e+01 -3.136185073852539062e+01 -7.304717786610126495e-03 8.591937366873025894e-04 -1.933657214976847172e-03 5.833008792251348495e-03
1.884000000000000000e+03 4.557838439941406250e+01 3.623139190673828125e+01 -3.479206562042236328e-01 3.030605316162109375e+00 8.048054575920104980e-01 9.418438374996185303e-02
1.885000000000000000e+03 4.078956222534179688e+01 -2.461002159118652344e+01 4.695005118846893311e-01 2.924409627914428711e+00 1.018173098564147949e+00 -3.827489614486694336e-01
1.886000000000000000e+03 8.291810989379882812e+00 -3.418428421020507812e+01 -1.526303142309188843e-01 -2.110099792480468750e-01 -1.090920865535736084e-01 9.564682841300964355e-02
1.887000000000000000e+03 5.388160228729248047e+00 -1.633104133605957031e+01 4.354083538055419922e-01 3.627451360225677490e-01 2.394460439682006836e-01 5.272688344120979309e-02
1.888000000000000000e+03 3.886516952514648438e+01 -1.132044506072998047e+01 2.026602774858474731e-01 4.390193462371826172e+00 1.377856135368347168e+00 -2.537353754043579102e+00
1.889000000000000000e+03 3.793938446044921875e+01 -9.379838943481445312e+00 1.389611959457397461e+00 5.681426525115966797e+00 2.121311664581298828e+00 -3.515085220336914062e+00
1.890000000000000000e+03 3.839697265625000000e+01 -9.329531669616699219e+00 1.726618170738220215e+00 3.993283748626708984e+00 1.715970635414123535e+00 -3.217043876647949219e+00
1.891000000000000000e+03 3.807655715942382812e+01 -1.012672424316406250e+01 7.091377973556518555e-01 5.405298233032226562e+00 1.834330797195434570e+00 -3.028713226318359375e+00
1.892000000000000000e+03 3.619613647460937500e+01 -1.025332450866699219e+01 8.842319250106811523e-02 8.417431831359863281e+00 2.551756620407104492e+00 -9.085060954093933105e-01
1.893000000000000000e+03 3.543432998657226562e+01 -9.694451332092285156e+00 8.913300633430480957e-01 9.124787330627441406e+00 3.004835367202758789e+00 6.185624599456787109e-01
1.894000000000000000e+03 3.929913711547851562e+01 -9.676375389099121094e+00 1.259336590766906738e+00 2.434133291244506836e+00 1.108040928840637207e+00 -2.173534393310546875e+00
1.895000000000000000e+03 3.706531524658203125e+01 -3.358950138092041016e+00 -2.132015705108642578e+00 8.587229728698730469e+00 1.936564326286315918e+00 3.379435777664184570e+00
1.896000000000000000e+03 3.861328125000000000e+01 -4.294771194458007812e+00 7.290754914283752441e-01 5.260939598083496094e+00 1.797004580497741699e+00 4.223095893859863281e+00
1.897000000000000000e+03 4.026120376586914062e+01 -4.141560554504394531e+00 4.699360430240631104e-01 2.216660261154174805e+00 8.059788942337036133e-01 1.910356998443603516e+00
1.898000000000000000e+03 9.576310157775878906e+00 -5.041875839233398438e+00 -2.100671231746673584e-01 9.923597425222396851e-02 -3.324934840202331543e-02 -1.288134008646011353e-01
1.899000000000000000e+03 1.031379318237304688e+01 -5.067066192626953125e+00 -2.171997874975204468e-01 9.849481284618377686e-02 -3.561149165034294128e-02 -1.118262633681297302e-01
1.900000000000000000e+03 7.582467651367187500e+01 -1.898031425476074219e+01 2.215413551311939955e-04 1.150224561570212245e-04 1.009691404760815203e-04 -2.458499511703848839e-04
1.901000000000000000e+03 3.012802124023437500e+01 -5.998773097991943359e+00 2.570188283920288086e+00 -1.077071785926818848e+00 4.479349851608276367e-01 -8.517544865608215332e-01
1.902000000000000000e+03 3.236886215209960938e+01 -1.145725440979003906e+01 1.485904812812805176e+00 2.689003467559814453e+00 1.252472519874572754e+00 1.359827160835266113e+00
1.903000000000000000e+03 3.805004501342773438e+01 -4.928400039672851562e+00 1.804038643836975098e+00 6.190111160278320312e+00 2.398244857788085938e+00 5.088159561157226562e+00
1.904000000000000000e+03 3.856204986572265625e+01 -4.893560409545898438e+00 1.994641542434692383e+00 4.314427375793457031e+00 1.892720699310302734e+00 4.316901683807373047e+00
1.905000000000000000e+03 1.501731300354003906e+01 2.819075107574462891e+00 -6.641139771090820432e-05 -2.694224895094521344e-05 -2.800609399855602533e-05 -2.561697147029917687e-05
1.906000000000000000e+03 9.617913246154785156e+00 3.930319070816040039e+00 -4.072067531524226069e-05 -6.150284752948209643e-05 -3.066705539822578430e-05 -6.751109594915760681e-06
1.907000000000000000e+03 6.703720092773437500e+00 4.268459796905517578e+00 -2.912193849624600261e-05 -3.608203041949309409e-05 -1.956119012902490795e-05 3.157179889967665076e-05
1.908000000000000000e+03 5.508530139923095703e+00 5.770117282867431641e+00 -4.152959445491433144e-05 6.743493486283114180e-06 -1.043583051796304062e-05 -4.051824726047925651e-05
1.909000000000000000e+03 1.561190128326416016e+01 3.470868110656738281e+00 -9.908506763167679310e-05 -3.634716676970128901e-06 -3.081593604292720556e-05 -1.869944571808446199e-05
1.910000000000000000e+03 1.630043601989746094e+01 5.408722877502441406e+00 -6.398331606760621071e-05 -5.323221557773649693e-05 -3.516465949360281229e-05 -6.970627873670309782e-05
1.911000000000000000e+03 1.369428157806396484e+01 4.561055183410644531e+00 -1.302552700508385897e-04 -2.554333514126483351e-05 -4.673958028433844447e-05 -3.858632408082485199e-05
1.912000000000000000e+03 7.442720890045166016e+00 4.095818042755126953e+00 1.480183618696173653e-05 5.723202775698155165e-05 2.161015800083987415e-05 -2.898564525821711868e-05
1.913000000000000000e+03 8.353094100952148438e+00 4.606000423431396484e+00 -9.106854122364893556e-06 8.197719580493867397e-05 2.186110395996365696e-05 -2.709402178879827261e-05
1.914000000000000000e+03 7.727149009704589844e+00 4.801987648010253906e+00 -7.054359684843802825e-06 -5.462402259581722319e-05 -1.850351509347092360e-05 4.853363498114049435e-05
1.915000000000000000e+03 7.668354034423828125e+01 -1.925012779235839844e+01 -1.387296797474846244e-04 -1.284207392018288374e-04 -8.014512422960251570e-05 4.074128810316324234e-05
1.916000000000000000e+03 7.457090759277343750e+01 -1.767827224731445312e+01 -9.579031029716134071e-05 -1.727909984765574336e-04 -8.057439117692410946e-05 -5.440047061711084098e-06
1.917000000000000000e+03 7.468141937255859375e+01 -2.064198684692382812e+01 -7.588982498418772593e-06 -5.627172868116758764e-05 -1.915821303555276245e-05 -1.682493020780384541e-04
1.918000000000000000e+03 3.923340606689453125e+01 -1.305068969726562500e+01 -3.149858862161636353e-02 4.364410400390625000e+00 1.299873471260070801e+00 -2.068203449249267578e+00
1.919000000000000000e+03 3.952251815795898438e+01 -1.134436893463134766e+01 3.340921700000762939e-01 3.477306604385375977e+00 1.143419623374938965e+00 -2.182320833206176758e+00
1.920000000000000000e+03 1.275706100463867188e+01 4.531763076782226562e+00 6.472483073594048619e-05 6.533305713674053550e-05 3.901736636180430651e-05 5.521922867046669126e-05
1.921000000000000000e+03 1.332541275024414062e+01 -5.364140987396240234e+00 -2.076653093099594116e-01 5.097325146198272705e-02 -4.700762033462524414e-02 -4.543376713991165161e-02
1.922000000000000000e+03 1.104712486267089844e+01 -5.116128444671630859e+00 -2.205980867147445679e-01 9.664334356784820557e-02 -3.718642517924308777e-02 -9.071864932775497437e-02
1.923000000000000000e+03 1.179107952117919922e+01 -5.185451984405517578e+00 -2.194951921701431274e-01 8.436665683984756470e-02 -4.053856432437896729e-02 -7.596694678068161011e-02
1.924000000000000000e+03 3.901829528808593750e+01 -9.531093597412109375e+00 1.489349722862243652e+00 2.738529682159423828e+00 1.268363833427429199e+00 -2.479584932327270508e+00
1.925000000000000000e+03 8.012084007263183594e+00 -4.218219280242919922e+00 -2.044475376605987549e-01 6.032841652631759644e-02 -4.323573783040046692e-02 -1.502507179975509644e-01
1.926000000000000000e+03 6.569317340850830078e+00 -6.852602481842041016e+00 -1.186284646391868591e-01 6.357433646917343140e-02 -1.651623845100402832e-02 -2.311169952154159546e-01
1.927000000000000000e+03 3.403388595581054688e+01 -4.944746971130371094e+00 2.772833824157714844e+00 4.724291324615478516e+00 2.249137639999389648e+00 -8.274881243705749512e-01
1.928000000000000000e+03 3.467378234863281250e+01 -3.995625495910644531e+00 -2.582761347293853760e-01 6.234165668487548828e+00 1.792766809463500977e+00 -2.525029182434082031e-01
1.929000000000000000e+03 1.112640190124511719e+01 3.810880184173583984e+00 -2.673263952601701021e-05 -7.919525523902848363e-05 -3.177837061230093241e-05 -1.935323962243273854e-05
1.930000000000000000e+03 7.205827331542968750e+01 -9.664224624633789062e+00 -1.000293530523777008e-03 -1.432936917990446091e-02 -4.598898813128471375e-03 -1.049003796651959419e-03
1.931000000000000000e+03 6.964317321777343750e+01 -8.637742042541503906e+00 -1.104796864092350006e-02 -1.859969832003116608e-02 -8.894300088286399841e-03 -5.049078259617090225e-03
1.932000000000000000e+03 1.196723556518554688e+01 4.443957328796386719e+00 -3.100969843217171729e-05 -7.791151438141241670e-05 -3.267636566306464374e-05 -5.218094156589359045e-05
1.933000000000000000e+03 2.080744934082031250e+01 -5.715314388275146484e+00 -1.171679198741912842e-01 -2.505658864974975586e-01 -1.103201434016227722e-01 -2.146514058113098145e-01
1.934000000000000000e+03 1.660380744934082031e+01 -5.677484512329101562e+00 -1.563446819782257080e-01 -7.281392067670822144e-02 -6.874758005142211914e-02 -3.306193277239799500e-02
1.935000000000000000e+03 1.255031108856201172e+01 -5.269952774047851562e+00 -2.157813012599945068e-01 7.306271046400070190e-02 -4.281557723879814148e-02 -5.586988106369972229e-02
1.936000000000000000e+03 7.277318572998046875e+01 -9.579386711120605469e+00 6.370050832629203796e-04 -1.496047154068946838e-02 -4.297039937227964401e-03 3.165935166180133820e-03
1.937000000000000000e+03 7.265506744384765625e+01 -8.854954719543457031e+00 -9.391042403876781464e-03 -1.724261231720447540e-02 -7.990096695721149445e-03 1.110652112402021885e-03
1.938000000000000000e+03 7.330413818359375000e+01 -8.714013099670410156e+00 -7.448976859450340271e-03 -1.651658490300178528e-02 -7.189668249338865280e-03 5.513556767255067825e-03
1.939000000000000000e+03 4.167518138885498047e+00 -5.179062843322753906e+00 -8.372490108013153076e-02 -6.990864872932434082e-02 -4.609006643295288086e-02 -1.936747282743453979e-01
1.940000000000000000e+03 3.672986745834350586e+00 -6.284801959991455078e+00 -6.504595279693603516e-02 -1.090243086218833923e-01 -5.222107842564582825e-02 -2.159749716520309448e-01
1.941000000000000000e+03 7.554093933105468750e+01 -8.392910957336425781e+00 -8.257958106696605682e-03 -6.336840800940990448e-03 -4.378439392894506454e-03 1.049711741507053375e-02
1.942000000000000000e+03 7.642667388916015625e+01 -7.542992115020751953e+00 -9.688513353466987610e-03 -2.193176886066794395e-03 -3.564507002010941505e-03 8.650964125990867615e-03
1.943000000000000000e+03 4.029176712036132812e+01 -1.108206653594970703e+01 3.940144777297973633e-01 2.544529199600219727e+00 8.815631270408630371e-01 -1.756166338920593262e+00
1.944000000000000000e+03 5.057199954986572266e+00 -4.853269100189208984e+00 -1.133122146129608154e-01 -2.132493257522583008e-02 -4.039114341139793396e-02 -1.949465125799179077e-01
1.945000000000000000e+03 6.516662120819091797e+00 -5.032008647918701172e+00 -1.494917571544647217e-01 3.142192214727401733e-02 -3.542095050215721130e-02 -1.951766908168792725e-01
1.946000000000000000e+03 6.515013217926025391e+00 -5.924891471862792969e+00 -1.357421129941940308e-01 4.640408605337142944e-02 -2.680140919983386993e-02 -2.165076732635498047e-01
1.947000000000000000e+03 7.201037597656250000e+01 -8.936681747436523438e+00 -6.425318773835897446e-03 -1.870254985988140106e-02 -7.538361009210348129e-03 -8.083895081654191017e-04
1.948000000000000000e+03 1.576393985748291016e+01 -5.632505893707275391e+00 -1.709797829389572144e-01 -3.234247118234634399e-02 -6.099667400121688843e-02 -2.016838826239109039e-02
1.949000000000000000e+03 7.286850452423095703e+00 -5.042387008666992188e+00 -1.689871400594711304e-01 5.920186266303062439e-02 -3.293558210134506226e-02 -1.842045336961746216e-01
1.950000000000000000e+03 8.058206558227539062e+00 -5.037986755371093750e+00 -1.851819604635238647e-01 7.862434536218643188e-02 -3.196728602051734924e-02 -1.675447970628738403e-01
1.951000000000000000e+03 1.901297950744628906e+01 -4.965673446655273438e+00 -2.306592613458633423e-01 -1.463786810636520386e-01 -1.131113767623901367e-01 -1.040725037455558777e-01
1.952000000000000000e+03 1.412048435211181641e+01 -5.464298725128173828e+00 -1.976052820682525635e-01 2.992641180753707886e-02 -5.030366033315658569e-02 -2.924946323037147522e-02
1.953000000000000000e+03 1.493429374694824219e+01 -5.560190200805664062e+00 -1.838698387145996094e-01 -2.882723230868577957e-03 -5.602576956152915955e-02 -2.704467251896858215e-02
1.954000000000000000e+03 1.056790733337402344e+01 4.655237674713134766e+00 -3.880495205521583557e-05 -7.818883750587701797e-05 -3.509813541313633323e-05 -1.151039941760245711e-05
1.955000000000000000e+03 3.863480758666992188e+01 -1.343605422973632812e+01 -3.063285648822784424e-01 4.715715408325195312e+00 1.322816014289855957e+00 -1.955200791358947754e+00
1.956000000000000000e+03 3.674267959594726562e+01 -9.867330789566040039e-01 -4.398853302001953125e+00 6.862294197082519531e+00 7.390322685241699219e-01 2.026372432708740234e+00
1.957000000000000000e+03 1.911905860900878906e+01 -5.728145122528076172e+00 -1.283024549484252930e-01 -1.772261112928390503e-01 -9.165856987237930298e-02 -1.005662158131599426e-01
1.958000000000000000e+03 3.751210784912109375e+01 -6.388496756553649902e-01 -4.163412094116210938e+00 7.121449470520019531e+00 8.874111771583557129e-01 2.004251241683959961e+00
1.959000000000000000e+03 2.246215438842773438e+01 -5.727978229522705078e+00 -9.439151734113693237e-02 -3.542900681495666504e-01 -1.346044689416885376e-01 -4.095117747783660889e-01
1.960000000000000000e+03 9.234624862670898438e+00 5.739460468292236328e+00 -1.751072522893082350e-05 4.876945968135260046e-05 9.377620699524413794e-06 -2.972772745124530047e-05
1.961000000000000000e+03 3.492306518554687500e+01 -1.005022811889648438e+01 1.146692395210266113e+00 7.585880756378173828e+00 2.619771957397460938e+00 1.228956818580627441e+00
1.962000000000000000e+03 3.300917053222656250e+01 -3.197491645812988281e+00 -1.538580179214477539e+00 1.635834693908691406e+00 2.917635254561901093e-02 -1.000985860824584961e+00
1.963000000000000000e+03 1.744225120544433594e+01 -5.706814289093017578e+00 -1.462995111942291260e-01 -1.044692471623420715e-01 -7.523062825202941895e-02 -4.027641937136650085e-02
1.964000000000000000e+03 4.013159942626953125e+01 -3.179346919059753418e-01 -3.317830085754394531e+00 5.998758316040039062e+00 8.042784333229064941e-01 1.133665204048156738e+00
1.965000000000000000e+03 3.294662475585937500e+01 -1.469197750091552734e+01 -5.895949006080627441e-01 2.287542343139648438e+00 5.093842744827270508e-01 -8.038057386875152588e-02
1.966000000000000000e+03 3.365891647338867188e+01 -1.504645729064941406e+01 -9.957944154739379883e-01 2.756335973739624023e+00 5.281624794006347656e-01 -3.770828545093536377e-01
1.967000000000000000e+03 3.143671035766601562e+01 -5.291431903839111328e+00 2.355035066604614258e+00 -4.268580675125122070e-01 5.784531235694885254e-01 -1.077963113784790039e+00
1.968000000000000000e+03 3.342412185668945312e+01 -6.291882991790771484e+00 5.847033977508544922e+00 2.979113101959228516e+00 2.647844076156616211e+00 -5.489202588796615601e-02
1.969000000000000000e+03 4.022090911865234375e+01 -3.370061397552490234e+00 -3.233726918697357178e-01 3.264388322830200195e+00 8.823047280311584473e-01 2.102010726928710938e+00
1.970000000000000000e+03 3.217620849609375000e+01 -1.421314811706542969e+01 -9.682472795248031616e-02 1.679240465164184570e+00 4.747247397899627686e-01 4.257005155086517334e-01
1.971000000000000000e+03 2.368584442138671875e+01 -1.304559230804443359e+01 6.448376178741455078e-01 -4.890482425689697266e-01 4.673681780695915222e-02 5.602090954780578613e-01
1.972000000000000000e+03 2.408262825012207031e+01 -5.777279376983642578e+00 5.562996957451105118e-03 -5.555430650711059570e-01 -1.649940311908721924e-01 -6.882334351539611816e-01
1.973000000000000000e+03 2.238154029846191406e+01 -4.884946346282958984e+00 -3.163613677024841309e-01 -2.355528026819229126e-01 -1.655742526054382324e-01 -3.880673944950103760e-01
1.974000000000000000e+03 2.163869094848632812e+01 -5.716436386108398438e+00 -9.762699902057647705e-02 -3.035215437412261963e-01 -1.203445643186569214e-01 -3.018103539943695068e-01
1.975000000000000000e+03 2.087736892700195312e+01 -6.529995918273925781e+00 5.352384597063064575e-02 -3.313492238521575928e-01 -8.334761857986450195e-02 -2.041681855916976929e-01
1.976000000000000000e+03 7.072024536132812500e+01 -4.135843276977539062e+00 -1.558138877153396606e-01 6.293277692748233676e-05 -4.672528803348541260e-02 -4.674010723829269409e-02
1.977000000000000000e+03 6.882099151611328125e+01 -3.171756982803344727e+00 -2.591623067855834961e-01 2.935597486793994904e-02 -6.894189864397048950e-02 -5.535334721207618713e-02
1.978000000000000000e+03 1.829158973693847656e+01 -1.319149398803710938e+01 5.268493890762329102e-01 -2.114752233028411865e-01 9.461224824190139771e-02 1.828570216894149780e-01
1.979000000000000000e+03 1.659723091125488281e+01 -1.348311614990234375e+01 5.620393157005310059e-01 -9.529360383749008179e-02 1.400237083435058594e-01 1.516305804252624512e-01
1.980000000000000000e+03 6.693371772766113281e+00 -1.379087257385253906e+01 2.113609313964843750e-01 4.006511867046356201e-01 1.836036294698715210e-01 -1.023985892534255981e-01
1.981000000000000000e+03 7.021903228759765625e+01 -7.621125698089599609e+00 -2.625964768230915070e-02 -1.715971902012825012e-02 -1.302581001073122025e-02 -4.154483613092452288e-04
1.982000000000000000e+03 6.955061340332031250e+01 -6.769794464111328125e+00 -6.026496365666389465e-02 -1.647491939365863800e-02 -2.302196435630321503e-02 2.241433830931782722e-03
1.983000000000000000e+03 6.466751098632812500e+00 -1.658250999450683594e+01 5.464161634445190430e-01 6.755870580673217773e-01 3.666009604930877686e-01 1.646778136491775513e-01
1.984000000000000000e+03 4.784754562377929688e+01 4.944036006927490234e+00 -9.199163317680358887e-01 -3.573459386825561523e-01 -3.831786811351776123e-01 -6.326363086700439453e-01
1.985000000000000000e+03 4.851220703125000000e+01 3.718245267868041992e+00 -2.374319076538085938e+00 -8.577267527580261230e-01 -9.696137905120849609e-01 -1.243149995803833008e+00
1.986000000000000000e+03 4.502477264404296875e+01 6.452198028564453125e+00 1.119629025459289551e+00 1.688863039016723633e+00 8.425476551055908203e-01 1.242711424827575684e+00
1.987000000000000000e+03 3.886949920654296875e+01 -1.192727327346801758e+00 -3.331695795059204102e+00 6.672296524047851562e+00 1.002180218696594238e+00 1.991330623626708984e+00
1.988000000000000000e+03 3.457839202880859375e+01 -3.241930484771728516e+00 -2.077608346939086914e+00 4.933343887329101562e+00 8.567206859588623047e-01 1.383847277611494064e-02
1.989000000000000000e+03 3.958404159545898438e+01 9.487867951393127441e-01 -2.686387777328491211e+00 6.972995758056640625e+00 1.285982370376586914e+00 1.489564895629882812e+00
1.990000000000000000e+03 5.941031265258789062e+01 1.618231892585754395e+00 -1.407100677490234375e+00 7.511977106332778931e-02 -3.995942473411560059e-01 -4.209715425968170166e-01
1.991000000000000000e+03 5.600713729858398438e+01 3.015258550643920898e+00 -1.718569397926330566e+00 1.740768402814865112e-01 -4.633477628231048584e-01 -5.540490150451660156e-01
1.992000000000000000e+03 3.774899673461914062e+01 -1.892770767211914062e+01 -6.833674907684326172e-01 4.778044223785400391e+00 1.228402972221374512e+00 2.026237696409225464e-01
1.993000000000000000e+03 3.605360412597656250e+01 -1.736568069458007812e+01 -1.569274544715881348e+00 4.583079338073730469e+00 9.041414856910705566e-01 -4.315225183963775635e-01
1.994000000000000000e+03 3.622847747802734375e+01 -1.605069541931152344e+01 -1.384106993675231934e+00 4.566937923431396484e+00 9.548493027687072754e-01 -8.809408545494079590e-01
1.995000000000000000e+03 3.937140655517578125e+01 -1.624068641662597656e+01 -1.598042398691177368e-01 4.508996486663818359e+00 1.304757595062255859e+00 -8.957936167716979980e-01
1.996000000000000000e+03 3.807882308959960938e+01 -1.460185050964355469e+01 -6.128443479537963867e-01 4.796102046966552734e+00 1.254977226257324219e+00 -1.552311897277832031e+00
1.997000000000000000e+03 1.236568737030029297e+01 -1.305159759521484375e+01 5.369532108306884766e-01 2.936376333236694336e-01 2.491772472858428955e-01 1.844142973423004150e-01
1.998000000000000000e+03 1.325415515899658203e+01 -1.347446250915527344e+01 6.119019985198974609e-01 2.218113988637924194e-01 2.501140236854553223e-01 1.558278650045394897e-01
1.999000000000000000e+03 1.685543060302734375e+01 4.454003810882568359e+00 5.150326614966616035e-05 6.262413808144629002e-05 3.423821908654645085e-05 7.892193389125168324e-05
2.000000000000000000e+03 1.660550880432128906e+01 3.290724039077758789e+00 -1.918266934808343649e-05 1.096192354452796280e-04 2.713097092055249959e-05 5.519680053112097085e-05
2.001000000000000000e+03 1.492079925537109375e+01 3.495578050613403320e+00 4.369018643046729267e-05 9.338215022580698133e-05 4.112170063308440149e-05 6.280611705733463168e-05
2.002000000000000000e+03 3.258372497558593750e+01 -1.037099552154541016e+01 2.381445169448852539e+00 3.029717922210693359e+00 1.623348951339721680e+00 1.770433545112609863e+00
2.003000000000000000e+03 7.042166900634765625e+01 -8.964715003967285156e+00 -5.544465966522693634e-03 -1.554371323436498642e-02 -6.326453760266304016e-03 -4.331542644649744034e-03
2.004000000000000000e+03 1.365087795257568359e+01 1.177335548400878906e+01 1.794360432540997863e-04 4.302602246752940118e-05 6.673861935269087553e-05 1.041290233843028545e-04
2.005000000000000000e+03 1.320614528656005859e+01 1.299756622314453125e+01 -1.612892374396324158e-04 -1.837172567320521921e-05 -5.389828947954811156e-05 -1.229186891578137875e-04
2.006000000000000000e+03 2.666376686096191406e+01 -3.995512485504150391e+00 -1.114079475402832031e+00 -7.275279164314270020e-01 -5.524821877479553223e-01 -1.346891641616821289e+00
2.007000000000000000e+03 2.906283378601074219e+01 -4.980261802673339844e+00 5.442306995391845703e-01 -1.538351893424987793e+00 -2.982363700866699219e-01 -1.664334535598754883e+00
2.008000000000000000e+03 2.787519645690917969e+01 -5.085228919982910156e+00 2.427750825881958008e-01 -1.318723678588867188e+00 -3.227846026420593262e-01 -1.519103765487670898e+00
2.009000000000000000e+03 4.018634033203125000e+01 3.041676282882690430e+00 -7.634838819503784180e-01 7.334387779235839844e+00 1.971271157264709473e+00 2.085254192352294922e+00
2.010000000000000000e+03 1.726633262634277344e+01 -1.265051078796386719e+01 5.208566784858703613e-01 -1.550170928239822388e-01 1.097518727183341980e-01 1.730159521102905273e-01
2.011000000000000000e+03 7.439387512207031250e+01 -2.969847106933593750e+01 -3.151051700115203857e-03 -2.348022680962458253e-04 -1.015756162814795971e-03 2.496597822755575180e-03
2.012000000000000000e+03 7.444040679931640625e+01 -2.410311508178710938e+01 -1.044913296937011182e-04 -3.413510276004672050e-04 -1.337527064606547356e-04 -2.836176718119531870e-04
2.013000000000000000e+03 7.305945587158203125e+01 2.910448265075683594e+01 8.283541351556777954e-02 -9.987999796867370605e-01 -2.747893631458282471e-01 -1.050338894128799438e-01
2.014000000000000000e+03 7.470127868652343750e+01 -2.705660343170166016e+00 -7.345137000083923340e-02 -4.492103308439254761e-02 -3.551172092556953430e-02 -7.121518254280090332e-02
2.015000000000000000e+03 7.497856903076171875e+01 -4.105471611022949219e+00 -5.493080615997314453e-02 -2.794567868113517761e-02 -2.486294507980346680e-02 -3.671678900718688965e-02
2.016000000000000000e+03 7.432408905029296875e+01 -2.691827774047851562e+01 -2.244443167001008987e-03 -4.472108848858624697e-04 -8.074961951933801174e-04 5.616803537122905254e-04
2.017000000000000000e+03 7.613330841064453125e+01 -2.550712013244628906e+01 8.635439007775858045e-05 -3.373621148057281971e-04 -7.530231232522055507e-05 1.204946238431148231e-04
2.018000000000000000e+03 7.586631774902343750e+01 -2.657859420776367188e+01 -1.399098429828882217e-03 -4.442837962415069342e-04 -5.530146299861371517e-04 4.278548294678330421e-04
2.019000000000000000e+03 7.294889068603515625e+01 -3.037957763671875000e+01 -5.362312775105237961e-03 8.346538525074720383e-04 -1.358297653496265411e-03 3.557033371180295944e-03
2.020000000000000000e+03 7.540995788574218750e+01 -3.267059707641601562e+01 -3.350489074364304543e-03 -1.992191886529326439e-03 -1.602804288268089294e-03 5.378006957471370697e-03
2.021000000000000000e+03 7.437347412109375000e+01 -3.326502990722656250e+01 -4.207000136375427246e-03 -1.824973500333726406e-03 -1.809592125937342644e-03 7.570911664515733719e-03
2.022000000000000000e+03 7.357385253906250000e+01 2.232429122924804688e+01 9.961903095245361328e-02 -9.795022010803222656e-01 -2.639649510383605957e-01 -2.592243552207946777e-01
2.023000000000000000e+03 7.421180725097656250e+01 1.541401290893554688e+01 5.308179184794425964e-02 -7.934785485267639160e-01 -2.221190184354782104e-01 -3.986759185791015625e-01
2.024000000000000000e+03 7.540625762939453125e+01 1.952118301391601562e+01 5.446041375398635864e-02 -1.089981079101562500e+00 -3.106562197208404541e-01 -2.678628563880920410e-01
2.025000000000000000e+03 7.418255615234375000e+01 1.806085586547851562e+01 7.395403832197189331e-02 -9.068943262100219727e-01 -2.498820871114730835e-01 -3.505878448486328125e-01
2.026000000000000000e+03 7.422254180908203125e+01 4.491764545440673828e+00 -1.036571711301803589e-01 -2.323974221944808960e-01 -1.008163765072822571e-01 -3.234257698059082031e-01
2.027000000000000000e+03 7.420114135742187500e+01 3.025598049163818359e+00 -1.178950816392898560e-01 -1.740672588348388672e-01 -8.758869767189025879e-02 -2.780992090702056885e-01
2.028000000000000000e+03 7.417563629150390625e+01 1.464625954627990723e+00 -1.223549544811248779e-01 -1.188391968607902527e-01 -7.235824316740036011e-02 -2.167315036058425903e-01
2.029000000000000000e+03 7.422164916992187500e+01 8.677945137023925781e+00 -4.424162581562995911e-02 -4.391705989837646484e-01 -1.450236737728118896e-01 -4.223147928714752197e-01
2.030000000000000000e+03 7.550244140625000000e+01 1.271179389953613281e+01 1.360124256461858749e-02 -7.382162809371948242e-01 -2.173845171928405762e-01 -3.601355850696563721e-01
2.031000000000000000e+03 7.418541717529296875e+01 1.140104961395263672e+01 6.635154713876545429e-04 -5.858175158500671387e-01 -1.755461990833282471e-01 -4.402231872081756592e-01
2.032000000000000000e+03 7.362922668457031250e+01 2.542075538635253906e+01 8.036594837903976440e-02 -1.049213647842407227e+00 -2.906543314456939697e-01 -1.789459735155105591e-01
2.033000000000000000e+03 7.345221710205078125e+01 2.393082237243652344e+01 9.296551346778869629e-02 -1.001771569252014160e+00 -2.726418375968933105e-01 -2.193483263254165649e-01
2.034000000000000000e+03 7.381951141357421875e+01 -2.800094032287597656e+01 -2.526569180190563202e-03 7.788048969814553857e-05 -7.346065831370651722e-04 8.705537184141576290e-04
2.035000000000000000e+03 7.490122222900390625e+01 -2.874122428894042969e+01 -2.774080960080027580e-03 -5.287004169076681137e-04 -9.908344363793730736e-04 2.140987198799848557e-03
2.036000000000000000e+03 7.348423767089843750e+01 -7.416203022003173828e-01 -1.346857249736785889e-01 -6.542092561721801758e-02 -6.003199517726898193e-02 -1.527021229267120361e-01
2.037000000000000000e+03 7.004531097412109375e+01 3.529849243164062500e+01 6.099783256649971008e-02 -5.552231669425964355e-01 -1.482675969600677490e-01 -1.479485910385847092e-02
2.038000000000000000e+03 7.419492340087890625e+01 1.406983280181884766e+01 3.927572071552276611e-02 -7.275713682174682617e-01 -2.064886987209320068e-01 -4.219960868358612061e-01
2.039000000000000000e+03 7.423412322998046875e+01 7.296423435211181641e+00 -6.709717214107513428e-02 -3.656038641929626465e-01 -1.298103034496307373e-01 -3.952184319496154785e-01
2.040000000000000000e+03 7.389323425292968750e+01 2.080767250061035156e+01 9.616608172655105591e-02 -9.713109135627746582e-01 -2.625434696674346924e-01 -2.927463054656982422e-01
2.041000000000000000e+03 7.365039825439453125e+01 2.778923988342285156e+01 8.620166778564453125e-02 -1.071391820907592773e+00 -2.955570518970489502e-01 -1.285966038703918457e-01
2.042000000000000000e+03 7.442812347412109375e+01 2.302005654200911522e-03 -1.102592870593070984e-01 -8.674244582653045654e-02 -5.910051986575126648e-02 -1.625290066003799438e-01
2.043000000000000000e+03 7.523196411132812500e+01 -2.164080619812011719e+01 2.296674501849338412e-04 -4.022040229756385088e-04 -5.176097693038173020e-05 -5.211680399952456355e-05
2.044000000000000000e+03 4.746711730957031250e+01 2.264933776855468750e+01 6.071241497993469238e-01 3.628260374069213867e+00 1.270615339279174805e+00 4.146226346492767334e-01
2.045000000000000000e+03 4.756094360351562500e+01 2.418502807617187500e+01 6.017026901245117188e-01 3.479512691497802734e+00 1.224364638328552246e+00 3.047778904438018799e-01
2.046000000000000000e+03 1.016823005676269531e+01 2.813673973083496094e+01 3.060285234823822975e-04 1.378964952891692519e-04 1.331774983555078506e-04 5.874340786249376833e-05
2.047000000000000000e+03 4.392082691192626953e+00 2.785544395446777344e+01 -3.929864033125340939e-04 3.551859890649211593e-06 -1.168303642771206796e-04 -6.449706688727019355e-06
2.048000000000000000e+03 6.322613239288330078e+00 2.870984268188476562e+01 1.965363662748131901e-05 -9.980522008845582604e-05 -2.404547558398917317e-05 4.421476114657707512e-05
2.049000000000000000e+03 1.870706176757812500e+01 -1.213999938964843750e+01 5.089588761329650879e-01 -2.642024755477905273e-01 7.342692464590072632e-02 1.981706917285919189e-01
2.050000000000000000e+03 4.941213607788085938e+01 1.938199424743652344e+01 9.608913660049438477e-01 2.792199850082397461e+00 1.125927329063415527e+00 6.238885521888732910e-01
2.051000000000000000e+03 7.518875885009765625e+01 -5.342865943908691406e+00 -3.523262962698936462e-02 -2.084876038134098053e-02 -1.682441681623458862e-02 -1.472447533160448074e-02
2.052000000000000000e+03 7.623856353759765625e+01 -2.150257682800292969e+01 -2.293103025294840336e-04 -1.445118541596457362e-04 -1.121466484619304538e-04 4.851510311709716916e-05
2.053000000000000000e+03 4.228499603271484375e+01 -2.503278923034667969e+01 3.663940727710723877e-01 2.319039344787597656e+00 8.056300282478332520e-01 -5.766829848289489746e-01
2.054000000000000000e+03 9.417261123657226562e+00 2.473572921752929688e+01 -1.058894631569273770e-04 -1.734187535475939512e-04 -8.379246719414368272e-05 -1.153990961029194295e-04
2.055000000000000000e+03 1.187074375152587891e+01 2.535585594177246094e+01 -3.581880882848054171e-04 -6.118675810284912586e-05 -1.258124539162963629e-04 -1.667356555117294192e-04
2.056000000000000000e+03 7.547323608398437500e+01 -7.464326381683349609e+00 -1.312372088432312012e-02 -1.076333597302436829e-02 -7.166116964071989059e-03 6.406030617654323578e-03
2.057000000000000000e+03 7.638328552246093750e+01 -6.457567214965820312e+00 -1.478413492441177368e-02 -6.856968160718679428e-03 -6.492330692708492279e-03 2.392834983766078949e-03
2.058000000000000000e+03 4.818875122070312500e+01 2.009543418884277344e+01 8.185617327690124512e-01 3.306083202362060547e+00 1.237393498420715332e+00 6.349197030067443848e-01
2.059000000000000000e+03 7.506050872802734375e+01 -1.866258621215820312e+01 1.662028989812824875e-05 -3.287228173576295376e-04 -9.363076242152601480e-05 -1.315940880886046216e-05
2.060000000000000000e+03 7.543217468261718750e+01 -1.991094779968261719e+01 7.874702714616432786e-05 -4.086460394319146872e-04 -9.896970004774630070e-05 3.051293060707394034e-05
2.061000000000000000e+03 1.187098407745361328e+01 1.543516159057617188e+01 -8.139574492815881968e-05 1.492346513032316579e-07 -2.437395232846029103e-05 -1.235533418366685510e-04
2.062000000000000000e+03 7.078485488891601562e+00 1.573333740234375000e+01 -2.099226112477481365e-04 5.001272074878215790e-05 -4.797296787728555501e-05 2.539570778026245534e-05
2.063000000000000000e+03 4.587945461273193359e+00 2.058345031738281250e+01 2.470056060701608658e-04 5.209453229326754808e-05 8.973004878498613834e-05 1.108978085540002212e-05
2.064000000000000000e+03 4.326563358306884766e+00 1.476108455657958984e+01 2.285870141349732876e-04 -9.864801540970802307e-06 6.561665941262617707e-05 3.609143095673061907e-05
2.065000000000000000e+03 6.126878738403320312e+00 2.700003051757812500e+01 1.566958380863070488e-04 2.215386302850674838e-05 5.365490869735367596e-05 -1.783804327715188265e-04
2.066000000000000000e+03 4.252393722534179688e+00 2.651514434814453125e+01 4.566736461129039526e-04 7.728107448201626539e-06 1.393205311615020037e-04 -1.259292621398344636e-04
2.067000000000000000e+03 4.285114288330078125e+00 -1.218761634826660156e+01 2.752414532005786896e-02 -9.106654673814773560e-02 -1.906272023916244507e-02 -2.832744121551513672e-01
2.068000000000000000e+03 6.858781814575195312e+00 -1.237643527984619141e+01 1.177497506141662598e-01 3.178536295890808105e-01 1.306810081005096436e-01 -1.636081337928771973e-01
2.069000000000000000e+03 5.816387176513671875e+00 1.911390686035156250e+01 2.087887696688994765e-04 6.733016925863921642e-05 8.283567876787856221e-05 4.760677256854251027e-05
2.070000000000000000e+03 5.829511642456054688e+00 2.057856559753417969e+01 -1.902635267470031977e-04 -8.156262629199773073e-05 -8.154784882208332419e-05 -1.500824419053969905e-05
2.071000000000000000e+03 5.895151615142822266e+00 1.759975242614746094e+01 -2.055019431281834841e-04 -3.957158696721307933e-05 -7.352206012001261115e-05 -6.528207450173795223e-05
2.072000000000000000e+03 5.397651195526123047e+00 1.332296276092529297e+01 2.257851010654121637e-04 1.798236780814477243e-06 6.827500328654423356e-05 9.895814400806557387e-06
2.073000000000000000e+03 5.526833534240722656e+00 1.467428398132324219e+01 -2.671057882253080606e-04 4.293337042327038944e-05 -6.725171988364309072e-05 -1.006644015433266759e-05
2.074000000000000000e+03 6.760765552520751953e+00 3.496343612670898438e+01 -2.844297268893569708e-04 -5.782099469797685742e-05 -1.026752142934128642e-04 -2.133158704964444041e-04
2.075000000000000000e+03 4.120140552520751953e+00 3.349219894409179688e+01 2.967996988445520401e-04 1.214176663779653609e-04 1.254652161151170731e-04 -2.789078571368008852e-04
2.076000000000000000e+03 4.353214645385742188e+01 -2.697774696350097656e+01 2.738156616687774658e-01 1.830361843109130859e+00 6.312532424926757812e-01 -6.717682480812072754e-01
2.077000000000000000e+03 7.419631195068359375e+01 -1.980869102478027344e+01 2.861112297978252172e-04 -2.775530738290399313e-04 2.567439878475852311e-06 7.556079799542203546e-05
2.078000000000000000e+03 6.126485347747802734e+00 1.174696636199951172e+01 -4.320768130128271878e-05 1.644605072215199471e-05 -8.028488991840276867e-06 -2.348197995161172003e-05
2.079000000000000000e+03 4.065851211547851562e+00 8.291296958923339844e+00 3.794146687141619623e-05 4.267985059414058924e-05 2.418639451207127422e-05 3.344298602314665914e-05
2.080000000000000000e+03 5.466341018676757812e+00 9.582077026367187500e+00 4.709098357125185430e-05 1.024005723593290895e-05 1.719931242405436933e-05 4.927520421915687621e-05
2.081000000000000000e+03 5.505115032196044922e+00 -1.365552043914794922e+01 1.649082303047180176e-01 2.199101299047470093e-01 1.154455095529556274e-01 -1.960099041461944580e-01
2.082000000000000000e+03 3.327541351318359375e+00 8.004323005676269531e+00 -1.273795060114935040e-04 -1.624538344913162291e-05 -4.308746792958118021e-05 6.018192289047874510e-05
2.083000000000000000e+03 3.733492374420166016e+00 -7.151664733886718750e+00 -5.589757859706878662e-02 -1.269543021917343140e-01 -5.485556647181510925e-02 -2.374826371669769287e-01
2.084000000000000000e+03 4.701125621795654297e+00 -7.051831245422363281e+00 -8.278703689575195312e-02 -5.227796360850334167e-02 -4.051950201392173767e-02 -2.494842857122421265e-01
2.085000000000000000e+03 4.162046813964843750e+01 -2.277748107910156250e+01 4.113267064094543457e-01 2.784299373626708984e+00 9.586878418922424316e-01 -3.496498167514801025e-01
2.086000000000000000e+03 4.124288177490234375e+01 -2.566243743896484375e+01 4.748179912567138672e-01 2.620992422103881836e+00 9.287431836128234863e-01 -4.957673847675323486e-01
2.087000000000000000e+03 4.877531528472900391e+00 -8.163556098937988281e+00 -7.075920701026916504e-02 -3.759305179119110107e-02 -3.250567615032196045e-02 -2.680108845233917236e-01
2.088000000000000000e+03 5.655396938323974609e+00 -6.914813995361328125e+00 -1.026350855827331543e-01 1.122266240417957306e-02 -2.742372825741767883e-02 -2.439202815294265747e-01
2.089000000000000000e+03 5.488504791259765625e+01 3.515522241592407227e+00 -1.789389610290527344e+00 1.924155056476593018e-01 -4.790922403335571289e-01 -6.784076094627380371e-01
2.090000000000000000e+03 5.382160186767578125e+01 5.888749122619628906e+00 -8.967012763023376465e-01 1.133641749620437622e-01 -2.350011318922042847e-01 -9.428926706314086914e-01
2.091000000000000000e+03 5.470736694335937500e+01 5.166192531585693359e+00 -1.164867281913757324e+00 1.487241089344024658e-01 -3.048429787158966064e-01 -9.067686200141906738e-01
2.092000000000000000e+03 1.340050029754638672e+01 8.378714561462402344e+00 -7.308022304641781375e-06 -4.439652911969460547e-05 -1.551136665511876345e-05 -5.848989167134277523e-05
2.093000000000000000e+03 3.929377365112304688e+01 -2.114438438415527344e+01 2.852865159511566162e-01 3.998577833175659180e+00 1.285159349441528320e+00 1.543758213520050049e-01
2.094000000000000000e+03 6.571803092956542969e+00 -1.026945304870605469e+01 -1.504761632531881332e-02 1.731745004653930664e-01 4.743806272745132446e-02 -2.385714501142501831e-01
2.095000000000000000e+03 1.394539451599121094e+01 1.041376209259033203e+01 -1.601145486347377300e-04 -6.633087468799203634e-05 -6.793362990720197558e-05 -8.623471512692049146e-05
2.096000000000000000e+03 4.657298278808593750e+01 1.460357952117919922e+01 1.379165053367614746e+00 3.557696819305419922e+00 1.481058597564697266e+00 1.262695193290710449e+00
2.097000000000000000e+03 6.215227890014648438e+01 2.087311983108520508e+00 -9.964281320571899414e-01 1.294503062963485718e-01 -2.600933313369750977e-01 -4.950693547725677490e-01
2.098000000000000000e+03 3.965187454223632812e+01 -1.993050193786621094e+01 4.590654745697975159e-02 4.203808307647705078e+00 1.274914503097534180e+00 8.599298447370529175e-02
2.099000000000000000e+03 4.001286315917968750e+01 -1.808902740478515625e+01 -1.269427537918090820e-01 4.309460639953613281e+00 1.254755377769470215e+00 -2.584448158740997314e-01
2.100000000000000000e+03 2.488397979736328125e+01 -4.909447669982910156e+00 -3.833413124084472656e-01 -5.060164928436279297e-01 -2.668073475360870361e-01 -9.011251926422119141e-01
2.101000000000000000e+03 2.570357704162597656e+01 -3.988769769668579102e+00 -9.769322276115417480e-01 -4.524939358234405518e-01 -4.288278520107269287e-01 -1.072679281234741211e+00
2.102000000000000000e+03 4.779044723510742188e+01 2.587648010253906250e+01 5.840793251991271973e-01 3.331256389617919922e+00 1.174600720405578613e+00 2.163613438606262207e-01
2.103000000000000000e+03 6.651765441894531250e+01 -6.356539726257324219e-01 -5.657742619514465332e-01 1.094084382057189941e-01 -1.369097530841827393e-01 -1.969972997903823853e-01
2.104000000000000000e+03 1.534477043151855469e+01 4.883913993835449219e+00 -1.899603489619039465e-06 6.107136141508817673e-05 1.775152850314043462e-05 6.235715409275144339e-05
2.105000000000000000e+03 4.058414077758789062e+01 -2.017040634155273438e+01 1.699440181255340576e-01 3.823338270187377930e+00 1.197984695434570312e+00 -5.636304989457130432e-02
2.106000000000000000e+03 4.685055160522460938e+01 1.138741683959960938e+01 1.652612566947937012e+00 2.527887582778930664e+00 1.254150032997131348e+00 1.195004463195800781e+00
2.107000000000000000e+03 3.963891983032226562e+01 -2.436448669433593750e+01 6.124675273895263672e-01 3.306561470031738281e+00 1.175708770751953125e+00 -2.705850899219512939e-01
2.108000000000000000e+03 4.523030853271484375e+01 1.487705898284912109e+01 1.163968920707702637e+00 4.534986972808837891e+00 1.709686756134033203e+00 1.425046682357788086e+00
2.109000000000000000e+03 4.742041397094726562e+01 1.886032104492187500e+01 8.483096957206726074e-01 3.575443744659423828e+00 1.327126026153564453e+00 7.707607150077819824e-01
2.110000000000000000e+03 6.093658065795898438e+01 2.243248701095581055e+00 -1.108696699142456055e+00 1.068291142582893372e-01 -3.005602657794952393e-01 -5.271283388137817383e-01
2.111000000000000000e+03 6.864739418029785156e+00 2.494100379943847656e+01 2.426016144454479218e-04 5.900496034882962704e-05 9.048196807270869613e-05 -9.616684110369533300e-05
2.112000000000000000e+03 5.904501724243164062e+01 3.145367145538330078e+00 -1.241066336631774902e+00 1.083387508988380432e-01 -3.398182690143585205e-01 -6.261440515518188477e-01
2.113000000000000000e+03 5.793272781372070312e+01 3.670911550521850586e+00 -1.260730504989624023e+00 1.272171735763549805e-01 -3.400540053844451904e-01 -6.793037652969360352e-01
2.114000000000000000e+03 9.644352912902832031e+00 -5.829679965972900391e+00 -1.808005869388580322e-01 1.202025264501571655e-01 -1.817942038178443909e-02 -1.356662809848785400e-01
2.115000000000000000e+03 4.627491378784179688e+01 1.323465538024902344e+01 1.523841500282287598e+00 3.426810264587402344e+00 1.485195517539978027e+00 1.395740270614624023e+00
2.116000000000000000e+03 4.233412170410156250e+01 -3.237542343139648438e+01 -2.090357542037963867e-01 2.023371934890747070e+00 5.443008542060852051e-01 -5.184741616249084473e-01
2.117000000000000000e+03 4.539301300048828125e+01 -2.735364913940429688e+01 2.545352280139923096e-01 1.256962656974792480e+00 4.534493684768676758e-01 -6.105992197990417480e-01
2.118000000000000000e+03 5.299545669555664062e+01 6.794045448303222656e+00 -4.281494021415710449e-01 1.119275242090225220e-01 -9.486655890941619873e-02 -9.304870963096618652e-01
2.119000000000000000e+03 1.306237030029296875e+01 3.512856292724609375e+01 4.684138111770153046e-04 -7.618723902851343155e-04 -8.803757373243570328e-05 -5.084932199679315090e-04
2.120000000000000000e+03 7.947387218475341797e+00 3.401151657104492188e+01 4.079726058989763260e-04 4.012323188362643123e-05 1.344287593383342028e-04 -1.994106860365718603e-04
2.121000000000000000e+03 4.736738586425781250e+01 8.002144813537597656e+00 1.256717801094055176e+00 1.011759519577026367e+00 6.805431842803955078e-01 4.899984002113342285e-01
2.122000000000000000e+03 7.339048004150390625e+01 -2.309110260009765625e+01 -1.845898805186152458e-04 -6.492647808045148849e-04 -2.501563867554068565e-04 2.937438548542559147e-04
2.123000000000000000e+03 4.330249404907226562e+01 5.919321060180664062e+00 1.113379359245300293e+00 3.515980005264282227e+00 1.388807773590087891e+00 2.027873754501342773e+00
2.124000000000000000e+03 4.576189422607421875e+01 7.590115070343017578e+00 1.490968585014343262e+00 1.726080894470214844e+00 9.651148319244384766e-01 1.163918495178222656e+00
2.125000000000000000e+03 2.940649604797363281e+01 -1.404442977905273438e+01 4.768490791320800781e-01 1.088427007198333740e-01 1.757075339555740356e-01 1.270149707794189453e+00
2.126000000000000000e+03 2.804184150695800781e+01 -1.361188602447509766e+01 6.788203716278076172e-01 -2.762166261672973633e-01 1.207811161875724792e-01 1.119718670845031738e+00
2.127000000000000000e+03 5.560502624511718750e+01 6.118559837341308594e+00 -7.725817561149597168e-01 1.245026066899299622e-01 -1.944237351417541504e-01 -9.180597662925720215e-01
2.128000000000000000e+03 7.482888031005859375e+01 3.999943161010742188e+01 -1.678455807268619537e-02 -1.355996012687683105e+00 -4.118341803550720215e-01 -4.738153517246246338e-02
2.129000000000000000e+03 7.325782775878906250e+01 3.741080856323242188e+01 3.033122234046459198e-02 -1.036990642547607422e+00 -3.019978106021881104e-01 -2.724204212427139282e-02
2.130000000000000000e+03 4.374594879150390625e+01 3.797477483749389648e+00 -1.482990384101867676e+00 1.857679963111877441e+00 1.124069020152091980e-01 1.197613120079040527e+00
2.131000000000000000e+03 1.520950317382812500e+01 3.618063354492187500e+01 6.346903974190354347e-04 -4.162892582826316357e-04 6.552034756168723106e-05 -6.313780431810300797e-06
2.132000000000000000e+03 1.169980812072753906e+01 1.938633346557617188e+01 -3.369339683558791876e-04 -9.511493885838717688e-07 -1.013655346469022334e-04 1.221589172928361222e-05
2.133000000000000000e+03 7.145681858062744141e+00 1.785077857971191406e+01 7.625872240168973804e-05 1.380464236717671156e-04 6.429154746001586318e-05 8.837982750264927745e-05
2.134000000000000000e+03 4.005414581298828125e+01 -2.307570266723632812e+01 5.208270549774169922e-01 3.363286018371582031e+00 1.165233850479125977e+00 -1.164996847510337830e-01
2.135000000000000000e+03 1.164761161804199219e+01 1.342571449279785156e+01 -8.581082511227577925e-05 2.300585583725478500e-05 -1.884149060060735792e-05 -7.028126856312155724e-05
2.136000000000000000e+03 3.922409439086914062e+01 -2.936014556884765625e+01 4.782430827617645264e-02 2.821398258209228516e+00 8.607667684555053711e-01 -4.071379303932189941e-01
2.137000000000000000e+03 2.031229591369628906e+01 -1.534120559692382812e+01 4.194763004779815674e-01 -2.022965997457504272e-01 6.515391170978546143e-02 2.254908531904220581e-01
2.138000000000000000e+03 2.144450950622558594e+01 -1.533878326416015625e+01 3.609547913074493408e-01 -2.100684344768524170e-01 4.526590183377265930e-02 2.863308787345886230e-01
2.139000000000000000e+03 6.574953556060791016e+00 1.342144584655761719e+01 -2.099999546771869063e-04 -5.021393462811829522e-06 -6.450640648836269975e-05 -1.873660403362009674e-05
2.140000000000000000e+03 7.227655792236328125e+01 -2.864556694030761719e+01 -4.914879798889160156e-03 1.112219062633812428e-03 -1.140798209235072136e-03 1.068100100383162498e-03
2.141000000000000000e+03 7.010021972656250000e+01 -3.128990554809570312e+01 -1.197944395244121552e-02 2.889666706323623657e-03 -2.726932987570762634e-03 5.993769038468599319e-03
2.142000000000000000e+03 2.584031105041503906e+01 -1.330392932891845703e+01 7.910178899765014648e-01 -4.874318242073059082e-01 9.107582271099090576e-02 9.032559394836425781e-01
2.143000000000000000e+03 2.169613456726074219e+01 -6.557162761688232422e+00 8.731479197740554810e-02 -3.904291391372680664e-01 -9.093429893255233765e-02 -2.761897146701812744e-01
2.144000000000000000e+03 3.835243606567382812e+01 -3.099071121215820312e+01 -2.480960041284561157e-01 2.829580783843994141e+00 7.744454145431518555e-01 -2.544477880001068115e-01
2.145000000000000000e+03 3.979004669189453125e+01 -2.787454414367675781e+01 2.516430914402008057e-01 2.938230037689208984e+00 9.569619297981262207e-01 -4.619375765323638916e-01
2.146000000000000000e+03 3.918942642211914062e+01 -2.572484970092773438e+01 5.737472176551818848e-01 3.390453577041625977e+00 1.189260244369506836e+00 -2.565877437591552734e-01
2.147000000000000000e+03 6.060561180114746094e+00 -3.362075805664062500e+01 -1.150723397731781006e-01 -3.439440624788403511e-03 -3.555353358387947083e-02 2.284674160182476044e-02
2.148000000000000000e+03 9.840020179748535156e+00 1.713793945312500000e+01 1.159847452072426677e-04 -5.361494913813658059e-05 1.871093991212546825e-05 -1.537814387120306492e-04
2.149000000000000000e+03 1.176832294464111328e+01 2.086254692077636719e+01 3.880246658809483051e-04 5.029196472605690360e-06 1.179161627078428864e-04 5.431102181319147348e-05
2.150000000000000000e+03 7.216488647460937500e+01 -2.540040779113769531e+01 -1.401354558765888214e-03 -6.148454267531633377e-04 -6.048599607311189175e-04 8.765090024098753929e-05
2.151000000000000000e+03 4.779682159423828125e+01 2.982284927368164062e+01 4.171347618103027344e-01 3.066080093383789062e+00 1.044964432716369629e+00 2.717332839965820312e-01
2.152000000000000000e+03 4.768728256225585938e+01 3.339240264892578125e+01 3.851840272545814514e-02 2.913130044937133789e+00 8.854945302009582520e-01 2.767093181610107422e-01
2.153000000000000000e+03 1.175159931182861328e+01 2.883280754089355469e+01 4.424601866048760712e-05 -4.634241049643605947e-04 -1.257534313481301069e-04 -3.047847130801528692e-04
2.154000000000000000e+03 1.048198795318603516e+01 2.661164665222167969e+01 -1.880017771327402443e-05 -2.903559652622789145e-04 -9.274684998672455549e-05 -1.796683209249749780e-04
2.155000000000000000e+03 7.119274139404296875e+01 -2.816182327270507812e+01 -5.697644315659999847e-03 5.259643658064305782e-04 -1.551504014059901237e-03 -1.171422190964221954e-04
2.156000000000000000e+03 6.502408599853515625e+01 1.713824987411499023e+00 -7.075649499893188477e-01 1.283693015575408936e-01 -1.737586855888366699e-01 -4.300040304660797119e-01
2.157000000000000000e+03 6.356864166259765625e+01 1.818879842758178711e+00 -8.527620434761047363e-01 1.358996480703353882e-01 -2.150587290525436401e-01 -4.683527946472167969e-01
2.158000000000000000e+03 7.363983154296875000e+01 -3.466786575317382812e+01 -1.982119400054216385e-03 -2.842361805960536003e-03 -1.447344315238296986e-03 9.824986569583415985e-03
2.159000000000000000e+03 2.085072135925292969e+01 3.753412246704101562e+01 -1.390118966810405254e-03 -2.734416557359509170e-05 -4.252389480825513601e-04 2.304461318999528885e-03
2.160000000000000000e+03 1.439942455291748047e+01 3.848153305053710938e+01 -6.946697831153869629e-04 -8.440635865554213524e-04 -4.616200167220085859e-04 -1.064423006027936935e-03
2.161000000000000000e+03 1.184947490692138672e+01 2.380624961853027344e+01 4.925721441395580769e-04 1.306549438595538959e-05 1.516912889201194048e-04 1.767244684742763638e-04
2.162000000000000000e+03 1.066796207427978516e+01 2.219485092163085938e+01 3.318501403555274010e-04 6.542594928760081530e-05 1.191828268929384649e-04 1.269815984414890409e-04
2.163000000000000000e+03 1.401391506195068359e+01 3.347220611572265625e+01 3.016718983417376876e-05 -5.109328412800095975e-06 7.517358426412101835e-06 -2.355009783059358597e-04
2.164000000000000000e+03 7.404614257812500000e+01 -3.099711990356445312e+01 -4.681108053773641586e-03 -5.518865655176341534e-04 -1.569898333400487900e-03 4.674209281802177429e-03
2.165000000000000000e+03 4.461800765991210938e+01 3.852248382568359375e+01 -5.318748950958251953e-01 2.819476366043090820e+00 6.862804293632507324e-01 -5.920197814702987671e-03
2.166000000000000000e+03 1.308486175537109375e+01 -3.724168014526367188e+01 -9.303386509418487549e-02 -2.036221474409103394e-01 -8.899680525064468384e-02 8.478761464357376099e-02
2.167000000000000000e+03 4.561541366577148438e+01 3.416779708862304688e+01 -1.024517267942428589e-01 3.132718086242675781e+00 9.090799689292907715e-01 1.461043208837509155e-01
2.168000000000000000e+03 2.758364105224609375e+01 -4.134571456909179688e+01 -2.255416214466094971e-01 6.941717863082885742e-01 1.405890583992004395e-01 5.421601980924606323e-02
2.169000000000000000e+03 3.166824913024902344e+01 -3.845254516601562500e+01 -4.648628234863281250e-01 1.428348660469055176e+00 2.890457510948181152e-01 2.558563351631164551e-01
2.170000000000000000e+03 3.244155883789062500e+01 -4.106887054443359375e+01 -5.327213406562805176e-01 1.542667627334594727e+00 3.029839098453521729e-01 9.031465649604797363e-02
2.171000000000000000e+03 3.710862350463867188e+01 -9.805442810058593750e+00 3.895877599716186523e-01 8.356969833374023438e+00 2.623967409133911133e+00 -2.581706285476684570e+00
2.172000000000000000e+03 3.863019180297851562e+01 -9.827705383300781250e+00 1.209123134613037109e+00 3.885283708572387695e+00 1.528322100639343262e+00 -2.887263298034667969e+00
2.173000000000000000e+03 3.582486724853515625e+01 -9.679442405700683594e+00 7.502723932266235352e-01 9.342763900756835938e+00 3.027910947799682617e+00 1.129178851842880249e-01
2.174000000000000000e+03 3.434838104248046875e+01 -1.058193111419677734e+01 1.220514416694641113e+00 5.885073661804199219e+00 2.131676435470581055e+00 1.309067249298095703e+00
2.175000000000000000e+03 3.666964721679687500e+01 -9.721027374267578125e+00 2.698362171649932861e-01 9.224439620971679688e+00 2.848282575607299805e+00 -1.760139465332031250e+00
2.176000000000000000e+03 3.469005203247070312e+01 -9.381576538085937500e+00 2.695006132125854492e+00 7.391675472259521484e+00 3.026004552841186523e+00 2.234728097915649414e+00
2.177000000000000000e+03 3.500536727905273438e+01 -1.496296882629394531e+01 -1.180681228637695312e+00 3.920977830886840820e+00 8.220890164375305176e-01 -8.810004591941833496e-01
2.178000000000000000e+03 1.037000560760498047e+01 -5.838304042816162109e+00 -1.827640831470489502e-01 1.210834458470344543e-01 -1.850418932735919952e-02 -1.119570583105087280e-01
2.179000000000000000e+03 3.361867523193359375e+01 -8.959316253662109375e+00 3.895165205001831055e+00 4.483960151672363281e+00 2.513737440109252930e+00 2.315337419509887695e+00
2.180000000000000000e+03 3.488033676147460938e+01 -1.051638889312744141e+01 7.529329657554626465e-01 7.094749927520751953e+00 2.354305028915405273e+00 9.868033528327941895e-01
2.181000000000000000e+03 3.795566177368164062e+01 -4.264640331268310547e+00 1.430620998144149780e-01 7.360994815826416016e+00 2.251217126846313477e+00 4.768207550048828125e+00
2.182000000000000000e+03 4.042181015014648438e+01 3.023059964179992676e-01 -3.015309572219848633e+00 5.893433094024658203e+00 8.634371161460876465e-01 9.858509302139282227e-01
2.183000000000000000e+03 1.108351993560791016e+01 -5.864469528198242188e+00 -1.821176558732986450e-01 1.131780892610549927e-01 -2.068187296390533447e-02 -9.538438916206359863e-02
2.184000000000000000e+03 6.292707443237304688e+00 5.340346813201904297e+00 -3.027645288966596127e-05 8.560448804928455502e-06 -6.514801498269662261e-06 4.639014514395967126e-05
2.185000000000000000e+03 6.315412521362304688e+00 6.586627006530761719e+00 9.816773672355338931e-05 2.273850986966863275e-05 3.627187470556236804e-05 2.080432750517502427e-05
2.186000000000000000e+03 1.457507705688476562e+01 4.226542472839355469e+00 4.992870890418998897e-05 -1.939391768246423453e-05 9.160437912214547396e-06 -3.120511246379464865e-05
2.187000000000000000e+03 7.883702754974365234e+00 6.513129711151123047e+00 1.333941872871946543e-05 5.139809582033194602e-05 1.942125527421012521e-05 -6.859931454528123140e-05
2.188000000000000000e+03 8.983974456787109375e+00 4.615933895111083984e+00 -4.140805685892701149e-05 -8.012478065211325884e-05 -3.645985270850360394e-05 -5.278564074728819833e-08
2.189000000000000000e+03 7.034946918487548828e+00 5.039348125457763672e+00 2.717923234740737826e-05 2.490852784831076860e-05 1.562632860441226512e-05 -5.615771442535333335e-05
2.190000000000000000e+03 8.118114471435546875e+00 5.475408077239990234e+00 -3.131906169073772617e-06 4.545860429061576724e-05 1.269800941372523084e-05 -5.866904757567681372e-05
2.191000000000000000e+03 3.933042907714843750e+01 -1.203433513641357422e+01 4.623876512050628662e-02 3.993975400924682617e+00 1.212064266204833984e+00 -2.175785303115844727e+00
2.192000000000000000e+03 3.871919250488281250e+01 -1.080369853973388672e+01 4.549576938152313232e-01 4.343151092529296875e+00 1.439432740211486816e+00 -2.659388065338134766e+00
2.193000000000000000e+03 1.181287670135498047e+01 -5.916642665863037109e+00 -1.778356879949569702e-01 1.054510176181793213e-01 -2.171540260314941406e-02 -7.123663276433944702e-02
2.194000000000000000e+03 1.263221740722656250e+01 5.367188930511474609e+00 -5.780464562121778727e-05 -5.715084625990130007e-05 -3.448664574534632266e-05 -2.033722012129146606e-05
2.195000000000000000e+03 3.956072235107421875e+01 -7.596926093101501465e-01 -3.356480360031127930e+00 6.334692955017089844e+00 8.934637904167175293e-01 1.349801659584045410e+00
2.196000000000000000e+03 3.829293823242187500e+01 -1.789569497108459473e+00 -3.180263280868530273e+00 6.917626380920410156e+00 1.121208906173706055e+00 2.563628196716308594e+00
2.197000000000000000e+03 1.256473636627197266e+01 -5.996833801269531250e+00 -1.677634567022323608e-01 8.432399481534957886e-02 -2.503183670341968536e-02 -5.655035749077796936e-02
2.198000000000000000e+03 1.333330059051513672e+01 -6.097251892089843750e+00 -1.545698791742324829e-01 6.612115353345870972e-02 -2.653461880981922150e-02 -3.683191910386085510e-02
2.199000000000000000e+03 3.836422348022460938e+01 -3.903743267059326172e+00 -2.269222289323806763e-01 6.135151863098144531e+00 1.772468805313110352e+00 4.135958671569824219e+00
2.200000000000000000e+03 3.901741790771484375e+01 -4.163907527923583984e+00 6.229783296585083008e-01 4.208250999450683594e+00 1.449368715286254883e+00 3.583554744720458984e+00
2.201000000000000000e+03 7.473617553710937500e+01 -8.418796539306640625e+00 -6.360376253724098206e-03 -1.230474095791578293e-02 -5.599535070359706879e-03 7.984790951013565063e-03
2.202000000000000000e+03 4.865179061889648438e+00 -5.618149757385253906e+00 -9.685150533914566040e-02 -3.520153835415840149e-02 -3.961591422557830811e-02 -2.165235131978988647e-01
2.203000000000000000e+03 7.535482788085937500e+01 -6.449497699737548828e+00 -2.545706368982791901e-02 -1.387353520840406418e-02 -1.179917994886636734e-02 -2.369104418903589249e-03
2.204000000000000000e+03 7.252490997314453125e+01 -8.168963432312011719e+00 -1.777411438524723053e-02 -1.931972801685333252e-02 -1.112815272063016891e-02 1.738515566103160381e-04
2.205000000000000000e+03 8.824184417724609375e+00 -5.034965991973876953e+00 -1.997629255056381226e-01 9.194517880678176880e-02 -3.234532475471496582e-02 -1.498175263404846191e-01
2.206000000000000000e+03 9.183624267578125000e+00 -8.070004463195800781e+00 -8.654204010963439941e-02 1.953261047601699829e-01 3.263522312045097351e-02 -1.455496996641159058e-01
2.207000000000000000e+03 5.765023708343505859e+00 -4.980952739715576172e+00 -1.291084438562393188e-01 4.903379827737808228e-03 -3.726151958107948303e-02 -1.967590600252151489e-01
2.208000000000000000e+03 1.695392036437988281e+01 -8.959268569946289062e+00 2.019941359758377075e-01 -1.351844966411590576e-01 2.004288882017135620e-02 5.305910110473632812e-02
2.209000000000000000e+03 1.495847988128662109e+01 -7.132652759552001953e+00 -3.856974840164184570e-02 6.268720142543315887e-03 -9.690308943390846252e-03 1.210202535730786622e-04
2.210000000000000000e+03 3.876657485961914062e+01 -1.259010982513427734e+01 -1.488880068063735962e-01 4.645919322967529297e+00 1.349109411239624023e+00 -2.251477003097534180e+00
2.211000000000000000e+03 1.754299545288085938e+01 -6.491455078125000000e+00 -4.603170976042747498e-02 -1.356166452169418335e-01 -5.449450388550758362e-02 -3.805191814899444580e-02
2.212000000000000000e+03 7.371368408203125000e+01 -7.704802513122558594e+00 -1.676617935299873352e-02 -1.755146123468875885e-02 -1.029529236257076263e-02 3.227061824873089790e-03
2.213000000000000000e+03 7.328564643859863281e+00 -5.899922847747802734e+00 -1.509393602609634399e-01 7.710046321153640747e-02 -2.215167135000228882e-02 -1.998998820781707764e-01
2.214000000000000000e+03 3.976859283447265625e+01 2.367073446512222290e-01 -3.082606554031372070e+00 6.691942691802978516e+00 1.082800865173339844e+00 1.231506347656250000e+00
2.215000000000000000e+03 3.836398696899414062e+01 -3.965366184711456299e-01 -3.648083448410034180e+00 7.262010097503662109e+00 1.084177970886230469e+00 1.821916460990905762e+00
2.216000000000000000e+03 2.004788780212402344e+01 -6.519896030426025391e+00 1.132054533809423447e-02 -2.686052918434143066e-01 -7.718542218208312988e-02 -1.390210390090942383e-01
2.217000000000000000e+03 1.996393966674804688e+01 -5.722996234893798828e+00 -1.134487092494964600e-01 -2.205397784709930420e-01 -1.001965403556823730e-01 -1.538690477609634399e-01
2.218000000000000000e+03 1.130171298980712891e+01 4.529404640197753906e+00 1.382158006890676916e-05 7.996774365892633796e-05 2.813679748214781284e-05 2.816543565131723881e-05
2.219000000000000000e+03 1.413251495361328125e+01 -6.213964939117431641e+00 -1.365683972835540771e-01 3.729590028524398804e-02 -2.978175133466720581e-02 -2.716436050832271576e-02
2.220000000000000000e+03 1.496940517425537109e+01 -6.339861869812011719e+00 -1.132582053542137146e-01 2.704974496737122536e-03 -3.316596895456314087e-02 -1.117371767759323120e-02
2.221000000000000000e+03 3.222415161132812500e+01 -4.447133541107177734e+00 1.160015583038330078e+00 5.608936548233032227e-01 5.162727832794189453e-01 -1.279553651809692383e+00
2.222000000000000000e+03 3.281826019287109375e+01 -6.715034484863281250e+00 5.248981952667236328e+00 1.864993453025817871e+00 2.134192705154418945e+00 4.558196067810058594e-01
2.223000000000000000e+03 8.724967002868652344e+00 5.141161441802978516e+00 4.375878052087500691e-05 -3.579417898436076939e-05 2.389380370004801080e-06 3.501850733300670981e-05
2.224000000000000000e+03 3.297299575805664062e+01 -7.847531795501708984e+00 5.091084003448486328e+00 2.551803827285766602e+00 2.292866468429565430e+00 1.552760124206542969e+00
2.225000000000000000e+03 3.162883186340332031e+01 -6.654356002807617188e+00 3.864109039306640625e+00 -5.603963509202003479e-02 1.142420768737792969e+00 3.248995169997215271e-02
2.226000000000000000e+03 1.926670455932617188e+01 -1.387486743927001953e+01 5.358760356903076172e-01 -2.498723119497299194e-01 8.580112457275390625e-02 2.078251391649246216e-01
2.227000000000000000e+03 2.325117492675781250e+01 -1.420220851898193359e+01 4.290588200092315674e-01 -3.482191264629364014e-01 2.425190992653369904e-02 5.475107431411743164e-01
2.228000000000000000e+03 1.141139221191406250e+01 5.732697010040283203e+00 -3.603255390771664679e-05 -4.293512392905540764e-05 -2.369030335103161633e-05 -1.072694885806413367e-05
2.229000000000000000e+03 1.172358894348144531e+01 7.017796993255615234e+00 -3.381825081305578351e-05 -1.069032987288665026e-05 -1.335257366008590907e-05 -4.732487286673858762e-05
2.230000000000000000e+03 1.921396636962890625e+01 -6.516111373901367188e+00 -3.367490135133266449e-03 -2.272818982601165771e-01 -6.919481605291366577e-02 -9.739047288894653320e-02
2.231000000000000000e+03 1.827945709228515625e+01 -5.723397254943847656e+00 -1.302684098482131958e-01 -1.487766653299331665e-01 -8.371352404356002808e-02 -7.225126773118972778e-02
2.232000000000000000e+03 8.023577690124511719e+00 -1.273365211486816406e+01 2.087419331073760986e-01 4.253439307212829590e-01 1.902257651090621948e-01 -7.313825935125350952e-02
2.233000000000000000e+03 9.110997200012207031e+00 -1.295662212371826172e+01 2.935848534107208252e-01 4.893490076065063477e-01 2.348801642656326294e-01 3.402666375041007996e-02
2.234000000000000000e+03 2.911723709106445312e+01 -6.107089996337890625e+00 1.928958654403686523e+00 -1.424551844596862793e+00 1.513220667839050293e-01 -1.012909770011901855e+00
2.235000000000000000e+03 3.677186584472656250e+01 -1.553464221954345703e+01 -1.124996304512023926e+00 4.799053668975830078e+00 1.102217197418212891e+00 -1.136551499366760254e+00
2.236000000000000000e+03 3.403509140014648438e+01 -1.444588947296142578e+01 -7.516729235649108887e-01 3.403095483779907227e+00 7.954267859458923340e-01 -4.814911484718322754e-01
2.237000000000000000e+03 1.241523265838623047e+01 -1.213540554046630859e+01 3.841450512409210205e-01 2.730816006660461426e-01 1.971679925918579102e-01 1.190743893384933472e-01
2.238000000000000000e+03 1.028657722473144531e+01 -1.202735996246337891e+01 2.365719974040985107e-01 4.007456004619598389e-01 1.911952793598175049e-01 3.549124673008918762e-02
2.239000000000000000e+03 1.270596408843994141e+01 1.158830451965332031e+01 -1.534378679934889078e-04 -5.970304846414364874e-05 -6.394227239070460200e-05 -4.998583972337655723e-05
2.240000000000000000e+03 1.243766689300537109e+01 9.309128761291503906e+00 -1.139023443101905286e-04 2.514518200769089162e-05 -2.662714905454777181e-05 6.603705696761608124e-05
2.241000000000000000e+03 3.829887390136718750e+01 -1.555788230895996094e+01 -5.786033272743225098e-01 4.670677661895751953e+00 1.227622270584106445e+00 -1.225028634071350098e+00
2.242000000000000000e+03 3.848563766479492188e+01 -1.416314697265625000e+01 -4.218477010726928711e-01 4.770522117614746094e+00 1.304602265357971191e+00 -1.770764231681823730e+00
2.243000000000000000e+03 2.015720748901367188e+01 -8.195628166198730469e+00 2.744385004043579102e-01 -3.681210875511169434e-01 -2.810478024184703827e-02 -5.812863260507583618e-02
2.244000000000000000e+03 3.689696121215820312e+01 -1.813233375549316406e+01 -1.136519670486450195e+00 4.775299072265625000e+00 1.091633796691894531e+00 -1.929661333560943604e-01
2.245000000000000000e+03 7.258285522460937500e+01 -3.530581235885620117e+00 -1.219504699110984802e-01 -2.257591858506202698e-02 -4.335791617631912231e-02 -6.521798670291900635e-02
2.246000000000000000e+03 2.015684890747070312e+01 -1.326589679718017578e+01 5.308218598365783691e-01 -3.215675652027130127e-01 6.277629733085632324e-02 2.717972993850708008e-01
2.247000000000000000e+03 1.678859138488769531e+01 -7.273272514343261719e+00 2.419584803283214569e-02 -1.066602393984794617e-01 -2.473931573331356049e-02 -3.424344817176461220e-03
2.248000000000000000e+03 2.327689170837402344e+01 -5.749027252197265625e+00 -4.829348251223564148e-02 -4.470238983631134033e-01 -1.485952138900756836e-01 -5.382835865020751953e-01
2.249000000000000000e+03 3.947927093505859375e+01 -1.864908695220947266e+00 -2.303948640823364258e+00 5.445333957672119141e+00 9.424155950546264648e-01 1.990867495536804199e+00
2.250000000000000000e+03 6.000561141967773438e+01 4.173025608062744141e+00 -9.195858240127563477e-01 1.070337221026420593e-01 -2.437656223773956299e-01 -7.342900633811950684e-01
2.251000000000000000e+03 3.549178314208984375e+01 -1.654717254638671875e+01 -1.752330660820007324e+00 4.505783081054687500e+00 8.260357379913330078e-01 -8.321031928062438965e-01
2.252000000000000000e+03 2.024704170227050781e+01 -1.429053497314453125e+01 4.936468899250030518e-01 -2.627107501029968262e-01 6.928084790706634521e-02 2.472179383039474487e-01
2.253000000000000000e+03 3.496033430099487305e+00 6.995951652526855469e+00 1.429236144758760929e-04 9.520052117295563221e-06 4.573310070554725826e-05 -3.746747461264021695e-05
2.254000000000000000e+03 7.090133666992187500e+01 -8.190967559814453125e+00 -2.206718735396862030e-02 -2.321889623999595642e-02 -1.358582451939582825e-02 -3.827432170510292053e-03
2.255000000000000000e+03 8.799032211303710938e+00 2.740547180175781250e+01 4.185775833320803940e-05 -2.407651045359671116e-04 -5.967220567981712520e-05 -9.902751480694860220e-05
2.256000000000000000e+03 3.865752029418945312e+01 -1.647497749328613281e+01 -5.169543623924255371e-01 4.610135078430175781e+00 1.227954149246215820e+00 -8.055593967437744141e-01
2.257000000000000000e+03 8.946566581726074219e+00 1.616513061523437500e+01 -1.437027676729485393e-04 6.653337186435237527e-05 -2.315082201675977558e-05 1.068209239747375250e-04
2.258000000000000000e+03 5.483394622802734375e+01 6.818568706512451172e+00 -4.722422659397125244e-01 1.211551949381828308e-01 -1.053261160850524902e-01 -9.370705485343933105e-01
2.259000000000000000e+03 5.569358444213867188e+01 4.579345703125000000e+00 -1.259308338165283203e+00 1.564944088459014893e-01 -3.308441638946533203e-01 -8.086683750152587891e-01
2.260000000000000000e+03 1.566271686553955078e+01 -1.134957790374755859e+01 3.936996161937713623e-01 -2.245453372597694397e-02 1.113735213875770569e-01 1.455342918634414673e-01
2.261000000000000000e+03 7.411077117919921875e+01 -1.909390830993652344e+01 -6.429691711673513055e-05 -2.692803100217133760e-04 -1.000731717795133591e-04 -8.116506796795874834e-05
2.262000000000000000e+03 4.990023040771484375e+01 2.778611183166503906e+01 5.356871485710144043e-01 2.683222293853759766e+00 9.656728506088256836e-01 3.291734158992767334e-01
2.263000000000000000e+03 1.488983440399169922e+01 -1.202090549468994141e+01 4.328835010528564453e-01 5.266476795077323914e-02 1.456644833087921143e-01 1.535517722368240356e-01
2.264000000000000000e+03 1.133656883239746094e+01 -1.203824043273925781e+01 3.341893553733825684e-01 3.412342667579650879e-01 2.026270776987075806e-01 9.824777394533157349e-02
2.265000000000000000e+03 5.907666206359863281e+00 3.185717582702636719e+01 2.211604005424305797e-04 -6.616624887101352215e-05 4.649824404623359442e-05 -2.812116290442645550e-04
2.266000000000000000e+03 7.333032226562500000e+01 -3.234283447265625000e+01 -5.032230168581008911e-03 -2.553541708039119840e-05 -1.517329597845673561e-03 6.220903713256120682e-03
2.267000000000000000e+03 2.576964378356933594e+01 -4.952171325683593750e+00 -3.247627317905426025e-01 -7.158381342887878418e-01 -3.121802508831024170e-01 -1.098120093345642090e+00
2.268000000000000000e+03 8.241765975952148438e+00 2.860972595214843750e+01 1.954121835296973586e-04 1.222426362801343203e-06 5.899038296774961054e-05 -1.499782047176267952e-05
2.269000000000000000e+03 7.530091094970703125e+01 -2.498368453979492188e+01 -6.780946278013288975e-04 -5.953286308795213699e-04 -3.820269776042550802e-04 7.654605724383145571e-05
2.270000000000000000e+03 7.149220275878906250e+01 1.657954597473144531e+01 1.276472806930541992e-01 -6.308993101119995117e-01 -1.509755998849868774e-01 -4.823356270790100098e-01
2.271000000000000000e+03 7.287470245361328125e+01 1.536275577545166016e+01 7.807009667158126831e-02 -6.920467019081115723e-01 -1.841929852962493896e-01 -4.616959989070892334e-01
2.272000000000000000e+03 4.873224258422851562e+01 4.615422725677490234e+00 -1.308805108070373535e+00 -5.662255287170410156e-01 -5.625091791152954102e-01 -8.513835072517395020e-01
2.273000000000000000e+03 7.353585052490234375e+01 -3.027120113372802734e+00 -1.029235050082206726e-01 -3.803264722228050232e-02 -4.228684678673744202e-02 -7.827814668416976929e-02
2.274000000000000000e+03 7.007656097412109375e+01 -5.220693588256835938e+00 -1.219259053468704224e-01 -5.701878573745489120e-03 -3.828833624720573425e-02 -1.535874698311090469e-02
2.275000000000000000e+03 7.408666992187500000e+01 1.940530586242675781e+01 8.388911932706832886e-02 -9.492477774620056152e-01 -2.596075832843780518e-01 -3.234028816223144531e-01
2.276000000000000000e+03 7.165915679931640625e+01 1.007312297821044922e+01 -3.832662105560302734e-02 -3.888970613479614258e-01 -1.281671077013015747e-01 -5.549457669258117676e-01
2.277000000000000000e+03 7.295178222656250000e+01 8.737751007080078125e+00 -6.150591745972633362e-02 -3.866300284862518311e-01 -1.344407796859741211e-01 -4.835721254348754883e-01
2.278000000000000000e+03 7.026697540283203125e+01 5.085402488708496094e+00 -2.366394102573394775e-01 -1.314818412065505981e-01 -1.104363724589347839e-01 -5.058113336563110352e-01
2.279000000000000000e+03 7.270162200927734375e+01 1.646338701248168945e+00 -1.822343468666076660e-01 -9.504868090152740479e-02 -8.318490535020828247e-02 -2.659251093864440918e-01
2.280000000000000000e+03 7.418282318115234375e+01 1.273248195648193359e+01 2.159256860613822937e-02 -6.553189158439636230e-01 -1.901179105043411255e-01 -4.337503314018249512e-01
2.281000000000000000e+03 7.423316955566406250e+01 5.906377315521240234e+00 -8.620754629373550415e-02 -2.988428473472595215e-01 -1.155151203274726868e-01 -3.653813898563385010e-01
2.282000000000000000e+03 7.294511413574218750e+01 6.029330730438232422e+00 -1.194989457726478577e-01 -2.618041634559631348e-01 -1.143909320235252380e-01 -4.254674017429351807e-01
2.283000000000000000e+03 7.273738861083984375e+01 -2.734508514404296875e+01 -3.367603756487369537e-03 -2.064773143501952291e-04 -1.072224345989525318e-03 3.855914110317826271e-04
2.284000000000000000e+03 1.016454029083251953e+01 3.195539855957031250e+01 5.862172110937535763e-04 -2.645307686179876328e-04 9.650592983234673738e-05 -3.351154737174510956e-04
2.285000000000000000e+03 6.964131832122802734e+00 3.284205245971679688e+01 -2.305533998878672719e-04 5.493649496202124283e-06 -6.751792534487321973e-05 -1.734515826683491468e-04
2.286000000000000000e+03 2.804804229736328125e+01 -6.212151527404785156e+00 1.373091220855712891e+00 -1.409528851509094238e+00 -1.093129441142082214e-02 -1.076413750648498535e+00
2.287000000000000000e+03 7.123033142089843750e+01 2.298589515686035156e+01 1.619615107774734497e-01 -7.334200143814086914e-01 -1.714375466108322144e-01 -2.828422486782073975e-01
2.288000000000000000e+03 7.388362884521484375e+01 -4.341303825378417969e+00 -6.815602630376815796e-02 -2.886644005775451660e-02 -2.910673990845680237e-02 -3.746645152568817139e-02
2.289000000000000000e+03 8.092242240905761719e+00 -1.033662223815917969e+01 1.316171791404485703e-02 2.730768620967864990e-01 8.587157726287841797e-02 -1.606459170579910278e-01
2.290000000000000000e+03 5.436051845550537109e+00 -1.069842147827148438e+01 -1.120297517627477646e-02 6.912010163068771362e-02 1.737513765692710876e-02 -2.716615796089172363e-01
2.291000000000000000e+03 8.377858161926269531e+00 2.315229988098144531e+01 -1.569680753163993359e-04 -1.084775794879533350e-04 -7.963369716890156269e-05 -1.211640192195773125e-04
2.292000000000000000e+03 7.232608795166015625e+01 -3.368786621093750000e+01 -6.756927352398633957e-03 -1.827664382290095091e-04 -2.081908052787184715e-03 1.071790140122175217e-02
2.293000000000000000e+03 7.001111602783203125e+01 3.271208572387695312e+01 9.226842969655990601e-02 -5.655728578567504883e-01 -1.419913321733474731e-01 -4.375587031245231628e-02
2.294000000000000000e+03 7.039579010009765625e+01 3.025911331176757812e+01 1.180562600493431091e-01 -6.205194592475891113e-01 -1.507389694452285767e-01 -8.488562703132629395e-02
2.295000000000000000e+03 5.256837844848632812e+00 2.661068534851074219e+01 -3.373134823050349951e-04 -1.599495953996665776e-05 -1.059925343724898994e-04 1.293409441132098436e-04
2.296000000000000000e+03 7.461665344238281250e+01 -1.305304408073425293e+00 -9.388261288404464722e-02 -5.742125585675239563e-02 -4.539116099476814270e-02 -1.065270602703094482e-01
2.297000000000000000e+03 7.163583374023437500e+01 -1.119761943817138672e+00 -2.080611884593963623e-01 -2.509972266852855682e-02 -6.994827091693878174e-02 -1.601590812206268311e-01
2.298000000000000000e+03 5.801537036895751953e+00 1.608894348144531250e+01 2.644486376084387302e-04 -1.979870648938231170e-05 7.339498552028089762e-05 5.735444574384018779e-05
2.299000000000000000e+03 6.123080730438232422e+00 -9.108375549316406250e+00 -6.837631762027740479e-02 8.483498543500900269e-02 4.937598947435617447e-03 -2.630148828029632568e-01
2.300000000000000000e+03 5.113008022308349609e+00 -9.363913536071777344e+00 -5.681462585926055908e-02 -7.669030688703060150e-03 -1.934509724378585815e-02 -2.835898101329803467e-01
2.301000000000000000e+03 6.507673263549804688e+00 2.601433944702148438e+01 -8.719362813280895352e-05 -9.300211240770295262e-05 -5.405872070696204901e-05 4.906370668322779238e-05
2.302000000000000000e+03 5.478757858276367188e+00 2.767341232299804688e+01 3.280147502664476633e-04 1.705760805634781718e-04 1.495772448834031820e-04 -2.510262711439281702e-04
2.303000000000000000e+03 8.270245552062988281e+00 1.802730751037597656e+01 -1.664195442572236061e-04 -7.030586857581511140e-05 -7.101762457750737667e-05 -2.236052387161180377e-05
2.304000000000000000e+03 4.936827087402343750e+01 2.569432449340820312e+01 6.503907442092895508e-01 2.870250225067138672e+00 1.056192278861999512e+00 3.218008279800415039e-01
2.305000000000000000e+03 7.058045864105224609e+00 2.058148384094238281e+01 1.576642534928396344e-04 1.273053057957440615e-04 8.549086487619206309e-05 5.492681520991027355e-05
2.306000000000000000e+03 4.169422912597656250e+01 -2.420322227478027344e+01 4.385001063346862793e-01 2.528615236282348633e+00 8.901345729827880859e-01 -4.685882329940795898e-01
2.307000000000000000e+03 6.617553234100341797e+00 1.451751232147216797e+01 2.323334483662620187e-04 -4.396832446218468249e-05 5.650953607982955873e-05 -5.794249318569200113e-06
2.308000000000000000e+03 4.250178909301757812e+01 -2.861021804809570312e+01 1.435877531766891479e-01 2.098317861557006836e+00 6.725717186927795410e-01 -6.523697376251220703e-01
2.309000000000000000e+03 4.295232391357421875e+01 -2.594702148437500000e+01 3.943128883838653564e-01 2.027518272399902344e+00 7.265493273735046387e-01 -6.239464282989501953e-01
2.310000000000000000e+03 8.909873008728027344e+00 8.117242813110351562e+00 2.244145616714376956e-05 1.324130244029220194e-05 1.070482721843291074e-05 -6.721072713844478130e-05
2.311000000000000000e+03 5.469737529754638672e+00 1.105170536041259766e+01 1.218867182615213096e-04 -1.344519023405155167e-05 3.253245813539251685e-05 6.814384687459096313e-05
2.312000000000000000e+03 4.874824523925781250e+00 6.499608039855957031e+00 9.736841457197442651e-05 2.667834451131056994e-05 3.721402754308655858e-05 -4.993146376364165917e-06
2.313000000000000000e+03 6.739456653594970703e+00 8.173995971679687500e+00 4.352814721642062068e-05 -5.615844656858826056e-06 1.137369054049486294e-05 2.789193786156829447e-05
2.314000000000000000e+03 7.426775360107421875e+01 -2.226005935668945312e+01 -1.419124873791588470e-05 -1.878074835985898972e-04 -6.059961742721498013e-05 -3.117246669717133045e-04
2.315000000000000000e+03 7.432572174072265625e+01 -6.564415454864501953e+00 -3.139216452836990356e-02 -1.854478195309638977e-02 -1.498108450323343277e-02 -3.651713021099567413e-03
2.316000000000000000e+03 6.099065780639648438e+00 8.849217414855957031e+00 -3.632809239206835628e-05 -2.081207640003412962e-05 -1.714205063763074577e-05 -3.256367926951497793e-05
2.317000000000000000e+03 9.499767303466796875e+00 8.931458473205566406e+00 -3.715845014085061848e-05 -5.228970167081570253e-06 -1.271622659260174260e-05 7.238191756187006831e-05
2.318000000000000000e+03 5.745009994506835938e+01 5.229417324066162109e+00 -8.981310725212097168e-01 1.293814033269882202e-01 -2.306248992681503296e-01 -8.432497978210449219e-01
2.319000000000000000e+03 5.418568420410156250e+01 7.678979873657226562e+00 -1.218771636486053467e-01 1.195384413003921509e-01 -7.016162853688001633e-04 -8.695389032363891602e-01
2.320000000000000000e+03 4.884263229370117188e+01 2.133001899719238281e+01 7.846401929855346680e-01 3.043542623519897461e+00 1.148454785346984863e+00 4.942818880081176758e-01
2.321000000000000000e+03 4.795377349853515625e+01 2.776053047180175781e+01 5.689575076103210449e-01 3.145840406417846680e+00 1.114439368247985840e+00 2.339446693658828735e-01
2.322000000000000000e+03 8.582119941711425781e+00 6.157657623291015625e+00 -4.488558715820545331e-06 -3.753737473743967712e-05 -1.260778026335174218e-05 5.232291368884034455e-05
2.323000000000000000e+03 2.672436141967773438e+01 -1.286982727050781250e+01 1.008131265640258789e+00 -5.270601511001586914e-01 1.443213522434234619e-01 9.458001852035522461e-01
2.324000000000000000e+03 2.245773506164550781e+01 -1.028807258605957031e+01 7.654701471328735352e-01 -6.464854478836059570e-01 3.569541126489639282e-02 1.373323500156402588e-01
2.325000000000000000e+03 1.062739086151123047e+01 2.079840660095214844e+01 -2.573378151282668114e-04 -5.184444671613164246e-05 -9.275467164115980268e-05 -6.719282100675627589e-05
2.326000000000000000e+03 4.629746627807617188e+01 1.019887828826904297e+01 1.756802558898925781e+00 2.522621154785156250e+00 1.283827185630798340e+00 1.297841191291809082e+00
2.327000000000000000e+03 4.579838943481445312e+01 1.198022556304931641e+01 1.652285337448120117e+00 3.398905277252197266e+00 1.515357136726379395e+00 1.494686841964721680e+00
2.328000000000000000e+03 2.093854331970214844e+01 -8.202270507812500000e+00 3.567053079605102539e-01 -4.492663741111755371e-01 -2.776831947267055511e-02 -9.377240389585494995e-02
2.329000000000000000e+03 2.129179000854492188e+01 -1.326526641845703125e+01 5.591192841529846191e-01 -3.789139389991760254e-01 5.406160652637481689e-02 3.162381947040557861e-01
2.330000000000000000e+03 1.412006950378417969e+01 7.176012992858886719e+00 3.343055868754163384e-05 6.770023901481181383e-05 3.033923894690815359e-05 6.767842569388449192e-05
2.331000000000000000e+03 4.574308395385742188e+01 9.251893043518066406e+00 1.860862016677856445e+00 2.579326868057250977e+00 1.332056641578674316e+00 1.482606768608093262e+00
2.332000000000000000e+03 5.580492782592773438e+01 7.587136745452880859e+00 -2.343353033065795898e-01 1.029507741332054138e-01 -3.941535577178001404e-02 -8.996188044548034668e-01
2.333000000000000000e+03 6.767244720458984375e+01 -1.923592686653137207e+00 -3.983215987682342529e-01 7.008179277181625366e-02 -9.847193956375122070e-02 -1.026116609573364258e-01
2.334000000000000000e+03 4.800158309936523438e+01 1.579743099212646484e+01 1.250048160552978516e+00 2.915189504623413086e+00 1.249571323394775391e+00 9.177060723304748535e-01
2.335000000000000000e+03 4.980967712402343750e+01 1.737623405456542969e+01 1.142536282539367676e+00 2.385833978652954102e+00 1.058511018753051758e+00 6.422817707061767578e-01
2.336000000000000000e+03 1.084353733062744141e+01 1.441127967834472656e+01 5.070038969279266894e-05 -2.366237822570838034e-05 8.111403985822107643e-06 8.360158244613558054e-05
2.337000000000000000e+03 8.332839012145996094e+00 1.332376766204833984e+01 -4.677649940276751295e-06 4.871269629802554846e-05 1.321051422564778477e-05 -7.301151345018297434e-05
2.338000000000000000e+03 6.526296997070312500e+01 5.030503273010253906e-01 -7.124107480049133301e-01 1.337325870990753174e-01 -1.736034601926803589e-01 -3.189781606197357178e-01
2.339000000000000000e+03 3.364142227172851562e+01 -1.270250320434570312e+01 1.056691259145736694e-01 3.896257877349853516e+00 1.200578093528747559e+00 3.813456296920776367e-01
2.340000000000000000e+03 4.762360382080078125e+01 1.271585559844970703e+01 1.548601269721984863e+00 2.449578762054443359e+00 1.199453949928283691e+00 9.934225082397460938e-01
2.341000000000000000e+03 4.805336380004882812e+01 1.427889347076416016e+01 1.439869761466979980e+00 2.593318939208984375e+00 1.209956645965576172e+00 9.439622759819030762e-01
2.342000000000000000e+03 1.063075256347656250e+01 2.509002304077148438e+01 3.676522464957088232e-04 1.132016041083261371e-04 1.442561624571681023e-04 2.087738685077056289e-04
2.343000000000000000e+03 4.257472610473632812e+01 -3.022319412231445312e+01 1.238331943750381470e-02 2.027709245681762695e+00 6.120277643203735352e-01 -5.996868014335632324e-01
2.344000000000000000e+03 3.867125701904296875e+01 -1.950724792480468750e+01 -1.506704539060592651e-01 4.388140201568603516e+00 1.271240949630737305e+00 2.617285847663879395e-01
2.345000000000000000e+03 4.651616668701171875e+01 8.624173164367675781e+00 1.662329792976379395e+00 1.763433456420898438e+00 1.027728915214538574e+00 1.005812406539916992e+00
2.346000000000000000e+03 2.931919288635253906e+01 -1.252737712860107422e+01 1.320163726806640625e+00 4.236219823360443115e-02 4.087577760219573975e-01 1.267956376075744629e+00
2.347000000000000000e+03 6.886302185058593750e+01 -4.416012287139892578e+00 -1.865525692701339722e-01 1.704112254083156586e-02 -5.085343495011329651e-02 -1.775464229285717010e-02
2.348000000000000000e+03 7.277587890625000000e+01 -1.873640418052673340e+00 -1.481250524520874023e-01 -3.262476623058319092e-02 -5.422494560480117798e-02 -1.164244860410690308e-01
2.349000000000000000e+03 5.872043609619140625e+01 4.881378173828125000e+00 -9.111968278884887695e-01 1.040395200252532959e-01 -2.421471923589706421e-01 -8.126201033592224121e-01
2.350000000000000000e+03 4.752400207519531250e+01 2.117549133300781250e+01 6.799963116645812988e-01 3.636148929595947266e+00 1.294843554496765137e+00 5.760201811790466309e-01
2.351000000000000000e+03 4.747058486938476562e+01 6.407321929931640625e+00 4.288285374641418457e-01 3.312584459781646729e-01 2.280260920524597168e-01 2.257590554654598236e-02
2.352000000000000000e+03 2.169951438903808594e+01 -8.270873069763183594e+00 4.397388100624084473e-01 -5.341660976409912109e-01 -2.832817845046520233e-02 -1.246417388319969177e-01
2.353000000000000000e+03 4.627633666992187500e+01 -3.405348587036132812e+01 -1.297081708908081055e-01 1.315355420112609863e+00 3.556941747665405273e-01 -4.080178737640380859e-01
2.354000000000000000e+03 4.597594070434570312e+01 5.840003013610839844e+00 4.580710828304290771e-01 6.495897769927978516e-01 3.322982490062713623e-01 6.439372897148132324e-01
2.355000000000000000e+03 7.256797027587890625e+01 -7.454324245452880859e+00 -3.145528212189674377e-02 -1.939780451357364655e-02 -1.525592617690563202e-02 -7.195617072284221649e-04
2.356000000000000000e+03 6.971235656738281250e+01 -3.704083251953125000e+01 6.936478428542613983e-03 -6.968807894736528397e-03 -9.698870599095243961e-06 1.859578676521778107e-02
2.357000000000000000e+03 7.118630218505859375e+01 -3.523953247070312500e+01 -2.950284862890839577e-03 -1.239063101820647717e-03 -1.256804331205785275e-03 1.422584801912307739e-02
2.358000000000000000e+03 7.139881134033203125e+01 2.833240127563476562e+01 1.230866312980651855e-01 -7.598083019256591797e-01 -1.910165101289749146e-01 -1.267643570899963379e-01
2.359000000000000000e+03 7.266390228271484375e+01 2.715121650695800781e+01 1.001459732651710510e-01 -9.333225488662719727e-01 -2.499529719352722168e-01 -1.510606557130813599e-01
2.360000000000000000e+03 7.653315067291259766e+00 -3.595358657836914062e+01 -4.678225889801979065e-02 -8.167009055614471436e-02 -3.853570297360420227e-02 2.124490588903427124e-02
2.361000000000000000e+03 4.834356689453125000e+01 5.939760684967041016e+00 -2.676356583833694458e-03 -1.675681471824645996e-01 -5.107335373759269714e-02 -4.399791359901428223e-01
2.362000000000000000e+03 4.662701416015625000e+01 6.964672088623046875e+00 1.058206081390380859e+00 8.452526330947875977e-01 5.710375905036926270e-01 5.325236916542053223e-01
2.363000000000000000e+03 7.296013641357421875e+01 7.388068675994873047e+00 -9.127375483512878418e-02 -3.264949023723602295e-01 -1.253305971622467041e-01 -4.617318809032440186e-01
2.364000000000000000e+03 3.627090835571289062e+01 -3.388821411132812500e+01 -5.259701013565063477e-01 2.486545801162719727e+00 5.881726741790771484e-01 1.188048869371414185e-01
2.365000000000000000e+03 3.996287155151367188e+01 -3.203652572631835938e+01 -2.768964171409606934e-01 2.479316234588623047e+00 6.607258915901184082e-01 -3.916242122650146484e-01
2.366000000000000000e+03 7.173850250244140625e+01 4.097451019287109375e+01 -2.656429423950612545e-04 -8.550233840942382812e-01 -2.565867006778717041e-01 -5.610228516161441803e-03
2.367000000000000000e+03 4.106851577758789062e+01 -2.846496200561523438e+01 1.849388480186462402e-01 2.450669050216674805e+00 7.906823754310607910e-01 -5.862672924995422363e-01
2.368000000000000000e+03 4.606437301635742188e+01 -3.264233779907226562e+01 -8.561298251152038574e-02 1.306391000747680664e+00 3.662333786487579346e-01 -4.691238701343536377e-01
2.369000000000000000e+03 2.117141914367675781e+01 -3.737350082397460938e+01 -1.369827389717102051e-01 -1.150696538388729095e-02 -4.454690963029861450e-02 1.670002937316894531e-02
2.370000000000000000e+03 3.757656097412109375e+01 -9.928100585937500000e+00 5.846694707870483398e-01 6.804944515228271484e+00 2.216884136199951172e+00 -3.080587148666381836e+00
2.371000000000000000e+03 3.536806869506835938e+01 -1.012963676452636719e+01 6.428948640823364258e-01 8.315155029296875000e+00 2.687414884567260742e+00 5.983339548110961914e-01
2.372000000000000000e+03 3.578131103515625000e+01 -1.019535446166992188e+01 2.683971226215362549e-01 8.545085906982421875e+00 2.644044876098632812e+00 -2.471008598804473877e-01
2.373000000000000000e+03 3.749921035766601562e+01 -1.080796146392822266e+01 -1.590266264975070953e-02 6.387894153594970703e+00 1.911597490310668945e+00 -2.482453823089599609e+00
2.374000000000000000e+03 3.507476043701171875e+01 -9.608658790588378906e+00 1.683573484420776367e+00 8.481019020080566406e+00 3.049377679824829102e+00 1.770735144615173340e+00
2.375000000000000000e+03 3.861007690429687500e+01 -1.027511119842529297e+01 7.724475264549255371e-01 4.247467041015625000e+00 1.505974292755126953e+00 -2.824670314788818359e+00
2.376000000000000000e+03 3.924143981933593750e+01 -2.864857673645019531e+00 -1.357397794723510742e+00 5.119270801544189453e+00 1.128561973571777344e+00 2.768405675888061523e+00
2.377000000000000000e+03 3.887294769287109375e+01 -3.657017946243286133e+00 -3.660173118114471436e-01 5.177984714508056641e+00 1.443590164184570312e+00 3.539813518524169922e+00
2.378000000000000000e+03 9.738899230957031250e+00 -6.611158847808837891e+00 -1.479150503873825073e-01 1.470306068658828735e-01 -2.653339761309325695e-04 -1.320295482873916626e-01
2.379000000000000000e+03 1.326061058044433594e+01 -7.553550243377685547e+00 -4.371988773345947266e-02 9.806702286005020142e-02 1.630414091050624847e-02 -1.144630368798971176e-02
2.380000000000000000e+03 3.457338714599609375e+01 -1.388828849792480469e+01 -7.333683967590332031e-01 4.036939620971679688e+00 9.910713434219360352e-01 -4.811560511589050293e-01
2.381000000000000000e+03 3.624364852905273438e+01 -9.690174102783203125e+00 4.025737643241882324e-01 9.663858413696289062e+00 3.019929409027099609e+00 -7.691139578819274902e-01
2.382000000000000000e+03 3.872618865966796875e+01 -1.177505397796630859e+01 6.582623720169067383e-02 4.560695171356201172e+00 1.387956380844116211e+00 -2.486860513687133789e+00
2.383000000000000000e+03 5.870898723602294922e+00 7.309946060180664062e+00 -9.439248970011249185e-05 -8.849032383295707405e-06 -3.097245644312351942e-05 -9.815403245738707483e-06
2.384000000000000000e+03 1.114394283294677734e+01 -6.602337837219238281e+00 -1.433364003896713257e-01 1.383431404829025269e-01 -1.497977646067738533e-03 -8.569479733705520630e-02
2.385000000000000000e+03 7.122919082641601562e+00 6.804496765136718750e+00 -7.742548768874257803e-05 -6.272277823882177472e-05 -4.204447759548202157e-05 9.572064300300553441e-05
2.386000000000000000e+03 9.892993927001953125e+00 5.401625156402587891e+00 -1.763729960657656193e-05 -7.399261812679469585e-05 -2.748897713900078088e-05 2.542393667681608349e-05
2.387000000000000000e+03 9.094071388244628906e+00 6.884169578552246094e+00 -9.491694186181121040e-07 3.113732600468210876e-05 9.056446288013830781e-06 -5.521026469068601727e-05
2.388000000000000000e+03 6.796630382537841797e+00 6.081213474273681641e+00 2.182102434744592756e-05 7.688266123295761645e-06 8.852786777424626052e-06 -9.817106911214068532e-05
2.389000000000000000e+03 1.183611583709716797e+01 -6.619929790496826172e+00 -1.324869692325592041e-01 1.189786419272422791e-01 -4.052497912198305130e-03 -6.914756447076797485e-02
2.390000000000000000e+03 7.336826324462890625e+01 -1.994846916198730469e+01 -1.709851931082084775e-04 -1.125488124671392143e-04 -8.506020094500854611e-05 -7.629600986547302455e-06
2.391000000000000000e+03 1.363635158538818359e+01 5.601704597473144531e+00 8.378818165510892868e-05 5.659049202222377062e-05 4.211360283079557121e-05 4.173911656835116446e-05
2.392000000000000000e+03 1.226529979705810547e+01 6.206651210784912109e+00 5.627419159281998873e-05 2.720593511185143143e-05 2.504403710190672427e-05 2.130974462488666177e-05
2.393000000000000000e+03 7.192539978027343750e+01 -8.288538932800292969e+00 -1.833463460206985474e-02 -1.847012154757976532e-02 -1.104142703115940094e-02 7.847736560506746173e-05
2.394000000000000000e+03 7.085992431640625000e+01 -4.846828460693359375e+00 -1.237647980451583862e-01 -5.269139539450407028e-03 -3.871018067002296448e-02 -2.677392214536666870e-02
2.395000000000000000e+03 3.818527984619140625e+01 -1.381287956237792969e+01 -4.317361116409301758e-01 4.766149044036865234e+00 1.300323963165283203e+00 -1.813260436058044434e+00
2.396000000000000000e+03 3.761039352416992188e+01 -2.816838741302490234e+00 -2.451139450073242188e+00 7.559186935424804688e+00 1.532414317131042480e+00 3.261006116867065430e+00
2.397000000000000000e+03 7.306678771972656250e+01 -7.999788284301757812e+00 -2.152678370475769043e-02 -2.139962650835514069e-02 -1.287792343646287918e-02 -2.286411909153684974e-04
2.398000000000000000e+03 1.331425189971923828e+01 -6.816604614257812500e+00 -1.060976162552833557e-01 7.813701033592224121e-02 -8.388182148337364197e-03 -3.329079598188400269e-02
2.399000000000000000e+03 3.820684432983398438e+01 -1.304857635498046875e+01 -3.778682649135589600e-01 4.852547168731689453e+00 1.342403650283813477e+00 -2.037631750106811523e+00
2.400000000000000000e+03 5.662976264953613281e+00 -5.892286777496337891e+00 -1.168820858001708984e-01 1.554312300868332386e-03 -3.459833189845085144e-02 -2.241642773151397705e-01
2.401000000000000000e+03 3.560860443115234375e+01 -1.475566291809082031e+01 -1.193495392799377441e+00 4.451832771301269531e+00 9.775012135505676270e-01 -1.150110602378845215e+00
2.402000000000000000e+03 8.920498847961425781e+00 -8.638936996459960938e+00 -6.273324042558670044e-02 2.119584530591964722e-01 4.476756229996681213e-02 -1.512567996978759766e-01
2.403000000000000000e+03 7.570284843444824219e+00 -7.597765445709228516e+00 -1.117493882775306702e-01 1.376637220382690430e-01 7.774299476295709610e-03 -2.099508941173553467e-01
2.404000000000000000e+03 8.120680809020996094e+00 -5.860249519348144531e+00 -1.652243435382843018e-01 1.011487692594528198e-01 -1.922267302870750427e-02 -1.812924146652221680e-01
2.405000000000000000e+03 2.331686973571777344e+01 -6.662988185882568359e+00 2.592743933200836182e-01 -5.881333351135253906e-01 -9.865768253803253174e-02 -4.725682735443115234e-01
2.406000000000000000e+03 2.411505126953125000e+01 -6.695896625518798828e+00 3.976892530918121338e-01 -7.183222174644470215e-01 -9.618989378213882446e-02 -5.672006011009216309e-01
2.407000000000000000e+03 1.669456863403320312e+01 -6.466358661651611328e+00 -6.983487308025360107e-02 -8.238711953163146973e-02 -4.566659778356552124e-02 -1.366613712161779404e-02
2.408000000000000000e+03 1.583064270019531250e+01 -6.428020000457763672e+00 -9.066620469093322754e-02 -4.198246449232101440e-02 -3.979460150003433228e-02 -1.535307802259922028e-02
2.409000000000000000e+03 1.031324005126953125e+01 5.959119319915771484e+00 -3.869849024340510368e-05 2.589726682344917208e-05 -3.840366844087839127e-06 -5.359297574614174664e-05
2.410000000000000000e+03 2.159571456909179688e+01 -1.233207416534423828e+01 6.431943774223327637e-01 -4.725457131862640381e-01 5.119460448622703552e-02 3.343063592910766602e-01
2.411000000000000000e+03 2.448427581787109375e+01 -1.273520469665527344e+01 8.415470719337463379e-01 -5.771529674530029297e-01 7.931822538375854492e-02 6.558122038841247559e-01
2.412000000000000000e+03 1.178551387786865234e+01 5.064495563507080078e+00 3.114115679636597633e-05 3.751125768758356571e-05 2.059572398138698190e-05 1.585276368132326752e-05
2.413000000000000000e+03 8.894260406494140625e+00 -5.834564685821533203e+00 -1.749162524938583374e-01 1.161580309271812439e-01 -1.762746647000312805e-02 -1.563738137483596802e-01
2.414000000000000000e+03 1.604368972778320312e+01 -8.107562065124511719e+00 8.389391005039215088e-02 -6.020975485444068909e-02 7.105245254933834076e-03 3.044186346232891083e-02
2.415000000000000000e+03 1.847154045104980469e+01 -7.326060771942138672e+00 8.291552960872650146e-02 -2.141036242246627808e-01 -3.935642912983894348e-02 -4.282398521900177002e-02
2.416000000000000000e+03 1.409885597229003906e+01 -6.939428806304931641e+00 -7.908225804567337036e-02 5.444799363613128662e-02 -7.390278857201337814e-03 -8.393361233174800873e-03
2.417000000000000000e+03 1.252135562896728516e+01 -1.125322532653808594e+01 2.758502066135406494e-01 2.340553551912307739e-01 1.529716700315475464e-01 9.622281044721603394e-02
2.418000000000000000e+03 1.764138412475585938e+01 -7.302731513977050781e+00 4.684799537062644958e-02 -1.554770171642303467e-01 -3.258870542049407959e-02 -1.247175410389900208e-02
2.419000000000000000e+03 1.837946701049804688e+01 -6.508302688598632812e+00 -3.243943303823471069e-02 -1.742326170206069946e-01 -6.200161576271057129e-02 -5.578018352389335632e-02
2.420000000000000000e+03 3.387089157104492188e+01 -9.597670555114746094e+00 2.685122728347778320e+00 5.192889213562011719e+00 2.363403558731079102e+00 2.083404064178466797e+00
2.421000000000000000e+03 3.236102676391601562e+01 -8.455513000488281250e+00 4.361522197723388672e+00 1.994283914566040039e+00 1.906741857528686523e+00 1.695976018905639648e+00
2.422000000000000000e+03 1.143894767761230469e+01 9.893075942993164062e+00 1.367146323900669813e-04 -4.957567580277100205e-05 2.614168806758243591e-05 -5.187376154935918748e-05
2.423000000000000000e+03 7.478133678436279297e+00 1.403361415863037109e+01 -9.266434062737971544e-06 1.703563270893937442e-06 -2.268861180709791370e-06 1.875691668828949332e-05
2.424000000000000000e+03 6.763633251190185547e+00 1.104397106170654297e+01 5.659608359565027058e-05 -1.160950546363892499e-06 1.663053990341722965e-05 4.861368870479054749e-05
2.425000000000000000e+03 6.646279144287109375e+01 5.678098797798156738e-01 -5.962585806846618652e-01 1.156502217054367065e-01 -1.441825181245803833e-01 -3.117123246192932129e-01
2.426000000000000000e+03 2.529297637939453125e+01 -1.238888549804687500e+01 9.415274262428283691e-01 -6.171450018882751465e-01 9.731472283601760864e-02 6.912251710891723633e-01
2.427000000000000000e+03 9.104479789733886719e+00 1.429774570465087891e+01 -2.866097383957821876e-05 -1.726316622807644308e-05 -1.377724220219533890e-05 7.956470653880387545e-05
2.428000000000000000e+03 6.736927509307861328e+00 -7.804777145385742188e+00 -1.036946028470993042e-01 9.579742699861526489e-02 -2.369151916354894638e-03 -2.403934597969055176e-01
2.429000000000000000e+03 2.773520088195800781e+01 -1.263033962249755859e+01 1.191731333732604980e+00 -3.752408027648925781e-01 2.449471652507781982e-01 1.154409646987915039e+00
2.430000000000000000e+03 3.227608108520507812e+01 -7.255120277404785156e+00 4.650028228759765625e+00 1.237250208854675293e+00 1.766183495521545410e+00 8.300689458847045898e-01
2.431000000000000000e+03 3.339678955078125000e+01 -1.394159412384033203e+01 -3.693887591361999512e-01 3.050165653228759766e+00 8.042330741882324219e-01 2.611663192510604858e-02
2.432000000000000000e+03 3.518038940429687500e+01 -1.573219490051269531e+01 -1.547420144081115723e+00 3.953302145004272461e+00 7.217646241188049316e-01 -1.079898953437805176e+00
2.433000000000000000e+03 3.747700500488281250e+01 -1.478278160095214844e+00 -3.677957057952880859e+00 7.275091648101806641e+00 1.079140305519104004e+00 2.447098970413208008e+00
2.434000000000000000e+03 3.653385162353515625e+01 -2.885277986526489258e+00 -3.051896333694458008e+00 8.093198776245117188e+00 1.512390732765197754e+00 2.419349670410156250e+00
2.435000000000000000e+03 2.676188468933105469e+01 -5.059611320495605469e+00 -7.233344018459320068e-02 -1.016700744628906250e+00 -3.267102539539337158e-01 -1.328814625740051270e+00
2.436000000000000000e+03 2.250745773315429688e+01 -7.497945785522460938e+00 3.760677874088287354e-01 -5.665082335472106934e-01 -5.713213607668876648e-02 -2.707838416099548340e-01
2.437000000000000000e+03 2.250828170776367188e+01 -6.604404449462890625e+00 1.748288571834564209e-01 -4.872274696826934814e-01 -9.371957927942276001e-02 -3.682568967342376709e-01
2.438000000000000000e+03 2.719736099243164062e+01 -6.506588935852050781e+00 1.139266848564147949e+00 -1.295221090316772461e+00 -4.678624495863914490e-02 -9.367095232009887695e-01
2.439000000000000000e+03 3.860257720947265625e+01 -1.735015106201171875e+01 -5.759589076042175293e-01 4.580943107604980469e+00 1.201495170593261719e+00 -4.202637672424316406e-01
2.440000000000000000e+03 3.767827224731445312e+01 -1.520336055755615234e+01 -7.812856435775756836e-01 4.818332672119140625e+00 1.211114168167114258e+00 -1.343166470527648926e+00
2.441000000000000000e+03 3.068530273437500000e+01 -1.292534160614013672e+01 1.036015629768371582e+00 7.034119367599487305e-01 5.218282938003540039e-01 1.159193277359008789e+00
2.442000000000000000e+03 2.153324317932128906e+01 -1.052395248413085938e+01 6.351283788681030273e-01 -5.435739755630493164e-01 2.746632695198059082e-02 1.551697552204132080e-01
2.443000000000000000e+03 2.296075248718261719e+01 -1.334650897979736328e+01 6.323024034500122070e-01 -4.600349664688110352e-01 5.168023332953453064e-02 4.914577603340148926e-01
2.444000000000000000e+03 8.530062675476074219e+00 -8.112142562866210938e+00 -9.103726595640182495e-02 1.859468519687652588e-01 2.847287431359291077e-02 -1.724327951669692993e-01
2.445000000000000000e+03 1.253737163543701172e+01 7.643647670745849609e+00 3.184623346896842122e-05 1.317015448876190931e-05 1.350491584162227809e-05 5.344964301912114024e-05
2.446000000000000000e+03 1.067845058441162109e+01 2.361840438842773438e+01 -2.541154099162667990e-04 -8.670044917380437255e-05 -1.022447613650001585e-04 -1.418289321009069681e-04
2.447000000000000000e+03 7.229516983032226562e+00 2.396779060363769531e+01 -1.775488635757938027e-04 -1.483578853367362171e-05 -5.771539872512221336e-05 -5.837501157657243311e-05
2.448000000000000000e+03 7.285531616210937500e+01 1.404381942749023438e+01 5.809276551008224487e-02 -6.312346458435058594e-01 -1.719425767660140991e-01 -4.843194782733917236e-01
2.449000000000000000e+03 4.883496475219726562e+01 2.271644401550292969e+01 7.248730063438415527e-01 3.075068712234497070e+00 1.139982461929321289e+00 4.421103894710540771e-01
2.450000000000000000e+03 4.996471405029296875e+01 2.344233703613281250e+01 7.606690526008605957e-01 2.711142778396606445e+00 1.041543602943420410e+00 3.927797079086303711e-01
2.451000000000000000e+03 6.910497283935546875e+01 -5.620191097259521484e+00 -1.161399111151695251e-01 -6.994780269451439381e-04 -3.505181893706321716e-02 1.408042968250811100e-03
2.452000000000000000e+03 7.122362518310546875e+01 -6.795247554779052734e+00 -5.795190110802650452e-02 -2.169833891093730927e-02 -2.389507181942462921e-02 -3.784778527915477753e-03
2.453000000000000000e+03 7.474467468261718750e+01 -1.936989212036132812e+01 1.775645068846642971e-04 6.703877443214878440e-05 7.338098657783120871e-05 -5.831733506056480110e-05
2.454000000000000000e+03 1.689348411560058594e+01 -8.101768493652343750e+00 1.102654635906219482e-01 -1.208610385656356812e-01 -3.178673563525080681e-03 2.733002603054046631e-02
2.455000000000000000e+03 7.291428375244140625e+01 4.641965866088867188e+00 -1.443459540605545044e-01 -2.050402462482452393e-01 -1.048158630728721619e-01 -3.843905329704284668e-01
2.456000000000000000e+03 1.096790790557861328e+01 6.452575683593750000e+00 3.091693724854849279e-05 3.462540007603820413e-06 1.031384363159304485e-05 4.120165613130666316e-05
2.457000000000000000e+03 1.234644794464111328e+01 1.251764011383056641e+01 1.136605424107983708e-04 -1.022080778056988493e-05 3.103191920672543347e-05 9.639719792176038027e-05
2.458000000000000000e+03 7.369686126708984375e+00 1.170840930938720703e+01 -8.714856812730431557e-05 4.207705205772072077e-05 -1.352145409327931702e-05 -9.814924123929813504e-05
2.459000000000000000e+03 2.498260879516601562e+01 -1.366814517974853516e+01 5.480726957321166992e-01 -4.218679070472717285e-01 3.786143660545349121e-02 7.530195713043212891e-01
2.460000000000000000e+03 2.609118080139160156e+01 -1.193564128875732422e+01 1.182702660560607910e+00 -6.663062572479248047e-01 1.549189090728759766e-01 7.887165546417236328e-01
2.461000000000000000e+03 1.332683277130126953e+01 -1.180979537963867188e+01 3.615408837795257568e-01 2.142928242683410645e-01 1.727501153945922852e-01 1.367092430591583252e-01
2.462000000000000000e+03 1.185354232788085938e+01 -7.262502193450927734e+00 -9.568712115287780762e-02 1.318286806344985962e-01 1.084246858954429626e-02 -5.911425501108169556e-02
2.463000000000000000e+03 3.586479568481445312e+01 -1.539638042449951172e+01 -1.390310168266296387e+00 4.672222137451171875e+00 9.845735430717468262e-01 -1.039146065711975098e+00
2.464000000000000000e+03 3.576370620727539062e+01 -1.371292209625244141e+01 -8.761888742446899414e-01 4.863396644592285156e+00 1.196162343025207520e+00 -1.092220187187194824e+00
2.465000000000000000e+03 5.737242507934570312e+01 6.302393913269042969e+00 -6.286110877990722656e-01 9.898006916046142578e-02 -1.588893085718154907e-01 -9.089921116828918457e-01
2.466000000000000000e+03 2.866463470458984375e+01 -1.309554481506347656e+01 9.678326845169067383e-01 -1.832439303398132324e-01 2.353766262531280518e-01 1.190619468688964844e+00
2.467000000000000000e+03 3.006167793273925781e+01 -1.347058010101318359e+01 6.891236901283264160e-01 2.506357431411743164e-01 2.819278240203857422e-01 1.186480283737182617e+00
2.468000000000000000e+03 7.353785705566406250e+01 -1.812010383605957031e+01 -1.832287380238994956e-04 -1.657699904171749949e-04 -1.046996185323223472e-04 -7.401052698696730658e-06
2.469000000000000000e+03 7.281070709228515625e+01 1.922823905944824219e+01 1.203513517975807190e-01 -8.171572685241699219e-01 -2.090417742729187012e-01 -3.693602085113525391e-01
2.470000000000000000e+03 7.007425689697265625e+01 1.796461105346679688e+01 1.937727779150009155e-01 -5.423896908760070801e-01 -1.045850738883018494e-01 -4.705052673816680908e-01
2.471000000000000000e+03 7.159803009033203125e+01 4.848375320434570312e+00 -1.899645924568176270e-01 -1.662261635065078735e-01 -1.068572252988815308e-01 -4.419104754924774170e-01
2.472000000000000000e+03 7.282593536376953125e+01 1.272552871704101562e+01 2.978944592177867889e-02 -5.742661356925964355e-01 -1.633429974317550659e-01 -5.015684962272644043e-01
2.473000000000000000e+03 7.151239776611328125e+01 3.475874423980712891e+00 -2.192490100860595703e-01 -1.173939630389213562e-01 -1.009928882122039795e-01 -3.872613012790679932e-01
2.474000000000000000e+03 7.115447235107421875e+01 -2.231775522232055664e+00 -2.027695775032043457e-01 -1.862511853687465191e-03 -6.138962879776954651e-02 -1.106815114617347717e-01
2.475000000000000000e+03 7.225521850585937500e+01 1.492511630058288574e-01 -1.974939405918121338e-01 -4.754698649048805237e-02 -7.351227849721908569e-02 -2.044582366943359375e-01
2.476000000000000000e+03 9.945713996887207031e+00 1.531692886352539062e+01 6.118517194408923388e-05 -5.174160378373926505e-06 1.680330387898720801e-05 -1.322716270806267858e-04
2.477000000000000000e+03 1.987829780578613281e+01 -1.215343475341796875e+01 5.571512579917907715e-01 -3.570123314857482910e-01 6.004168465733528137e-02 2.118114680051803589e-01
2.478000000000000000e+03 8.270394325256347656e+00 2.435690307617187500e+01 2.623972541186958551e-04 9.376527304993942380e-05 1.068487617885693908e-04 4.991059176973067224e-05
2.479000000000000000e+03 4.036957550048828125e+01 -2.656397628784179688e+01 4.177746772766113281e-01 2.805025339126586914e+00 9.668399691581726074e-01 -5.072878003120422363e-01
2.480000000000000000e+03 7.324751281738281250e+01 -6.864446163177490234e+00 -4.039561375975608826e-02 -2.145643159747123718e-02 -1.855561323463916779e-02 -5.025812424719333649e-03
2.481000000000000000e+03 7.053698730468750000e+01 -6.091685771942138672e+00 -8.574716001749038696e-02 -1.072021853178739548e-02 -2.894021198153495789e-02 -7.857814431190490723e-03
2.482000000000000000e+03 6.890909576416015625e+01 -1.886143565177917480e+00 -3.224935531616210938e-01 4.751852899789810181e-02 -8.249250799417495728e-02 -1.160751432180404663e-01
2.483000000000000000e+03 4.717636489868164062e+01 9.643617630004882812e+00 1.645130872726440430e+00 1.763168096542358398e+00 1.022489666938781738e+00 9.304592609405517578e-01
2.484000000000000000e+03 4.893014907836914062e+01 7.768872261047363281e+00 8.304307460784912109e-01 3.783873617649078369e-01 3.626454472541809082e-01 -1.228007748723030090e-01
2.485000000000000000e+03 7.144581604003906250e+01 1.137489509582519531e+01 3.676867811009287834e-03 -4.357961416244506836e-01 -1.296357810497283936e-01 -5.726833939552307129e-01
2.486000000000000000e+03 8.240327835083007812e+00 1.933071327209472656e+01 1.501986262155696750e-04 1.219682017108425498e-04 8.165004692273214459e-05 7.102626841515302658e-05
2.487000000000000000e+03 8.275648117065429688e+00 2.063662338256835938e+01 -1.280202559428289533e-04 -1.168539602076634765e-04 -7.346226630033925176e-05 -9.640536882216110826e-05
2.488000000000000000e+03 7.042481899261474609e+00 1.921928405761718750e+01 -1.357727742288261652e-04 -1.004399819066748023e-04 -7.086382538545876741e-05 -6.711410242132842541e-05
2.489000000000000000e+03 3.140373802185058594e+01 -1.362490272521972656e+01 4.161423444747924805e-01 1.194900155067443848e+00 4.833127260208129883e-01 8.795588016510009766e-01
2.490000000000000000e+03 6.219173049926757812e+01 3.391780853271484375e+00 -8.571054935455322266e-01 1.126936301589012146e-01 -2.233235538005828857e-01 -6.489773988723754883e-01
2.491000000000000000e+03 6.085137557983398438e+01 3.265498638153076172e+00 -9.895436167716979980e-01 1.158650070428848267e-01 -2.621035873889923096e-01 -6.448233723640441895e-01
2.492000000000000000e+03 3.222655487060546875e+01 -6.022712707519531250e+00 4.024741172790527344e+00 8.086482882499694824e-01 1.450016736984252930e+00 -4.460355043411254883e-01
2.493000000000000000e+03 3.094741058349609375e+01 -6.138949871063232422e+00 3.129358530044555664e+00 -7.161948084831237793e-01 7.239491343498229980e-01 -6.168809533119201660e-01
2.494000000000000000e+03 5.836777210235595703e+00 -8.001380920410156250e+00 -8.584327250719070435e-02 3.528715297579765320e-02 -1.516683492809534073e-02 -2.613841891288757324e-01
2.495000000000000000e+03 7.356916904449462891e+00 -1.117979717254638672e+01 2.924188040196895599e-02 2.752792835235595703e-01 9.135634452104568481e-02 -1.846866756677627563e-01
2.496000000000000000e+03 6.785390377044677734e+00 9.651859283447265625e+00 3.990545519627630711e-05 3.964298230130225420e-06 1.316092584602301940e-05 3.267512511229142547e-05
2.497000000000000000e+03 4.240264892578125000e+01 -2.741094589233398438e+01 2.903322279453277588e-01 2.132348060607910156e+00 7.268040776252746582e-01 -6.440173983573913574e-01
2.498000000000000000e+03 6.503397369384765625e+01 3.023122549057006836e+00 -6.465666294097900391e-01 9.147162735462188721e-02 -1.665284931659698486e-01 -5.564014911651611328e-01
2.499000000000000000e+03 7.295192718505859375e+01 -5.847543239593505859e+00 -5.787827447056770325e-02 -2.206342667341232300e-02 -2.398250997066497803e-02 -1.381793245673179626e-02
2.500000000000000000e+03 7.410580444335937500e+01 -5.527450084686279297e+00 -5.087450519204139709e-02 -2.222228236496448517e-02 -2.192903682589530945e-02 -1.885080710053443909e-02
2.501000000000000000e+03 7.404860019683837891e+00 1.042393589019775391e+01 -6.289171142270788550e-05 3.102219488937407732e-05 -9.560854778101202101e-06 -3.995641236542724073e-05
2.502000000000000000e+03 6.134084701538085938e+00 1.031570434570312500e+01 -6.394142837962135673e-05 1.709277171357825864e-06 -1.866964521468617022e-05 -3.993093923781998456e-05
2.503000000000000000e+03 7.159738922119140625e+01 1.906288528442382812e+01 1.528490781784057617e-01 -7.035410404205322266e-01 -1.652075946331024170e-01 -4.122576117515563965e-01
2.504000000000000000e+03 5.241217041015625000e+01 8.010694503784179688e+00 1.454759985208511353e-01 1.320469528436660767e-01 8.325688540935516357e-02 -7.712898850440979004e-01
2.505000000000000000e+03 1.147549724578857422e+01 3.353379440307617188e+01 -2.193204709328711033e-04 -3.404725866857916117e-04 -1.679379201959818602e-04 -5.042273551225662231e-04
2.506000000000000000e+03 9.186150550842285156e+00 2.609672546386718750e+01 2.633101830724626780e-04 1.464314991608262062e-04 1.229225017596036196e-04 5.397365748649463058e-05
2.507000000000000000e+03 1.086184501647949219e+01 1.250618934631347656e+01 4.733839159598574042e-05 -4.737444396596401930e-05 -1.081558398396964549e-08 1.706332113826647401e-05
2.508000000000000000e+03 6.884564399719238281e+00 1.243167304992675781e+01 1.552410685690119863e-04 4.102255479665473104e-05 5.887908992008306086e-05 3.427713818382471800e-05
2.509000000000000000e+03 6.818920135498046875e+01 2.722973632812500000e+01 2.201237976551055908e-01 -3.618271052837371826e-01 -4.251099750399589539e-02 -1.373196840286254883e-01
2.510000000000000000e+03 6.992868041992187500e+01 2.340102577209472656e+01 2.016164213418960571e-01 -5.773895382881164551e-01 -1.127319410443305969e-01 -2.720031440258026123e-01
2.511000000000000000e+03 1.177108097076416016e+01 1.178328323364257812e+01 2.591104384919162840e-05 9.344348654849454761e-05 3.580635893740691245e-05 -3.520735117490403354e-05
2.512000000000000000e+03 9.294194221496582031e+00 -1.197660350799560547e+01 2.039533555507659912e-01 4.000566601753234863e-01 1.812030076980590820e-01 -2.427385747432708740e-02
2.513000000000000000e+03 9.475515365600585938e+00 -9.162407875061035156e+00 -2.208569459617137909e-02 2.467250674962997437e-01 6.739181280136108398e-02 -1.151868030428886414e-01
2.514000000000000000e+03 6.525339508056640625e+01 2.930779838562011719e+01 2.510714828968048096e-01 6.200925633311271667e-02 9.392422437667846680e-02 -3.699590265750885010e-02
2.515000000000000000e+03 7.035375976562500000e+01 2.678383636474609375e+01 1.595963537693023682e-01 -6.270030140876770020e-01 -1.402219980955123901e-01 -1.673935353755950928e-01
2.516000000000000000e+03 4.862463378906250000e+01 9.787272453308105469e+00 1.406190514564514160e+00 1.189615249633789062e+00 7.787417173385620117e-01 4.487966299057006836e-01
2.517000000000000000e+03 4.797999954223632812e+01 9.005437850952148438e+00 1.402159810066223145e+00 1.099699974060058594e+00 7.505579590797424316e-01 4.816753566265106201e-01
2.518000000000000000e+03 4.869707870483398438e+01 1.815501976013183594e+01 1.044440031051635742e+00 2.926564693450927734e+00 1.191301345825195312e+00 7.526774406433105469e-01
2.519000000000000000e+03 7.164677429199218750e+01 6.191529750823974609e+00 -1.535378545522689819e-01 -2.263794243335723877e-01 -1.139751821756362915e-01 -4.894324839115142822e-01
2.520000000000000000e+03 2.506801986694335938e+01 -1.063370418548583984e+01 1.230308651924133301e+00 -8.449530601501464844e-01 1.156066879630088806e-01 3.752216398715972900e-01
2.521000000000000000e+03 4.691143417358398438e+01 5.344260215759277344e+00 -4.514489322900772095e-02 -1.384085565805435181e-01 -5.506603419780731201e-02 -4.984894767403602600e-02
2.522000000000000000e+03 5.462395191192626953e+00 3.578742599487304688e+01 4.682707658503204584e-04 1.090792720788158476e-04 1.732050150167196989e-04 -2.654317941050976515e-04
2.523000000000000000e+03 7.914607524871826172e+00 3.182889938354492188e+01 4.093590832781046629e-04 -6.572958955075591803e-05 1.030888452078215778e-04 -3.338940732646733522e-04
2.524000000000000000e+03 5.652421188354492188e+01 6.995645046234130859e+00 -4.371528923511505127e-01 1.042627245187759399e-01 -9.986704587936401367e-02 -9.182487130165100098e-01
2.525000000000000000e+03 7.139350891113281250e+01 1.269472885131835938e+01 4.781601205468177795e-02 -4.829969704151153564e-01 -1.305542886257171631e-01 -5.639214515686035156e-01
2.526000000000000000e+03 5.642857360839843750e+01 5.535771846771240234e+00 -9.171956777572631836e-01 1.218372136354446411e-01 -2.386075407266616821e-01 -8.995119333267211914e-01
2.527000000000000000e+03 7.599474906921386719e+00 2.668707466125488281e+01 2.050389302894473076e-04 1.034230444929562509e-04 9.253859752789139748e-05 -9.592579590389505029e-05
2.528000000000000000e+03 4.777792739868164062e+01 -3.048878288269042969e+01 1.072206199169158936e-01 9.287466406822204590e-01 3.107901811599731445e-01 -4.622975289821624756e-01
2.529000000000000000e+03 7.151242065429687500e+01 1.787219047546386719e+01 1.357967704534530640e-01 -6.681534647941589355e-01 -1.597070097923278809e-01 -4.413925409317016602e-01
2.530000000000000000e+03 1.040492153167724609e+01 1.815045356750488281e+01 -1.708461641101166606e-04 -7.181762339314445853e-05 -7.279913552338257432e-05 9.776536899153143167e-06
2.531000000000000000e+03 2.171548843383789062e+01 -7.414472103118896484e+00 2.896741330623626709e-01 -4.804235398769378662e-01 -5.722482502460479736e-02 -2.198951542377471924e-01
2.532000000000000000e+03 4.813482666015625000e+01 1.700030517578125000e+01 1.118186473846435547e+00 3.083069086074829102e+00 1.260376691818237305e+00 8.513807058334350586e-01
2.533000000000000000e+03 7.518947601318359375e+00 2.970379257202148438e+01 1.590550673427060246e-04 4.960318165103672072e-07 4.786533099832013249e-05 -2.841896784957498312e-04
2.534000000000000000e+03 7.072247028350830078e+00 2.775542640686035156e+01 8.407488348893821239e-05 -8.263148629339411855e-05 4.330188971835013945e-07 -9.181862697005271912e-05
2.535000000000000000e+03 7.177919769287109375e+01 2.436030387878417969e+01 1.411718726158142090e-01 -8.097560405731201172e-01 -2.005752474069595337e-01 -2.391102463006973267e-01
2.536000000000000000e+03 1.055435657501220703e+01 1.943003654479980469e+01 2.239415771327912807e-04 8.506386802764609456e-05 9.270163718611001968e-05 2.899127321143168956e-05
2.537000000000000000e+03 7.277700805664062500e+01 -3.637567138671875000e+01 2.998546988237649202e-04 -4.724974278360605240e-03 -1.327535836026072502e-03 1.274425256997346878e-02
2.538000000000000000e+03 1.569787025451660156e+01 -1.278431987762451172e+01 5.352413058280944824e-01 -2.427600882947444916e-02 1.532895863056182861e-01 1.656088083982467651e-01
2.539000000000000000e+03 1.640903663635253906e+01 -1.203149604797363281e+01 4.523773789405822754e-01 -8.253958821296691895e-02 1.109513416886329651e-01 1.545498520135879517e-01
2.540000000000000000e+03 1.191598224639892578e+01 3.729965972900390625e+01 -5.722604109905660152e-04 -1.465490931877866387e-04 -2.156428381567820907e-04 -4.318241553846746683e-04
2.541000000000000000e+03 4.902412796020507812e+01 1.627436065673828125e+01 1.247614383697509766e+00 2.526337862014770508e+00 1.132185697555541992e+00 7.552432417869567871e-01
2.542000000000000000e+03 6.790341186523437500e+01 2.974757194519042969e+01 1.761186420917510986e-01 -3.027534186840057373e-01 -3.799043223261833191e-02 -7.591241598129272461e-02
2.543000000000000000e+03 6.635903930664062500e+01 1.760865092277526855e+00 -5.772954821586608887e-01 8.745206147432327271e-02 -1.469530165195465088e-01 -4.178321659564971924e-01
2.544000000000000000e+03 4.809723281860351562e+01 7.337614536285400391e+00 8.520469069480895996e-01 4.341941773891448975e-01 3.858723044395446777e-01 9.749943390488624573e-03
2.545000000000000000e+03 4.926694488525390625e+01 5.525613307952880859e+00 -7.454185485839843750e-01 -2.928396761417388916e-01 -3.114774823188781738e-01 -8.798177838325500488e-01
2.546000000000000000e+03 3.787306213378906250e+01 -1.057396125793457031e+01 3.214947581291198730e-01 5.786412715911865234e+00 1.832372188568115234e+00 -2.836230516433715820e+00
2.547000000000000000e+03 3.747654724121093750e+01 -1.038426685333251953e+01 2.329936921596527100e-01 6.760815620422363281e+00 2.098142623901367188e+00 -2.710323095321655273e+00
2.548000000000000000e+03 3.704661941528320312e+01 -1.088215732574462891e+01 -1.373957395553588867e-01 6.907049655914306641e+00 2.030896186828613281e+00 -2.103522539138793945e+00
2.549000000000000000e+03 3.650803375244140625e+01 -1.220166778564453125e+01 -5.933592915534973145e-01 5.990804195404052734e+00 1.619233489036560059e+00 -1.484996199607849121e+00
2.550000000000000000e+03 1.046013545989990234e+01 -6.614721298217773438e+00 -1.474718004465103149e-01 1.413315683603286743e-01 -1.842070836573839188e-03 -1.117813810706138611e-01
2.551000000000000000e+03 3.778776550292968750e+01 -1.353953838348388672e+01 -5.728561282157897949e-01 5.030991554260253906e+00 1.337440729141235352e+00 -1.880865931510925293e+00
2.552000000000000000e+03 8.350167274475097656e+00 7.306139945983886719e+00 -1.660605448705609888e-05 -2.548545126046519727e-05 -1.262745172425638884e-05 5.826455162605270743e-05
2.553000000000000000e+03 9.755444526672363281e+00 6.427272796630859375e+00 2.312914512003771961e-05 -3.758255479624494910e-05 -4.336023266660049558e-06 4.858663305640220642e-05
2.554000000000000000e+03 3.860000991821289062e+01 -3.115938425064086914e+00 -1.350742101669311523e+00 6.041970252990722656e+00 1.407368540763854980e+00 3.397626876831054688e+00
2.555000000000000000e+03 3.439141464233398438e+01 -9.935070991516113281e+00 1.908452749252319336e+00 6.280568122863769531e+00 2.456706285476684570e+00 1.875551819801330566e+00
2.556000000000000000e+03 3.286231613159179688e+01 -9.208746910095214844e+00 3.688827753067016602e+00 3.214032888412475586e+00 2.070858240127563477e+00 2.073677778244018555e+00
2.557000000000000000e+03 3.838755416870117188e+01 -1.145179557800292969e+01 9.282080084085464478e-02 4.879916191101074219e+00 1.491821050643920898e+00 -2.574326038360595703e+00
2.558000000000000000e+03 7.192419433593750000e+01 -5.912501335144042969e+00 -7.039343565702438354e-02 -1.850848272442817688e-02 -2.667057700455188751e-02 -1.677295193076133728e-02
2.559000000000000000e+03 7.171620941162109375e+01 -7.538836479187011719e+00 -2.969752252101898193e-02 -2.084675990045070648e-02 -1.516328472644090652e-02 -1.712966361083090305e-03
2.560000000000000000e+03 3.704816436767578125e+01 -1.033803367614746094e+01 4.306026175618171692e-02 7.569061756134033203e+00 2.283636569976806641e+00 -2.245663881301879883e+00
2.561000000000000000e+03 3.566990661621093750e+01 -1.070426464080810547e+01 8.698553591966629028e-02 7.642308235168457031e+00 2.318788051605224609e+00 -2.497006654739379883e-01
2.562000000000000000e+03 1.028036022186279297e+01 8.378917694091796875e+00 1.660719135543331504e-05 4.506261575443204492e-06 6.334035788313485682e-06 -6.436601688619703054e-05
2.563000000000000000e+03 1.256521320343017578e+01 -6.702939987182617188e+00 -1.209223046898841858e-01 1.029298529028892517e-01 -5.397736560553312302e-03 -4.730763286352157593e-02
2.564000000000000000e+03 3.789936065673828125e+01 -1.175962829589843750e+01 -1.916655004024505615e-01 5.441449165344238281e+00 1.574935078620910645e+00 -2.427434206008911133e+00
2.565000000000000000e+03 1.400994300842285156e+01 -7.641081333160400391e+00 -2.797492034733295441e-02 6.375543773174285889e-02 1.073415484279394150e-02 -6.815659347921609879e-03
2.566000000000000000e+03 8.988603591918945312e+00 -6.617259979248046875e+00 -1.467720568180084229e-01 1.409098207950592041e-01 -1.758669619448482990e-03 -1.600238680839538574e-01
2.567000000000000000e+03 8.214632034301757812e+00 -6.665320873260498047e+00 -1.427349895238876343e-01 1.286091953516006470e-01 -4.237737972289323807e-03 -1.835938692092895508e-01
2.568000000000000000e+03 1.588321018218994141e+01 -7.261427879333496094e+00 -4.742828663438558578e-03 -4.264933988451957703e-02 -1.421764958649873734e-02 1.150898914784193039e-02
2.569000000000000000e+03 3.726228332519531250e+01 -1.209537506103515625e+01 -4.475156366825103760e-01 5.785028934478759766e+00 1.601254105567932129e+00 -1.997936725616455078e+00
2.570000000000000000e+03 3.173127555847167969e+01 -7.811221122741699219e+00 4.277298450469970703e+00 6.201739311218261719e-01 1.469241738319396973e+00 9.225441813468933105e-01
2.571000000000000000e+03 1.342700958251953125e+01 -9.380100250244140625e+00 1.008907556533813477e-01 1.347811967134475708e-01 7.070158421993255615e-02 3.579289466142654419e-02
2.572000000000000000e+03 1.529848384857177734e+01 -8.383999824523925781e+00 7.882473617792129517e-02 -2.087447792291641235e-03 2.302118763327598572e-02 4.062736779451370239e-02
2.573000000000000000e+03 1.929425048828125000e+01 -7.337146282196044922e+00 1.069260388612747192e-01 -2.629000842571258545e-01 -4.679221287369728088e-02 -6.691481173038482666e-02
2.574000000000000000e+03 9.839552879333496094e+00 -7.373723983764648438e+00 -1.120164096355438232e-01 1.730680018663406372e-01 1.831547729671001434e-02 -1.293243020772933960e-01
2.575000000000000000e+03 2.490005874633789062e+01 -5.807947158813476562e+00 1.205720975995063782e-01 -7.141025066375732422e-01 -1.780591160058975220e-01 -8.374671936035156250e-01
2.576000000000000000e+03 8.349841117858886719e+00 -7.428736209869384766e+00 -1.171081662178039551e-01 1.573522388935089111e-01 1.207322254776954651e-02 -1.830078065395355225e-01
2.577000000000000000e+03 2.091716766357421875e+01 -7.365373611450195312e+00 2.016117125749588013e-01 -3.913584053516387939e-01 -5.692401155829429626e-02 -1.584700942039489746e-01
2.578000000000000000e+03 2.010875511169433594e+01 -7.345303058624267578e+00 1.596228629350662231e-01 -3.299327790737152100e-01 -5.109297856688499451e-02 -1.124064028263092041e-01
2.579000000000000000e+03 1.089062023162841797e+01 9.148328781127929688e+00 -7.700949936406686902e-05 3.665550320874899626e-05 -1.210620030178688467e-05 5.536287426366470754e-05
2.580000000000000000e+03 1.855001258850097656e+01 -8.189785003662109375e+00 1.841081976890563965e-01 -2.396551966667175293e-01 -1.666410267353057861e-02 -9.455872350372374058e-04
2.581000000000000000e+03 1.777341842651367188e+01 -9.062446594238281250e+00 2.448062449693679810e-01 -1.972749531269073486e-01 1.425938494503498077e-02 5.686284974217414856e-02
2.582000000000000000e+03 3.472415542602539062e+01 -1.219184207916259766e+01 -1.374820470809936523e-01 5.262599468231201172e+00 1.537535190582275391e+00 -2.743536792695522308e-02
2.583000000000000000e+03 1.637851142883300781e+01 -1.065966606140136719e+01 3.360291123390197754e-01 -8.754930645227432251e-02 7.454394549131393433e-02 1.216959208250045776e-01
2.584000000000000000e+03 1.104430484771728516e+01 7.744009017944335938e+00 7.199360538834298495e-07 2.009051058848854154e-06 8.186960940292919986e-07 6.177376781124621630e-05
2.585000000000000000e+03 1.174852943420410156e+01 8.461610794067382812e+00 2.976982432301156223e-05 -1.883866207208484411e-05 3.279348675278015435e-06 -8.485083526466041803e-05
2.586000000000000000e+03 2.996798896789550781e+01 -7.436388492584228516e+00 3.134509086608886719e+00 -7.986949682235717773e-01 7.007442116737365723e-01 2.932325936853885651e-03
2.587000000000000000e+03 3.043853569030761719e+01 -6.743937969207763672e+00 3.085717678070068359e+00 -7.892841100692749023e-01 6.889300942420959473e-01 -3.149571120738983154e-01
2.588000000000000000e+03 6.989530944824218750e+01 -3.141430616378784180e+00 -2.203341424465179443e-01 1.816803030669689178e-02 -6.064983457326889038e-02 -6.828815490007400513e-02
2.589000000000000000e+03 7.173241424560546875e+01 -3.543973684310913086e+00 -1.454909443855285645e-01 -1.007666531950235367e-02 -4.667028039693832397e-02 -6.689867377281188965e-02
2.590000000000000000e+03 9.511519432067871094e+00 2.338134193420410156e+01 2.798663335852324963e-04 1.078408458852209151e-04 1.163121560239233077e-04 1.362957700621336699e-04
2.591000000000000000e+03 3.730005645751953125e+01 -1.593183326721191406e+01 -1.023804426193237305e+00 4.747515678405761719e+00 1.117113471031188965e+00 -9.361560344696044922e-01
2.592000000000000000e+03 3.264725494384765625e+01 -1.347537517547607422e+01 1.028493270277976990e-01 2.582300424575805664e+00 8.055449128150939941e-01 4.875790178775787354e-01
2.593000000000000000e+03 2.178463554382324219e+01 -1.147026920318603516e+01 7.011887431144714355e-01 -5.448880195617675781e-01 4.689020663499832153e-02 2.530183196067810059e-01
2.594000000000000000e+03 3.291444396972656250e+01 -1.276641082763671875e+01 3.893741369247436523e-01 3.035662174224853516e+00 1.027510881423950195e+00 7.093864083290100098e-01
2.595000000000000000e+03 2.669233322143554688e+01 -8.394792556762695312e+00 1.696823596954345703e+00 -1.165315151214599609e+00 1.594525128602981567e-01 -1.606702655553817749e-01
2.596000000000000000e+03 2.437892723083496094e+01 -1.078703880310058594e+01 1.072946429252624512e+00 -7.986903786659240723e-01 8.227682113647460938e-02 3.166646957397460938e-01
2.597000000000000000e+03 2.661225509643554688e+01 -5.966767787933349609e+00 6.496668457984924316e-01 -1.154066205024719238e+00 -1.513198167085647583e-01 -1.101218700408935547e+00
2.598000000000000000e+03 6.366407775878906250e+01 3.163125276565551758e+00 -7.348971962928771973e-01 1.169660761952400208e-01 -1.853793263435363770e-01 -5.953739881515502930e-01
2.599000000000000000e+03 2.246434593200683594e+01 -1.269697952270507812e+01 6.418520212173461914e-01 -4.838055670261383057e-01 4.741394147276878357e-02 3.888769447803497314e-01
2.600000000000000000e+03 2.399983787536621094e+01 -1.187929439544677734e+01 8.831078410148620605e-01 -6.514429450035095215e-01 6.949947774410247803e-02 4.701472520828247070e-01
2.601000000000000000e+03 1.151271629333496094e+01 -1.108488559722900391e+01 1.882333308458328247e-01 3.059894740581512451e-01 1.482668370008468628e-01 4.494845494627952576e-02
2.602000000000000000e+03 8.150709152221679688e+00 8.577447891235351562e+00 -1.915855500556062907e-05 -1.679014349065255374e-05 -1.078460900316713378e-05 6.910213414812460542e-05
2.603000000000000000e+03 6.759107971191406250e+01 4.156251430511474609e+00 -4.159740805625915527e-01 3.649328369647264481e-03 -1.236974224448204041e-01 -5.464904308319091797e-01
2.604000000000000000e+03 2.333915328979492188e+01 -7.633034229278564453e+00 5.570185780525207520e-01 -7.032338380813598633e-01 -4.386456683278083801e-02 -3.207919299602508545e-01
2.605000000000000000e+03 2.572891616821289062e+01 -6.706610679626464844e+00 8.416422605514526367e-01 -1.051829814910888672e+00 -6.305624544620513916e-02 -7.414723634719848633e-01
2.606000000000000000e+03 1.773234367370605469e+01 -1.184373855590820312e+01 4.706634581089019775e-01 -1.906643509864807129e-01 8.399973809719085693e-02 1.596129387617111206e-01
2.607000000000000000e+03 1.969182586669921875e+01 -1.104527854919433594e+01 5.009878873825073242e-01 -3.628737330436706543e-01 4.143423959612846375e-02 1.613032668828964233e-01
2.608000000000000000e+03 1.415269374847412109e+01 -1.117615318298339844e+01 3.329441845417022705e-01 1.101573333144187927e-01 1.329304575920104980e-01 1.275297850370407104e-01
2.609000000000000000e+03 1.253885269165039062e+01 -9.367748260498046875e+00 7.784624397754669189e-02 1.771823912858963013e-01 7.650858908891677856e-02 1.955235190689563751e-02
2.610000000000000000e+03 7.443256378173828125e+00 9.073522567749023438e+00 -2.573737765487749130e-05 1.637000423215795308e-05 -2.810211753967450932e-06 -4.511957376962527633e-05
2.611000000000000000e+03 7.037111663818359375e+01 -6.561290621757507324e-01 -2.846437990665435791e-01 1.077290903776884079e-02 -8.216127008199691772e-02 -1.908197999000549316e-01
2.612000000000000000e+03 6.771527862548828125e+01 -6.340143084526062012e-01 -4.716268479824066162e-01 9.131716191768646240e-02 -1.140929013490676880e-01 -1.993662565946578979e-01
2.613000000000000000e+03 8.342277526855468750e+00 -1.168902397155761719e+01 1.234839335083961487e-01 3.814366161823272705e-01 1.514761596918106079e-01 -8.876556903123855591e-02
2.614000000000000000e+03 7.363348388671875000e+01 -2.107833290100097656e+01 4.633115895558148623e-04 -4.555657797027379274e-04 2.323744865861954167e-06 8.682623592903837562e-05
2.615000000000000000e+03 7.046044158935546875e+01 1.928934478759765625e+01 1.968926191329956055e-01 -5.838137269020080566e-01 -1.160763353109359741e-01 -4.173595011234283447e-01
2.616000000000000000e+03 7.151937103271484375e+01 1.529104232788085938e+01 1.047274544835090637e-01 -5.888508558273315430e-01 -1.452370136976242065e-01 -5.122743844985961914e-01
2.617000000000000000e+03 7.171131896972656250e+01 8.786199569702148438e+00 -7.753107696771621704e-02 -3.409118354320526123e-01 -1.255328655242919922e-01 -5.438149571418762207e-01
2.618000000000000000e+03 7.130604553222656250e+01 2.087126255035400391e+00 -2.499324232339859009e-01 -6.387668848037719727e-02 -9.414273500442504883e-02 -3.264767825603485107e-01
2.619000000000000000e+03 7.036161422729492188e+00 -8.750679016113281250e+00 -7.322048395872116089e-02 1.520549356937408447e-01 2.365033328533172607e-02 -2.313224375247955322e-01
2.620000000000000000e+03 1.499164485931396484e+01 -1.064029502868652344e+01 2.881445288658142090e-01 2.947463281452655792e-02 9.528575092554092407e-02 1.125020906329154968e-01
2.621000000000000000e+03 2.090664482116699219e+01 -1.176457881927490234e+01 5.810992121696472168e-01 -4.388146102428436279e-01 4.268539324402809143e-02 2.389013916254043579e-01
2.622000000000000000e+03 2.905467987060546875e+01 -8.246198654174804688e+00 2.745196580886840820e+00 -9.070495963096618652e-01 5.514441132545471191e-01 2.432954609394073486e-01
2.623000000000000000e+03 9.994375228881835938e+00 1.344674873352050781e+01 -2.866861177608370781e-05 3.015148649865295738e-05 4.448623371899884660e-07 -5.800588405691087246e-05
2.624000000000000000e+03 7.999091148376464844e+00 1.114953041076660156e+01 1.062255978467874229e-04 -7.884127262514084578e-05 8.215298294089734554e-06 4.509329664870165288e-05
2.625000000000000000e+03 7.992104530334472656e+00 2.554216957092285156e+01 -7.326622289838269353e-05 -1.595658541191369295e-04 -6.984962237766012549e-05 -3.150597331114113331e-05
2.626000000000000000e+03 2.911158943176269531e+01 -7.225506305694580078e+00 2.635034561157226562e+00 -1.159160375595092773e+00 4.427622258663177490e-01 -3.187421858310699463e-01
2.627000000000000000e+03 6.986964416503906250e+01 -4.228332042694091797e+00 -1.725300848484039307e-01 5.465744528919458389e-03 -5.011930316686630249e-02 -3.317712247371673584e-02
2.628000000000000000e+03 2.540709495544433594e+01 -1.126514339447021484e+01 1.244104743003845215e+00 -8.005037903785705566e-01 1.330802738666534424e-01 5.242938399314880371e-01
2.629000000000000000e+03 7.156167507171630859e+00 2.188312721252441406e+01 -1.109146833186969161e-04 -1.269490458071231842e-04 -7.135911437217146158e-05 -9.622398647479712963e-05
2.630000000000000000e+03 7.487850666046142578e+00 -9.626165390014648438e+00 -3.555446490645408630e-02 2.134771049022674561e-01 5.337679013609886169e-02 -2.014909386634826660e-01
2.631000000000000000e+03 8.788584709167480469e+00 -9.696301460266113281e+00 -1.328210905194282532e-02 2.608529925346374512e-01 7.427126914262771606e-02 -1.387569457292556763e-01
2.632000000000000000e+03 7.207263946533203125e+01 -2.708264589309692383e+00 -1.576104164123535156e-01 -2.102391049265861511e-02 -5.359029769897460938e-02 -9.297493845224380493e-02
2.633000000000000000e+03 8.786725044250488281e+00 -1.085440444946289062e+01 5.261615663766860962e-02 3.268500864505767822e-01 1.138398721814155579e-01 -1.115668043494224548e-01
2.634000000000000000e+03 7.831259727478027344e+00 1.688549423217773438e+01 1.988235017051920295e-04 -8.682521729497238994e-05 3.359948459547013044e-05 -9.475283150095492601e-05
2.635000000000000000e+03 7.282015228271484375e+01 -4.654462814331054688e+00 -9.088478982448577881e-02 -2.583905868232250214e-02 -3.501715511083602905e-02 -4.151952266693115234e-02
2.636000000000000000e+03 8.160769462585449219e+00 1.506086444854736328e+01 1.036836401908658445e-04 -1.169707684312015772e-05 2.759596827672794461e-05 -5.687408338417299092e-05
2.637000000000000000e+03 6.095690917968750000e+01 5.302926540374755859e+00 -7.084159851074218750e-01 8.807259052991867065e-02 -1.861030310392379761e-01 -8.005465269088745117e-01
2.638000000000000000e+03 9.076318740844726562e+00 3.304074859619140625e+01 -3.541941114235669374e-04 -1.131473254645243287e-04 -1.402024354320019484e-04 -2.691286499612033367e-04
2.639000000000000000e+03 1.704110336303710938e+01 -1.131491279602050781e+01 4.192748963832855225e-01 -1.402832567691802979e-01 8.369749039411544800e-02 1.441356539726257324e-01
2.640000000000000000e+03 9.405048370361328125e+00 1.940825271606445312e+01 -1.544441474834457040e-04 -9.995665459427982569e-05 -7.632024062331765890e-05 -8.581399015383794904e-05
2.641000000000000000e+03 7.031732177734375000e+01 6.398007392883300781e+00 -1.886067390441894531e-01 -1.806602030992507935e-01 -1.107800826430320740e-01 -5.478874444961547852e-01
2.642000000000000000e+03 5.085963821411132812e+01 6.248574256896972656e+00 -5.017451643943786621e-01 -2.850639633834362030e-02 -1.590754687786102295e-01 -9.529613852500915527e-01
2.643000000000000000e+03 1.006504440307617188e+01 1.163444805145263672e+01 -7.253797230077907443e-05 5.351404524844838306e-06 -2.015597056015394628e-05 -1.856566814240068197e-05
2.644000000000000000e+03 4.789472579956054688e+01 1.067510986328125000e+01 1.587953805923461914e+00 1.695123910903930664e+00 9.849233031272888184e-01 7.873637676239013672e-01
2.645000000000000000e+03 5.686465072631835938e+01 7.979484081268310547e+00 -1.801673322916030884e-01 1.088910773396492004e-01 -2.138287946581840515e-02 -8.980815410614013672e-01
2.646000000000000000e+03 7.005429077148437500e+01 2.492441558837890625e+01 2.042071372270584106e-01 -5.793283581733703613e-01 -1.125363707542419434e-01 -2.253993153572082520e-01
2.647000000000000000e+03 7.151874542236328125e+01 1.400917339324951172e+01 7.844041287899017334e-02 -5.461997985839843750e-01 -1.403278112411499023e-01 -5.393714308738708496e-01
2.648000000000000000e+03 5.365847015380859375e+01 8.723654747009277344e+00 2.109139263629913330e-01 1.966634839773178101e-01 1.222732216119766235e-01 -7.526912093162536621e-01
2.649000000000000000e+03 9.483221054077148438e+00 -1.119769954681396484e+01 1.226806640625000000e-01 3.656747937202453613e-01 1.465066373348236084e-01 -4.327882453799247742e-02
2.650000000000000000e+03 1.066724777221679688e+01 -9.430507659912109375e+00 2.355919592082500458e-02 2.560005784034729004e-01 8.386792987585067749e-02 -5.108234658837318420e-02
2.651000000000000000e+03 3.189867210388183594e+01 -1.076510810852050781e+01 2.227121114730834961e+00 2.025090456008911133e+00 1.275663495063781738e+00 1.571533679962158203e+00
2.652000000000000000e+03 9.607670783996582031e+00 2.953727149963378906e+01 1.390320830978453159e-04 -1.973584294319152832e-04 -1.749790499161463231e-05 -2.193263353547081351e-04
2.653000000000000000e+03 7.081829833984375000e+01 2.110193824768066406e+01 1.851599514484405518e-01 -6.496523618698120117e-01 -1.393477171659469604e-01 -3.485426902770996094e-01
2.654000000000000000e+03 6.953793334960937500e+01 2.025630187988281250e+01 2.300736457109451294e-01 -5.198400616645812988e-01 -8.692991733551025391e-02 -3.903744816780090332e-01
2.655000000000000000e+03 4.448717117309570312e+01 -2.957100868225097656e+01 9.041272848844528198e-02 1.575684428215026855e+00 4.998291432857513428e-01 -6.258811950683593750e-01
2.656000000000000000e+03 7.019282531738281250e+01 2.219521903991699219e+01 2.070652544498443604e-01 -6.023747920989990234e-01 -1.185928732156753540e-01 -3.162218034267425537e-01
2.657000000000000000e+03 4.975615310668945312e+01 6.580280780792236328e+00 1.083438657224178314e-02 -7.002911716699600220e-02 -1.775841973721981049e-02 -6.532279849052429199e-01
2.658000000000000000e+03 8.598251342773437500e+00 1.184200000762939453e+01 -1.075273830792866647e-04 8.208859799196943641e-05 -7.631633707205764949e-06 -4.733586683869361877e-05
2.659000000000000000e+03 7.815063953399658203e+00 1.242387676239013672e+01 -1.248349599336506799e-05 -1.082200833479873836e-04 -3.621107316575944424e-05 1.033165899571031332e-04
2.660000000000000000e+03 6.175877761840820312e+01 6.550125598907470703e+00 -4.480276405811309814e-01 5.519605427980422974e-02 -1.178494766354560852e-01 -8.473789095878601074e-01
2.661000000000000000e+03 7.007644653320312500e+01 1.648653411865234375e+01 1.676264107227325439e-01 -5.133532881736755371e-01 -1.037180647253990173e-01 -5.214043259620666504e-01
2.662000000000000000e+03 5.653618240356445312e+01 9.063000679016113281e+00 9.031084924936294556e-02 1.193290874361991882e-01 6.289198249578475952e-02 -8.352417349815368652e-01
2.663000000000000000e+03 8.818321228027343750e+00 3.074978446960449219e+01 6.763517740182578564e-05 -1.047130353981629014e-04 -1.112335667130537331e-05 2.616973324620630592e-05
2.664000000000000000e+03 7.022525787353515625e+01 1.101571178436279297e+01 -3.073646686971187592e-03 -3.666129708290100098e-01 -1.109059825539588928e-01 -6.120920777320861816e-01
2.665000000000000000e+03 7.048925781250000000e+01 8.872832298278808594e+00 -8.563438057899475098e-02 -2.925254404544830322e-01 -1.134479418396949768e-01 -5.935988426208496094e-01
2.666000000000000000e+03 7.007978057861328125e+01 -1.960159182548522949e+00 -2.613431811332702637e-01 1.537523791193962097e-02 -7.379037886857986450e-02 -1.202745586633682251e-01
2.667000000000000000e+03 4.771385192871093750e+01 -3.367539215087890625e+01 -5.482220649719238281e-02 1.001729011535644531e+00 2.840720415115356445e-01 -3.943925201892852783e-01
2.668000000000000000e+03 4.730838775634765625e+01 -3.236244583129882812e+01 -1.613721624016761780e-02 1.048991560935974121e+00 3.098562955856323242e-01 -4.255881011486053467e-01
2.669000000000000000e+03 5.080962371826171875e+01 1.648688316345214844e+01 1.231648921966552734e+00 1.887614846229553223e+00 9.357790946960449219e-01 4.890281856060028076e-01
2.670000000000000000e+03 5.174376296997070312e+01 1.757691192626953125e+01 1.128080725669860840e+00 1.753097891807556152e+00 8.643535971641540527e-01 3.745316565036773682e-01
2.671000000000000000e+03 1.072602558135986328e+01 1.062815761566162109e+01 2.389777910138946027e-05 5.625037374556995928e-05 2.404444603598676622e-05 2.087688699248246849e-05
2.672000000000000000e+03 9.225361824035644531e+00 1.109577655792236328e+01 1.657518150750547647e-04 -1.797317781893070787e-05 4.433358844835311174e-05 -7.346346592385089025e-06
2.673000000000000000e+03 4.881380462646484375e+01 6.854703426361083984e+00 2.950017750263214111e-01 8.605431020259857178e-02 1.143168210983276367e-01 -3.992054164409637451e-01
2.674000000000000000e+03 4.887021636962890625e+01 8.787375450134277344e+00 1.086148619651794434e+00 6.967152953147888184e-01 5.348591804504394531e-01 5.829340592026710510e-02
2.675000000000000000e+03 7.019810485839843750e+01 3.770635366439819336e+00 -2.815884053707122803e-01 -7.557599991559982300e-02 -1.071493253111839294e-01 -4.440289735794067383e-01
2.676000000000000000e+03 7.004275512695312500e+01 2.496339797973632812e+00 -3.114701211452484131e-01 -3.996130451560020447e-02 -1.054294258356094360e-01 -3.803966939449310303e-01
2.677000000000000000e+03 4.202773666381835938e+01 -3.501055908203125000e+01 -3.923588991165161133e-01 1.960262417793273926e+00 4.703710377216339111e-01 -3.780820071697235107e-01
2.678000000000000000e+03 8.340778350830078125e+00 2.191809463500976562e+01 2.022678236244246364e-04 1.167911177617497742e-04 9.571768168825656176e-05 1.201901322929188609e-04
2.679000000000000000e+03 9.509227752685546875e+00 2.204901313781738281e+01 -1.899386843433603644e-04 -9.588404645910486579e-05 -8.574681851314380765e-05 -1.144637935794889927e-04
2.680000000000000000e+03 6.509353637695312500e+01 4.248564720153808594e+00 -5.498913526535034180e-01 6.434682011604309082e-02 -1.456633508205413818e-01 -6.331445574760437012e-01
2.681000000000000000e+03 6.381558990478515625e+01 4.404287338256835938e+00 -6.286696195602416992e-01 7.845708727836608887e-02 -1.650637686252593994e-01 -6.864674091339111328e-01
2.682000000000000000e+03 6.822063446044921875e+01 2.507012748718261719e+01 2.553573548793792725e-01 -3.872937560081481934e-01 -3.958091884851455688e-02 -2.083385884761810303e-01
2.683000000000000000e+03 5.340224838256835938e+01 2.566073417663574219e+01 6.506940126419067383e-01 1.861352562904357910e+00 7.536139488220214844e-01 2.895970046520233154e-01
2.684000000000000000e+03 6.704319763183593750e+01 3.529314804077148438e+01 7.633227854967117310e-02 -1.217287033796310425e-01 -1.361892558634281158e-02 1.659284112975001335e-03
2.685000000000000000e+03 5.007696533203125000e+01 1.264521694183349609e+01 1.385996580123901367e+00 1.453769803047180176e+00 8.519299030303955078e-01 4.051846563816070557e-01
2.686000000000000000e+03 5.533216094970703125e+01 8.442273139953613281e+00 -5.914057604968547821e-03 1.430727392435073853e-01 4.114760458469390869e-02 -8.488544225692749023e-01
2.687000000000000000e+03 1.012703704833984375e+01 3.452355957031250000e+01 5.908376188017427921e-04 1.479093480156734586e-04 2.216240973211824894e-04 -1.059392161550931633e-04
2.688000000000000000e+03 1.751106071472167969e+01 4.138199234008789062e+01 -1.955498941242694855e-03 -1.385260373353958130e-03 -1.002227771095931530e-03 -9.933194378390908241e-04
2.689000000000000000e+03 3.901166915893554688e+01 -3.467479324340820312e+01 -5.143059492111206055e-01 2.327250957489013672e+00 5.438835024833679199e-01 -1.899573057889938354e-01
2.690000000000000000e+03 1.126483345031738281e+01 -7.331532478332519531e+00 -9.784974902868270874e-02 1.541169881820678711e-01 1.688017137348651886e-02 -7.750798761844635010e-02
2.691000000000000000e+03 1.060288333892822266e+01 -7.417203426361083984e+00 -1.015302836894989014e-01 1.722505092620849609e-01 2.121606655418872833e-02 -9.492915868759155273e-02
2.692000000000000000e+03 9.667139053344726562e+00 7.625220298767089844e+00 -2.726003231146023609e-06 -1.689684359007515013e-05 -5.886854069103719667e-06 6.278546061366796494e-05
2.693000000000000000e+03 3.611001205444335938e+01 -1.082325267791748047e+01 -1.138427704572677612e-01 7.559583187103271484e+00 2.233722209930419922e+00 -9.747744202613830566e-01
2.694000000000000000e+03 3.465275573730468750e+01 -1.120844459533691406e+01 3.799352347850799561e-01 5.972128391265869141e+00 1.905619144439697266e+00 5.606302618980407715e-01
2.695000000000000000e+03 3.624152374267578125e+01 -1.434086418151855469e+01 -1.064080834388732910e+00 4.910598278045654297e+00 1.153955221176147461e+00 -1.242124557495117188e+00
2.696000000000000000e+03 1.936117935180664062e+01 -8.200681686401367188e+00 2.384766787290573120e-01 -3.097207248210906982e-01 -2.137321420013904572e-02 -3.327248990535736084e-02
2.697000000000000000e+03 1.252638339996337891e+01 -7.379645824432373047e+00 -7.975950837135314941e-02 1.243728324770927429e-01 1.338399574160575867e-02 -4.295744001865386963e-02
2.698000000000000000e+03 3.817309951782226562e+01 -1.099207973480224609e+01 2.103433012962341309e-01 5.255132198333740234e+00 1.639642596244812012e+00 -2.749968290328979492e+00
2.699000000000000000e+03 3.772023773193359375e+01 -1.410196018218994141e+01 -7.059323787689208984e-01 5.017809867858886719e+00 1.293563246726989746e+00 -1.668522357940673828e+00
2.700000000000000000e+03 3.765335464477539062e+01 -1.265038490295410156e+01 -4.690711498260498047e-01 5.361876964569091797e+00 1.467841744422912598e+00 -2.072298765182495117e+00
2.701000000000000000e+03 1.772691345214843750e+01 -8.153260231018066406e+00 1.505607813596725464e-01 -1.835063546895980835e-01 -9.883670136332511902e-03 7.938406430184841156e-03
2.702000000000000000e+03 3.506422805786132812e+01 -1.324888420104980469e+01 -5.963153839111328125e-01 4.905652999877929688e+00 1.292801260948181152e+00 -6.273585557937622070e-01
2.703000000000000000e+03 3.411416625976562500e+01 -1.157381820678710938e+01 4.894397854804992676e-01 4.956286430358886719e+00 1.633717894554138184e+00 6.940637826919555664e-01
2.704000000000000000e+03 1.036768436431884766e+01 7.077153205871582031e+00 -1.852899185905698687e-05 1.781073478923644871e-05 -2.154773142137855757e-07 -6.038682113285176456e-05
2.705000000000000000e+03 1.006252574920654297e+01 9.818233489990234375e+00 4.795025597559288144e-05 8.741008059587329626e-06 1.700737811916042119e-05 -3.401464709895662963e-05
2.706000000000000000e+03 9.097310066223144531e+00 -7.362285614013671875e+00 -1.176271066069602966e-01 1.676699221134185791e-01 1.501284353435039520e-02 -1.519115418195724487e-01
2.707000000000000000e+03 3.702045440673828125e+01 -1.415958976745605469e+01 -8.384046554565429688e-01 5.013707637786865234e+00 1.252590894699096680e+00 -1.510519027709960938e+00
2.708000000000000000e+03 1.473700904846191406e+01 -7.820143222808837891e+00 1.790444180369377136e-02 2.364053018391132355e-02 1.246349141001701355e-02 2.196804247796535492e-02
2.709000000000000000e+03 1.774082946777343750e+01 -1.004429435729980469e+01 3.425392508506774902e-01 -2.048669755458831787e-01 4.130168259143829346e-02 9.481140226125717163e-02
2.710000000000000000e+03 3.344888687133789062e+01 -1.189369678497314453e+01 6.730166673660278320e-01 4.010785102844238281e+00 1.405140519142150879e+00 9.039581418037414551e-01
2.711000000000000000e+03 1.446824169158935547e+01 -9.904575347900390625e+00 2.068401426076889038e-01 6.517739593982696533e-02 8.160526305437088013e-02 8.925220370292663574e-02
2.712000000000000000e+03 1.612653160095214844e+01 -9.514223098754882812e+00 2.240908145904541016e-01 -6.489820778369903564e-02 4.775778204202651978e-02 7.996269315481185913e-02
2.713000000000000000e+03 7.085977172851562500e+01 -3.250013589859008789e+00 -1.835619807243347168e-01 -1.379985595121979713e-03 -5.548258870840072632e-02 -6.845413893461227417e-02
2.714000000000000000e+03 3.327847290039062500e+01 -9.999441146850585938e+00 2.465528964996337891e+00 4.214763641357421875e+00 2.004087686538696289e+00 1.931374073028564453e+00
2.715000000000000000e+03 1.154667854309082031e+01 -9.335988998413085938e+00 4.054761677980422974e-02 2.223050296306610107e-01 7.885579019784927368e-02 -2.184377610683441162e-02
2.716000000000000000e+03 1.164956760406494141e+01 -1.020725059509277344e+01 1.230415776371955872e-01 2.518658339977264404e-01 1.124722212553024292e-01 1.818272657692432404e-02
2.717000000000000000e+03 3.176980018615722656e+01 -1.187298870086669922e+01 1.428685069084167480e+00 1.843582868576049805e+00 9.816803932189941406e-01 1.255329251289367676e+00
2.718000000000000000e+03 3.278079223632812500e+01 -1.210621643066406250e+01 8.910690546035766602e-01 3.093150138854980469e+00 1.195265769958496094e+00 1.002405643463134766e+00
2.719000000000000000e+03 2.980263900756835938e+01 -8.305968284606933594e+00 3.068028211593627930e+00 -6.237291097640991211e-01 7.332897186279296875e-01 4.433191120624542236e-01
2.720000000000000000e+03 3.766776275634765625e+01 -1.126950359344482422e+01 -9.491316229104995728e-02 5.912928104400634766e+00 1.745404481887817383e+00 -2.449441194534301758e+00
2.721000000000000000e+03 2.414323806762695312e+01 -9.909836769104003906e+00 1.059326291084289551e+00 -8.463527560234069824e-01 6.389205902814865112e-02 1.298060566186904907e-01
2.722000000000000000e+03 7.843657970428466797e+00 -8.398398399353027344e+00 -8.561648428440093994e-02 1.758974939584732056e-01 2.708430588245391846e-02 -1.984704434871673584e-01
2.723000000000000000e+03 9.325293540954589844e+00 -1.021992588043212891e+01 3.635912016034126282e-02 2.958877086639404297e-01 9.967405349016189575e-02 -9.549878537654876709e-02
2.724000000000000000e+03 6.628564453125000000e+01 5.506698131561279297e+00 -4.059364795684814453e-01 -3.537243930622935295e-03 -1.228421181440353394e-01 -6.602266430854797363e-01
2.725000000000000000e+03 1.873674011230468750e+01 -1.107319450378417969e+01 4.633931517601013184e-01 -2.927773892879486084e-01 5.118472874164581299e-02 1.420010328292846680e-01
2.726000000000000000e+03 2.038660812377929688e+01 -9.939575195312500000e+00 4.938772320747375488e-01 -4.362117350101470947e-01 1.729964651167392731e-02 8.628098666667938232e-02
2.727000000000000000e+03 2.674452972412109375e+01 -9.311125755310058594e+00 1.802121639251708984e+00 -1.057742118835449219e+00 2.233138382434844971e-01 2.150904834270477295e-01
2.728000000000000000e+03 2.992531776428222656e+01 -9.823805809020996094e+00 2.750622272491455078e+00 -5.939697846770286560e-03 8.234047889709472656e-01 1.091719508171081543e+00
2.729000000000000000e+03 2.476483917236328125e+01 -1.158424186706542969e+01 1.094801902770996094e+00 -7.334701418876647949e-01 1.083995178341865540e-01 5.534991621971130371e-01
2.730000000000000000e+03 3.067190551757812500e+01 -7.811349868774414062e+00 3.667182207107543945e+00 -3.019975721836090088e-01 1.009555339813232422e+00 4.424442648887634277e-01
2.731000000000000000e+03 1.364708423614501953e+01 -1.025456523895263672e+01 2.012291401624679565e-01 1.542166769504547119e-01 1.066337451338768005e-01 9.053610265254974365e-02
2.732000000000000000e+03 4.988884735107421875e+01 1.545990848541259766e+01 1.327743411064147949e+00 2.104560136795043945e+00 1.029691100120544434e+00 6.592899560928344727e-01
2.733000000000000000e+03 4.887142562866210938e+01 1.171115207672119141e+01 1.505846977233886719e+00 1.615151405334472656e+00 9.362995028495788574e-01 6.208910942077636719e-01
2.734000000000000000e+03 2.772402381896972656e+01 -1.150700473785400391e+01 1.574209928512573242e+00 -5.832712650299072266e-01 2.972815930843353271e-01 9.384075999259948730e-01
2.735000000000000000e+03 2.510207366943359375e+01 -8.379007339477539062e+00 1.120002627372741699e+00 -9.828421473503112793e-01 4.114812612533569336e-02 -2.317112833261489868e-01
2.736000000000000000e+03 7.006562042236328125e+01 1.292258262634277344e+01 6.624338030815124512e-02 -4.211820363998413086e-01 -1.064815968275070190e-01 -6.054990887641906738e-01
2.737000000000000000e+03 2.061717033386230469e+01 -1.083658123016357422e+01 5.721728801727294922e-01 -4.445219933986663818e-01 3.829525783658027649e-02 1.615452617406845093e-01
2.738000000000000000e+03 2.740054321289062500e+01 -7.413580894470214844e+00 1.752349138259887695e+00 -1.316617488861083984e+00 1.307194679975509644e-01 -5.462551116943359375e-01
2.739000000000000000e+03 2.579286766052246094e+01 -7.552462577819824219e+00 1.136077284812927246e+00 -1.063633918762207031e+00 2.173302322626113892e-02 -4.786519408226013184e-01
2.740000000000000000e+03 2.315822982788085938e+01 -1.219998836517333984e+01 8.009918928146362305e-01 -5.901063084602355957e-01 6.326567381620407104e-02 4.367185831069946289e-01
2.741000000000000000e+03 2.417189407348632812e+01 -7.657049179077148438e+00 7.109556794166564941e-01 -8.159410953521728516e-01 -3.149561956524848938e-02 -3.743086755275726318e-01
2.742000000000000000e+03 2.443183708190917969e+01 -8.579211235046386719e+00 9.870318770408630371e-01 -8.998374342918395996e-01 2.615833282470703125e-02 -1.501325666904449463e-01
2.743000000000000000e+03 2.497650146484375000e+01 -9.851948738098144531e+00 1.218532800674438477e+00 -9.159155488014221191e-01 9.078519046306610107e-02 1.672448068857192993e-01
2.744000000000000000e+03 1.566623878479003906e+01 -1.008481597900390625e+01 2.669926881790161133e-01 -3.188373520970344543e-02 7.053268700838088989e-02 1.023160815238952637e-01
2.745000000000000000e+03 2.497859954833984375e+01 -7.577769279479980469e+00 9.421157836914062500e-01 -9.727073311805725098e-01 -9.177451953291893005e-03 -4.331141710281372070e-01
2.746000000000000000e+03 2.244750404357910156e+01 -8.377311706542968750e+00 5.650176405906677246e-01 -6.355418562889099121e-01 -2.115727029740810394e-02 -1.675031334161758423e-01
2.747000000000000000e+03 1.780090904235839844e+01 -1.100176525115966797e+01 4.105069637298583984e-01 -2.029455304145812988e-01 6.226842850446701050e-02 1.469514220952987671e-01
2.748000000000000000e+03 9.254076957702636719e+00 1.258102989196777344e+01 4.683251609094440937e-05 -2.985748869832605124e-05 5.092508217785507441e-06 4.877890387433581054e-05
2.749000000000000000e+03 3.124037361145019531e+01 -1.238173961639404297e+01 1.212667703628540039e+00 1.284519791603088379e+00 7.491562366485595703e-01 1.202194213867187500e+00
2.750000000000000000e+03 6.632844543457031250e+01 2.979571580886840820e+00 -5.485275983810424805e-01 7.359037548303604126e-02 -1.424811631441116333e-01 -5.071563124656677246e-01
2.751000000000000000e+03 6.757498931884765625e+01 2.924791574478149414e+00 -4.592106938362121582e-01 2.803333848714828491e-02 -1.293532103300094604e-01 -4.771827161312103271e-01
2.752000000000000000e+03 6.239976882934570312e+01 4.726471900939941406e+00 -6.808588504791259766e-01 9.306260943412780762e-02 -1.763388663530349731e-01 -7.358293533325195312e-01
2.753000000000000000e+03 5.610310363769531250e+01 1.014405250549316406e+01 3.378872573375701904e-01 1.908680051565170288e-01 1.586265712976455688e-01 -7.460715174674987793e-01
2.754000000000000000e+03 6.811069488525390625e+01 1.950140380859375000e+01 2.829331457614898682e-01 -4.012067317962646484e-01 -3.548207134008407593e-02 -4.284808933734893799e-01
2.755000000000000000e+03 6.858435058593750000e+01 1.790396881103515625e+01 2.513741254806518555e-01 -4.239588379859924316e-01 -5.177540704607963562e-02 -4.863756299018859863e-01
2.756000000000000000e+03 2.660927963256835938e+01 -1.119431877136230469e+01 1.478095412254333496e+00 -7.583598494529724121e-01 2.159206718206405640e-01 7.207740545272827148e-01
2.757000000000000000e+03 2.886013412475585938e+01 -1.143384265899658203e+01 1.772841811180114746e+00 -2.470459342002868652e-01 4.577387571334838867e-01 1.142812728881835938e+00
2.758000000000000000e+03 7.168892669677734375e+01 7.501390457153320312e+00 -1.149189919233322144e-01 -2.809489369392395020e-01 -1.187603771686553955e-01 -5.181863307952880859e-01
2.759000000000000000e+03 7.039197540283203125e+01 7.667742252349853516e+00 -1.375530809164047241e-01 -2.403046190738677979e-01 -1.133573129773139954e-01 -5.833557248115539551e-01
2.760000000000000000e+03 6.865533447265625000e+01 1.630064010620117188e+01 2.044689804315567017e-01 -4.126743674278259277e-01 -6.246161088347434998e-02 -5.566490292549133301e-01
2.761000000000000000e+03 7.054317474365234375e+01 9.996052742004394531e+00 -4.498342052102088928e-02 -3.462016582489013672e-01 -1.173555180430412292e-01 -6.051005125045776367e-01
2.762000000000000000e+03 7.127510070800781250e+01 -5.472612380981445312e+00 -9.804818034172058105e-02 -1.684599556028842926e-02 -3.446825221180915833e-02 -1.900016702711582184e-02
2.763000000000000000e+03 9.822103500366210938e+00 -1.067865562438964844e+01 6.904330849647521973e-02 3.164848387241363525e-01 1.156584471464157104e-01 -6.145669147372245789e-02
2.764000000000000000e+03 8.265438079833984375e+00 -9.098416328430175781e+00 -4.423668235540390015e-02 2.208468765020370483e-01 5.298305675387382507e-02 -1.720481216907501221e-01
2.765000000000000000e+03 1.623863983154296875e+01 -8.875065803527832031e+00 1.715300828218460083e-01 -7.352825254201889038e-02 2.940054982900619507e-02 6.449326872825622559e-02
2.766000000000000000e+03 5.941797256469726562e+00 2.205715370178222656e+01 1.776587305357679725e-04 1.398956082994118333e-04 9.526630310574546456e-05 -2.225021307822316885e-05
2.767000000000000000e+03 7.319651126861572266e+00 2.302147483825683594e+01 2.469060127623379230e-04 6.992368435021489859e-05 9.504891204414889216e-05 1.179186729132197797e-04
2.768000000000000000e+03 6.063982772827148438e+01 7.112721443176269531e+00 -3.862248361110687256e-01 5.242475494742393494e-02 -1.001400202512741089e-01 -8.807740211486816406e-01
2.769000000000000000e+03 6.756980133056640625e+01 1.739137768745422363e+00 -4.886641204357147217e-01 6.353726238012313843e-02 -1.275380551815032959e-01 -3.904957175254821777e-01
2.770000000000000000e+03 9.265742301940917969e+00 1.024252223968505859e+01 -1.300372096011415124e-04 -2.803660754580050707e-05 -4.742214514408260584e-05 1.910313949338160455e-05
2.771000000000000000e+03 8.054607391357421875e+00 9.873627662658691406e+00 1.284072277485392988e-05 -2.203533404099289328e-05 -2.758383288892218843e-06 2.889973984565585852e-05
2.772000000000000000e+03 6.902138519287109375e+01 -5.461456179618835449e-01 -3.676270842552185059e-01 4.157005250453948975e-02 -9.781710803508758545e-02 -2.051724046468734741e-01
2.773000000000000000e+03 7.084696960449218750e+01 7.123464941978454590e-01 -2.766128182411193848e-01 -2.666303515434265137e-02 -9.098275750875473022e-02 -2.652489840984344482e-01
2.774000000000000000e+03 6.634260559082031250e+01 2.478497886657714844e+01 3.260702490806579590e-01 -1.763848215341567993e-01 4.490562528371810913e-02 -1.957960128784179688e-01
2.775000000000000000e+03 5.169234085083007812e+01 1.059941768646240234e+01 9.610649943351745605e-01 5.643205642700195312e-01 4.576156735420227051e-01 -2.425625026226043701e-01
2.776000000000000000e+03 6.299521255493164062e+01 6.013040065765380859e+00 -4.978756606578826904e-01 5.458961054682731628e-02 -1.329858154058456421e-01 -7.977413535118103027e-01
2.777000000000000000e+03 6.887342834472656250e+01 2.167161750793457031e+01 2.562605440616607666e-01 -4.668962061405181885e-01 -6.319069862365722656e-02 -3.443362414836883545e-01
2.778000000000000000e+03 7.139305114746093750e+01 2.008302497863769531e+01 1.704558432102203369e-01 -6.934558749198913574e-01 -1.569000184535980225e-01 -3.734424412250518799e-01
2.779000000000000000e+03 5.994836044311523438e+01 7.877572536468505859e+00 -2.421551495790481567e-01 5.140769854187965393e-02 -5.722423642873764038e-02 -8.889232277870178223e-01
2.780000000000000000e+03 5.818060302734375000e+01 8.358333587646484375e+00 -1.427223086357116699e-01 8.288176357746124268e-02 -1.795216277241706848e-02 -8.992087841033935547e-01
2.781000000000000000e+03 4.950873184204101562e+01 1.416311550140380859e+01 1.408705711364746094e+00 1.959579944610595703e+00 1.010485649108886719e+00 6.478396654129028320e-01
2.782000000000000000e+03 5.017058181762695312e+01 2.081360816955566406e+01 8.913633227348327637e-01 2.603898525238037109e+00 1.048578500747680664e+00 4.862619638442993164e-01
2.783000000000000000e+03 5.060493087768554688e+01 1.855764961242675781e+01 1.077124834060668945e+00 2.248011350631713867e+00 9.975408315658569336e-01 5.185388922691345215e-01
2.784000000000000000e+03 6.869585418701171875e+01 1.683453321456909180e+00 -4.126470386981964111e-01 2.334115095436573029e-02 -1.167917698621749878e-01 -3.704602420330047607e-01
2.785000000000000000e+03 6.764635467529296875e+01 5.720782876014709473e-01 -4.873040616512298584e-01 7.435287535190582275e-02 -1.238853633403778076e-01 -2.957890033721923828e-01
2.786000000000000000e+03 8.876748085021972656e+00 3.528840637207031250e+01 -8.891239849617704749e-05 -2.645515487529337406e-04 -1.060391805367544293e-04 -3.680979134514927864e-04
2.787000000000000000e+03 5.205953598022460938e+01 9.375528335571289062e+00 6.854677796363830566e-01 3.534072935581207275e-01 3.116625249385833740e-01 -4.736337661743164062e-01
2.788000000000000000e+03 5.270473480224609375e+01 1.114654159545898438e+01 9.252040982246398926e-01 5.226744413375854492e-01 4.343635737895965576e-01 -3.132254481315612793e-01
2.789000000000000000e+03 6.411591339111328125e+01 5.549855232238769531e+00 -4.903950691223144531e-01 4.836216941475868225e-02 -1.326098740100860596e-01 -7.453262805938720703e-01
2.790000000000000000e+03 7.016631317138671875e+01 1.516413879394531250e+01 1.288762539625167847e-01 -4.952613711357116699e-01 -1.099155396223068237e-01 -5.546941161155700684e-01
2.791000000000000000e+03 7.653372287750244141e+00 3.634789276123046875e+01 2.640382735989987850e-04 1.658137625781819224e-04 1.289556093979626894e-04 -3.884884936269372702e-04
2.792000000000000000e+03 1.322237777709960938e+01 4.110219573974609375e+01 -1.026539364829659462e-03 -2.671848924364894629e-04 -3.881172742694616318e-04 3.815439995378255844e-04
2.793000000000000000e+03 5.216892623901367188e+01 2.398874855041503906e+01 7.584838271141052246e-01 2.117852926254272461e+00 8.629009723663330078e-01 3.207344710826873779e-01
2.794000000000000000e+03 5.024291229248046875e+01 -3.437044143676757812e+01 -3.434630110859870911e-02 7.433596849441528320e-01 2.127040177583694458e-01 -3.268604278564453125e-01
2.795000000000000000e+03 5.108103561401367188e+01 2.239069175720214844e+01 8.144732713699340820e-01 2.385308265686035156e+00 9.599344730377197266e-01 3.872951865196228027e-01
2.796000000000000000e+03 3.748998641967773438e+01 -4.092285537719726562e+01 -6.765070557594299316e-01 1.970377206802368164e+00 3.881610631942749023e-01 8.550054393708705902e-03
2.797000000000000000e+03 4.318439102172851562e+01 4.112250137329101562e+01 -5.860648155212402344e-01 2.651936531066894531e+00 6.197615265846252441e-01 -1.467111892998218536e-02
2.798000000000000000e+03 4.995949935913085938e+01 3.250067138671875000e+01 1.581842899322509766e-01 2.610653877258300781e+00 8.306514620780944824e-01 3.469911515712738037e-01
2.799000000000000000e+03 5.188087463378906250e+01 -3.900757217407226562e+01 -6.167965009808540344e-02 6.609651446342468262e-01 1.797856539487838745e-01 -1.177794709801673889e-01
2.800000000000000000e+03 5.274543762207031250e+01 -3.435503387451171875e+01 -9.446254000067710876e-03 4.417272806167602539e-01 1.296842992305755615e-01 -1.941630840301513672e-01
2.801000000000000000e+03 3.546425628662109375e+01 -1.119675540924072266e+01 -5.222911015152931213e-02 6.828169822692871094e+00 2.032782077789306641e+00 -2.431322932243347168e-01
2.802000000000000000e+03 3.657480239868164062e+01 -1.088657379150390625e+01 -2.281154394149780273e-01 7.305267333984375000e+00 2.123145580291748047e+00 -1.556337237358093262e+00
2.803000000000000000e+03 3.712570571899414062e+01 -1.331314563751220703e+01 -7.243283987045288086e-01 5.254116535186767578e+00 1.358936548233032227e+00 -1.689112305641174316e+00
2.804000000000000000e+03 3.213651275634765625e+01 -9.647121429443359375e+00 3.164325475692749023e+00 2.098231077194213867e+00 1.578767061233520508e+00 1.778939962387084961e+00
2.805000000000000000e+03 3.597444915771484375e+01 -1.140573215484619141e+01 -3.151636421680450439e-01 6.762382984161376953e+00 1.934165716171264648e+00 -8.922336101531982422e-01
2.806000000000000000e+03 2.236833190917968750e+01 -9.298369407653808594e+00 6.702592372894287109e-01 -6.432093977928161621e-01 8.114956319332122803e-03 2.100083278492093086e-03
2.807000000000000000e+03 2.022934722900390625e+01 -9.067181587219238281e+00 4.098084568977355957e-01 -4.178569912910461426e-01 -2.414560876786708832e-03 -2.324276836588978767e-03
2.808000000000000000e+03 9.886706352233886719e+00 -8.105715751647949219e+00 -7.830254733562469482e-02 1.987389326095581055e-01 3.613092005252838135e-02 -1.187720224261283875e-01
2.809000000000000000e+03 1.170157337188720703e+01 -7.814788818359375000e+00 -6.644936650991439819e-02 1.582069993019104004e-01 2.752728946506977081e-02 -5.655332282185554504e-02
2.810000000000000000e+03 3.369781112670898438e+01 -1.078455066680908203e+01 1.466262578964233398e+00 4.731658458709716797e+00 1.859376311302185059e+00 1.466776371002197266e+00
2.811000000000000000e+03 1.362284469604492188e+01 -8.689365386962890625e+00 5.699387937784194946e-02 1.034995317459106445e-01 4.814802110195159912e-02 2.182075008749961853e-02
2.812000000000000000e+03 2.839090919494628906e+01 -9.277548789978027344e+00 2.387712001800537109e+00 -8.614292144775390625e-01 4.578848481178283691e-01 5.195714831352233887e-01
2.813000000000000000e+03 1.020066070556640625e+01 -8.755076408386230469e+00 -3.310489654541015625e-02 2.212146222591400146e-01 5.643292143940925598e-02 -9.483970701694488525e-02
2.814000000000000000e+03 1.421167087554931641e+01 -8.253427505493164062e+00 3.574328869581222534e-02 7.051330059766769409e-02 3.187697753310203552e-02 2.573243901133537292e-02
2.815000000000000000e+03 1.468572139739990234e+01 -8.831763267517089844e+00 1.126394569873809814e-01 4.649506136775016785e-02 4.774035513401031494e-02 5.676675215363502502e-02
2.816000000000000000e+03 3.628757858276367188e+01 -1.299387454986572266e+01 -7.065428495407104492e-01 5.483182907104492188e+00 1.432992100715637207e+00 -1.370202898979187012e+00
2.817000000000000000e+03 2.162307548522949219e+01 -9.129066467285156250e+00 5.616675019264221191e-01 -5.589239001274108887e-01 8.230701787397265434e-04 -1.884740218520164490e-02
2.818000000000000000e+03 1.512547588348388672e+01 -9.470451354980468750e+00 1.786723881959915161e-01 1.448900345712900162e-02 5.794841796159744263e-02 7.348890602588653564e-02
2.819000000000000000e+03 3.117009353637695312e+01 -8.297272682189941406e+00 3.840300083160400391e+00 3.857966065406799316e-01 1.267829060554504395e+00 9.737874269485473633e-01
2.820000000000000000e+03 3.163821792602539062e+01 -8.951065063476562500e+00 3.648586750030517578e+00 1.101861476898193359e+00 1.425134420394897461e+00 1.433388233184814453e+00
2.821000000000000000e+03 3.147164535522460938e+01 -1.006932735443115234e+01 2.788113355636596680e+00 1.374378681182861328e+00 1.248747587203979492e+00 1.537213206291198730e+00
2.822000000000000000e+03 2.984509086608886719e+01 -1.132993221282958984e+01 1.975467562675476074e+00 1.783718019723892212e-01 6.461517810821533203e-01 1.258762955665588379e+00
2.823000000000000000e+03 3.049647712707519531e+01 -9.105243682861328125e+00 3.222958326339721680e+00 8.573976904153823853e-02 9.926094412803649902e-01 1.051094532012939453e+00
2.824000000000000000e+03 6.881729125976562500e+01 2.786927938461303711e+00 -3.887628912925720215e-01 4.055019933730363846e-03 -1.154123619198799133e-01 -4.287741482257843018e-01
2.825000000000000000e+03 6.894564819335937500e+01 6.637253284454345703e+00 -2.195369154214859009e-01 -1.432275772094726562e-01 -1.088293492794036865e-01 -6.171311736106872559e-01
2.826000000000000000e+03 1.954712295532226562e+01 -1.005443096160888672e+01 4.501060545444488525e-01 -3.660214841365814209e-01 2.522536925971508026e-02 8.555671572685241699e-02
2.827000000000000000e+03 2.649946784973144531e+01 -6.716148853302001953e+00 1.048547267913818359e+00 -1.137148261070251465e+00 -2.658029459416866302e-02 -7.699370980262756348e-01
2.828000000000000000e+03 6.801359558105468750e+01 9.575120925903320312e+00 -6.622906774282455444e-02 -2.075669318437576294e-01 -8.213879913091659546e-02 -7.015569806098937988e-01
2.829000000000000000e+03 2.575988197326660156e+01 -1.076323127746582031e+01 1.344195008277893066e+00 -8.661388754844665527e-01 1.434168517589569092e-01 4.709520041942596436e-01
2.830000000000000000e+03 2.272276878356933594e+01 -1.129295063018798828e+01 7.618447542190551758e-01 -6.102682948112487793e-01 4.547294229269027710e-02 2.886235117912292480e-01
2.831000000000000000e+03 1.867106246948242188e+01 -1.007616043090820312e+01 3.874826431274414062e-01 -2.853942513465881348e-01 3.062651306390762329e-02 1.018953397870063782e-01
2.832000000000000000e+03 1.239566707611083984e+01 -8.584867477416992188e+00 1.422706525772809982e-02 1.586821079254150391e-01 5.187275260686874390e-02 -1.456594839692115784e-02
2.833000000000000000e+03 1.150044441223144531e+01 -8.481289863586425781e+00 -1.997373625636100769e-02 1.896844357252120972e-01 5.091321095824241638e-02 -4.629505053162574768e-02
2.834000000000000000e+03 2.585136795043945312e+01 -1.002907085418701172e+01 1.477123498916625977e+00 -9.541249871253967285e-01 1.568995416164398193e-01 3.216473758220672607e-01
2.835000000000000000e+03 2.768543243408203125e+01 -1.036917495727539062e+01 1.960521697998046875e+00 -7.769027352333068848e-01 3.550856709480285645e-01 7.200720906257629395e-01
2.836000000000000000e+03 1.264357757568359375e+01 -1.033053302764892578e+01 1.682346761226654053e-01 2.088942378759384155e-01 1.131386756896972656e-01 5.310265347361564636e-02
2.837000000000000000e+03 3.352603912353515625e+01 -4.459655284881591797e+00 1.048194289207458496e+00 2.890125513076782227e+00 1.181495904922485352e+00 -8.360204696655273438e-01
2.838000000000000000e+03 6.884637451171875000e+01 6.550810337066650391e-01 -4.004064500331878662e-01 4.113560169935226440e-02 -1.077812537550926208e-01 -2.873448729515075684e-01
2.839000000000000000e+03 5.784863281250000000e+01 9.623901367187500000e+00 1.265011429786682129e-01 1.219795867800712585e-01 7.454422116279602051e-02 -8.334467411041259766e-01
2.840000000000000000e+03 2.118104934692382812e+01 -9.708575248718261719e+00 5.808594822883605957e-01 -5.298081040382385254e-01 1.531541813164949417e-02 5.693571269512176514e-02
2.841000000000000000e+03 7.143875885009765625e+01 -4.341275691986083984e+00 -1.288886517286300659e-01 -1.534250658005475998e-02 -4.326934739947319031e-02 -4.389730095863342285e-02
2.842000000000000000e+03 2.315160942077636719e+01 -9.275417327880859375e+00 8.139582276344299316e-01 -7.320757508277893066e-01 2.456474862992763519e-02 8.898214437067508698e-03
2.843000000000000000e+03 1.861416053771972656e+01 -9.111530303955078125e+00 3.007134795188903809e-01 -2.706374824047088623e-01 9.022794663906097412e-03 3.837935999035835266e-02
2.844000000000000000e+03 6.725673675537109375e+01 1.756396484375000000e+01 2.896573841571807861e-01 -3.266682624816894531e-01 -1.110326591879129410e-02 -5.138991475105285645e-01
2.845000000000000000e+03 6.734882354736328125e+01 1.630782127380371094e+01 2.574940323829650879e-01 -3.251944780349731445e-01 -2.031013555824756622e-02 -5.646868348121643066e-01
2.846000000000000000e+03 2.587591934204101562e+01 -8.390834808349609375e+00 1.376538157463073730e+00 -1.086114406585693359e+00 8.712712675333023071e-02 -2.158578187227249146e-01
2.847000000000000000e+03 5.960359191894531250e+01 8.968811988830566406e+00 -8.217546343803405762e-02 5.535145103931427002e-02 -8.047203533351421356e-03 -8.791894316673278809e-01
2.848000000000000000e+03 3.394013595581054688e+01 -1.336661624908447266e+01 -3.022828698158264160e-01 3.776497364044189453e+00 1.042264342308044434e+00 -4.972738772630691528e-02
2.849000000000000000e+03 3.436281585693359375e+01 -1.280328273773193359e+01 -2.241391241550445557e-01 4.520078659057617188e+00 1.288781881332397461e+00 -2.300080657005310059e-02
2.850000000000000000e+03 1.684049987792968750e+01 -9.849954605102539062e+00 2.913499474525451660e-01 -1.268704235553741455e-01 4.934385418891906738e-02 9.986528754234313965e-02
2.851000000000000000e+03 3.007823181152343750e+01 -1.216442108154296875e+01 1.453585624694824219e+00 3.317321538925170898e-01 5.355953574180603027e-01 1.265681505203247070e+00
2.852000000000000000e+03 3.119275093078613281e+01 -1.118056488037109375e+01 2.002501487731933594e+00 1.222721934318542480e+00 9.675670266151428223e-01 1.420238018035888672e+00
2.853000000000000000e+03 5.320153427124023438e+01 9.918109893798828125e+00 6.052498817443847656e-01 2.810529172420501709e-01 2.658908367156982422e-01 -5.626413226127624512e-01
2.854000000000000000e+03 5.067982482910156250e+01 1.460408496856689453e+01 1.318367123603820801e+00 1.522197723388671875e+00 8.521694540977478027e-01 3.966809511184692383e-01
2.855000000000000000e+03 6.633408355712890625e+01 4.215268611907958984e+00 -4.820662736892700195e-01 2.563109807670116425e-02 -1.369305551052093506e-01 -5.973819494247436523e-01
2.856000000000000000e+03 5.132909774780273438e+01 1.346216773986816406e+01 1.238752961158752441e+00 1.240316510200500488e+00 7.437208890914916992e-01 2.139531224966049194e-01
2.857000000000000000e+03 5.743281936645507812e+01 1.081797599792480469e+01 3.633759617805480957e-01 1.491168141365051270e-01 1.537478268146514893e-01 -7.439963817596435547e-01
2.858000000000000000e+03 6.116626358032226562e+01 8.174626350402832031e+00 -1.991158127784729004e-01 2.925690636038780212e-02 -5.095767229795455933e-02 -8.708516955375671387e-01
2.859000000000000000e+03 4.960293960571289062e+01 1.030493259429931641e+01 1.285707950592041016e+00 9.448451399803161621e-01 6.691659092903137207e-01 1.915518045425415039e-01
2.860000000000000000e+03 5.094676971435546875e+01 9.091961860656738281e+00 8.000267148017883301e-01 4.021959602832794189e-01 3.606668114662170410e-01 -3.525502979755401611e-01
2.861000000000000000e+03 5.268986511230468750e+01 1.877979660034179688e+01 1.052731871604919434e+00 1.629336595535278320e+00 8.046205043792724609e-01 2.911065518856048584e-01
2.862000000000000000e+03 6.742105865478515625e+01 2.110511398315429688e+01 3.104845285415649414e-01 -3.334857523441314697e-01 -6.900360342115163803e-03 -3.576095700263977051e-01
2.863000000000000000e+03 6.843115997314453125e+01 2.325388717651367188e+01 2.648707330226898193e-01 -4.163799285888671875e-01 -4.545275494456291199e-02 -2.744524180889129639e-01
2.864000000000000000e+03 5.069002914428710938e+01 1.045190048217773438e+01 1.147701263427734375e+00 7.494456171989440918e-01 5.691440701484680176e-01 -2.172305621206760406e-02
2.865000000000000000e+03 5.182873916625976562e+01 2.706436538696289062e+01 5.829938650131225586e-01 2.258296966552734375e+00 8.523872494697570801e-01 3.297255933284759521e-01
2.866000000000000000e+03 6.757293701171875000e+01 5.471067905426025391e+00 -3.442828655242919922e-01 -4.686319455504417419e-02 -1.173438206315040588e-01 -6.253558993339538574e-01
2.867000000000000000e+03 4.729512405395507812e+01 -3.520328140258789062e+01 -1.242279857397079468e-01 1.123884558677673340e+00 2.998969554901123047e-01 -3.604699969291687012e-01
2.868000000000000000e+03 6.366538619995117188e+01 2.624569892883300781e+01 3.875765502452850342e-01 1.916018724441528320e-01 1.737535148859024048e-01 -8.256853371858596802e-02
2.869000000000000000e+03 6.684388732910156250e+01 2.285651206970214844e+01 3.326400220394134521e-01 -2.603820562362670898e-01 2.167739346623420715e-02 -2.825320661067962646e-01
2.870000000000000000e+03 6.891868591308593750e+01 5.308927536010742188e+00 -2.890792191028594971e-01 -8.335398137569427490e-02 -1.117299571633338928e-01 -5.638337731361389160e-01
2.871000000000000000e+03 5.124874496459960938e+01 -3.573725509643554688e+01 -5.471446737647056580e-02 6.894779801368713379e-01 1.904290616512298584e-01 -2.329903542995452881e-01
2.872000000000000000e+03 6.957240295410156250e+01 1.018964004516601562e+01 -2.616217359900474548e-02 -3.037142455577850342e-01 -9.896292537450790405e-02 -6.459736227989196777e-01
2.873000000000000000e+03 6.904152679443359375e+01 7.928065299987792969e+00 -1.516858786344528198e-01 -1.921520382165908813e-01 -1.031513735651969910e-01 -6.376218795776367188e-01
2.874000000000000000e+03 6.920989227294921875e+01 1.186499118804931641e+01 3.714108467102050781e-02 -3.446860313415527344e-01 -9.226348251104354858e-02 -6.432245969772338867e-01
2.875000000000000000e+03 5.469707870483398438e+01 -3.867277526855468750e+01 2.046064101159572601e-02 3.405129611492156982e-01 1.082920804619789124e-01 -6.227702274918556213e-02
2.876000000000000000e+03 5.670635604858398438e+01 -3.747213363647460938e+01 4.093070328235626221e-02 1.943225711584091187e-01 7.057598233222961426e-02 -5.642917752265930176e-02
2.877000000000000000e+03 5.219042587280273438e+01 -4.132227706909179688e+01 -4.236808419227600098e-02 6.279864311218261719e-01 1.756855100393295288e-01 -3.294251486659049988e-02
2.878000000000000000e+03 5.281738662719726562e+01 -3.709563827514648438e+01 -3.286767750978469849e-02 5.385535955429077148e-01 1.517057716846466064e-01 -1.634154766798019409e-01
2.879000000000000000e+03 2.282510375976562500e+01 -4.119909667968750000e+01 -7.744281738996505737e-02 1.177949458360671997e-01 1.210563816130161285e-02 1.597456261515617371e-02
2.880000000000000000e+03 6.817667007446289062e+00 3.893673706054687500e+01 4.825108917430043221e-04 6.338973616948351264e-05 1.637701934669166803e-04 -6.870232755318284035e-05
2.881000000000000000e+03 9.213973045349121094e+00 -3.875148773193359375e+01 2.023679763078689575e-02 -1.153502464294433594e-01 -2.853403426706790924e-02 1.966710202395915985e-02
2.882000000000000000e+03 1.152182292938232422e+01 -3.602485656738281250e+01 -1.233990415930747986e-01 -2.114552855491638184e-01 -1.004562973976135254e-01 9.254799783229827881e-02
2.883000000000000000e+03 2.767973899841308594e+01 -3.905932617187500000e+01 -2.212227284908294678e-01 6.888477802276611328e-01 1.402875185012817383e-01 1.610504388809204102e-01
2.884000000000000000e+03 5.341564559936523438e+01 2.273843002319335938e+01 8.191006779670715332e-01 1.757215261459350586e+00 7.728947401046752930e-01 2.713099122047424316e-01
2.885000000000000000e+03 3.577360153198242188e+01 -1.200466442108154297e+01 -4.270160496234893799e-01 6.067959308624267578e+00 1.692283034324645996e+00 -8.457885980606079102e-01
2.886000000000000000e+03 2.382493209838867188e+01 -9.014331817626953125e+00 8.912913799285888672e-01 -8.155466318130493164e-01 2.272342145442962646e-02 -7.801286131143569946e-02
2.887000000000000000e+03 3.645615768432617188e+01 -1.503510761260986328e+01 -1.132067084312438965e+00 4.737191200256347656e+00 1.081537246704101562e+00 -1.232224822044372559e+00
2.888000000000000000e+03 2.911360549926757812e+01 -9.169406890869140625e+00 2.667036056518554688e+00 -6.753503680229187012e-01 5.975056886672973633e-01 6.084918975830078125e-01
2.889000000000000000e+03 3.547386932373046875e+01 -1.262168979644775391e+01 -5.663966536521911621e-01 5.442051410675048828e+00 1.462696433067321777e+00 -7.214762568473815918e-01
2.890000000000000000e+03 3.514625167846679688e+01 -1.167753696441650391e+01 -1.177836209535598755e-01 6.030290603637695312e+00 1.773752212524414062e+00 -8.566731214523315430e-02
2.891000000000000000e+03 3.053267288208007812e+01 -8.442771911621093750e+00 3.428646087646484375e+00 -1.269957721233367920e-01 9.904950857162475586e-01 8.084840178489685059e-01
2.892000000000000000e+03 1.301996803283691406e+01 -8.255449295043945312e+00 1.604367396794259548e-03 1.275259107351303101e-01 3.873908147215843201e-02 -2.777221379801630974e-03
2.893000000000000000e+03 8.589629173278808594e+00 1.059368228912353516e+01 -5.714614235330373049e-05 5.101220813230611384e-05 -1.840180971157678869e-06 1.287649956793757156e-05
2.894000000000000000e+03 2.750440025329589844e+01 -8.353946685791015625e+00 2.052580595016479492e+00 -1.197866439819335938e+00 2.564142942428588867e-01 -5.838812887668609619e-02
2.895000000000000000e+03 2.506428909301757812e+01 -9.083562850952148438e+00 1.219059228897094727e+00 -9.627939462661743164e-01 7.687956839799880981e-02 -1.403260417282581329e-02
2.896000000000000000e+03 8.750610351562500000e+00 9.399079322814941406e+00 5.392377715907059610e-05 5.183567736821714789e-06 1.773220355971716344e-05 -6.179602496558800340e-05
2.897000000000000000e+03 2.674353408813476562e+01 -1.024582481384277344e+01 1.705433249473571777e+00 -9.122418761253356934e-01 2.379574030637741089e-01 5.175817012786865234e-01
2.898000000000000000e+03 2.589331054687500000e+01 -9.219058990478515625e+00 1.481791615486145020e+00 -1.032687425613403320e+00 1.347312480211257935e-01 8.751873672008514404e-02
2.899000000000000000e+03 3.053842163085937500e+01 -9.735789299011230469e+00 2.855449438095092773e+00 2.986713945865631104e-01 9.462361931800842285e-01 1.203610181808471680e+00
2.900000000000000000e+03 3.302722549438476562e+01 -1.111333942413330078e+01 1.506135106086730957e+00 3.690068483352661133e+00 1.558861017227172852e+00 1.442816257476806641e+00
2.901000000000000000e+03 6.926794433593750000e+01 9.117015838623046875e+00 -9.302338957786560059e-02 -2.472689896821975708e-01 -1.020877137780189514e-01 -6.566725969314575195e-01
2.902000000000000000e+03 3.106060600280761719e+01 -9.424746513366699219e+00 3.174985170364379883e+00 6.722651124000549316e-01 1.154175162315368652e+00 1.287734270095825195e+00
2.903000000000000000e+03 5.781943893432617188e+01 1.613853073120117188e+01 8.004807233810424805e-01 4.462324082851409912e-01 3.740139305591583252e-01 -3.379807770252227783e-01
2.904000000000000000e+03 5.144603729248046875e+01 1.987269020080566406e+01 9.858637452125549316e-01 2.101389169692993164e+00 9.261758327484130859e-01 4.193096160888671875e-01
2.905000000000000000e+03 5.171360015869140625e+01 1.546331596374511719e+01 1.238777279853820801e+00 1.452422976493835449e+00 8.073601126670837402e-01 2.945962548255920410e-01
2.906000000000000000e+03 6.245790100097656250e+01 7.813372135162353516e+00 -2.432774454355239868e-01 9.842842817306518555e-03 -7.003038376569747925e-02 -8.505540490150451660e-01
2.907000000000000000e+03 6.808895111083984375e+01 1.288919258117675781e+01 9.460211545228958130e-02 -3.123154342174530029e-01 -6.531399488449096680e-02 -6.612205505371093750e-01
2.908000000000000000e+03 5.236585998535156250e+01 2.128687667846679688e+01 9.150773286819458008e-01 1.940683841705322266e+00 8.567283749580383301e-01 3.410689830780029297e-01
2.909000000000000000e+03 5.384290695190429688e+01 1.180819702148437500e+01 8.879723548889160156e-01 4.609153568744659424e-01 4.046663045883178711e-01 -3.866778016090393066e-01
2.910000000000000000e+03 5.206482315063476562e+01 1.231708145141601562e+01 1.198221087455749512e+00 8.476622104644775391e-01 6.137650012969970703e-01 -2.182028628885746002e-02
2.911000000000000000e+03 6.378560638427734375e+01 7.226847648620605469e+00 -2.989389300346374512e-01 -3.810056252405047417e-03 -9.082470089197158813e-02 -8.051470518112182617e-01
2.912000000000000000e+03 5.927179718017578125e+01 1.021201705932617188e+01 1.470760852098464966e-01 6.331056356430053711e-02 6.311599165201187134e-02 -8.273381590843200684e-01
2.913000000000000000e+03 6.605905914306640625e+01 6.892418384552001953e+00 -2.960472106933593750e-01 -5.260378122329711914e-02 -1.045952960848808289e-01 -7.343419790267944336e-01
2.914000000000000000e+03 6.536669158935546875e+01 1.786799621582031250e+01 3.898217082023620605e-01 -1.794650405645370483e-01 6.310699880123138428e-02 -4.933344423770904541e-01
2.915000000000000000e+03 6.676670837402343750e+01 1.516546249389648438e+01 2.351007014513015747e-01 -2.830427885055541992e-01 -1.438262872397899628e-02 -6.182965040206909180e-01
2.916000000000000000e+03 6.480760955810546875e+01 6.468582630157470703e+00 -3.676306307315826416e-01 -5.031117238104343414e-03 -1.117985248565673828e-01 -7.599197626113891602e-01
2.917000000000000000e+03 6.752789306640625000e+01 6.854715824127197266e+00 -2.508328557014465332e-01 -9.239408373832702637e-02 -1.029680818319320679e-01 -6.764261126518249512e-01
2.918000000000000000e+03 5.437701797485351562e+01 1.058636283874511719e+01 5.902139544486999512e-01 3.035079538822174072e-01 2.681165635585784912e-01 -5.965129733085632324e-01
2.919000000000000000e+03 6.787711620330810547e+00 -3.807347869873046875e+01 2.568044885993003845e-02 -1.315761264413595200e-02 3.756850957870483398e-03 1.863973331637680531e-03
2.920000000000000000e+03 6.757317352294921875e+01 8.312368392944335938e+00 -1.535259783267974854e-01 -1.552879065275192261e-01 -9.264416992664337158e-02 -7.057735919952392578e-01
2.921000000000000000e+03 6.850724792480468750e+01 1.071068477630615234e+01 -4.067275207489728928e-03 -2.775728106498718262e-01 -8.449202775955200195e-02 -6.761111021041870117e-01
2.922000000000000000e+03 4.232838439941406250e+01 -3.791301345825195312e+01 -4.907743334770202637e-01 1.842483162879943848e+00 4.055126309394836426e-01 -2.521299123764038086e-01
2.923000000000000000e+03 4.455154418945312500e+01 -3.467723464965820312e+01 -2.670219838619232178e-01 1.646717429161071777e+00 4.139086604118347168e-01 -4.385663568973541260e-01
2.924000000000000000e+03 5.544308853149414062e+01 3.093968391418457031e+01 2.798374891281127930e-01 1.618662476539611816e+00 5.695499777793884277e-01 2.493079602718353271e-01
2.925000000000000000e+03 6.166648483276367188e+01 2.523880004882812500e+01 4.890230298042297363e-01 4.160795807838439941e-01 2.715307772159576416e-01 -5.399901047348976135e-02
2.926000000000000000e+03 5.338328933715820312e+01 2.911255264282226562e+01 4.210199117660522461e-01 1.977347493171691895e+00 7.195101976394653320e-01 3.185581564903259277e-01
2.927000000000000000e+03 2.861692619323730469e+01 -1.031157779693603516e+01 2.200712680816650391e+00 -5.751249790191650391e-01 4.876763224601745605e-01 8.573499321937561035e-01
2.928000000000000000e+03 5.561494827270507812e+01 1.129317569732666016e+01 5.996642708778381348e-01 2.601833641529083252e-01 2.579542994499206543e-01 -6.077297925949096680e-01
2.929000000000000000e+03 5.321573638916015625e+01 1.305770206451416016e+01 1.064984202384948730e+00 7.501664161682128906e-01 5.445452332496643066e-01 -1.262936294078826904e-01
2.930000000000000000e+03 5.888703536987304688e+01 1.150560379028320312e+01 3.608660697937011719e-01 1.252555102109909058e-01 1.458364725112915039e-01 -7.384805083274841309e-01
2.931000000000000000e+03 1.409875583648681641e+01 -9.219263076782226562e+00 1.169012114405632019e-01 1.010696738958358765e-01 6.539126485586166382e-02 6.150048971176147461e-02
2.932000000000000000e+03 5.250256729125976562e+01 1.429247283935546875e+01 1.171934366226196289e+00 1.066631317138671875e+00 6.715697050094604492e-01 8.407337218523025513e-02
2.933000000000000000e+03 5.279450988769531250e+01 1.644629669189453125e+01 1.153913259506225586e+00 1.300334215164184570e+00 7.362742424011230469e-01 1.946066170930862427e-01
2.934000000000000000e+03 6.543611145019531250e+01 1.159004592895507812e+01 8.945824205875396729e-02 -1.522951126098632812e-01 -1.885106042027473450e-02 -7.446243166923522949e-01
2.935000000000000000e+03 6.222790908813476562e+01 1.234217834472656250e+01 2.710654139518737793e-01 -1.665340363979339600e-02 7.632359862327575684e-02 -7.431494593620300293e-01
2.936000000000000000e+03 6.588307952880859375e+01 2.047676658630371094e+01 3.810208141803741455e-01 -1.979386508464813232e-01 5.492465198040008545e-02 -3.777169585227966309e-01
2.937000000000000000e+03 6.444132232666015625e+01 1.658841133117675781e+01 3.980924487113952637e-01 -1.190587207674980164e-01 8.371011912822723389e-02 -5.509438514709472656e-01
2.938000000000000000e+03 6.214388275146484375e+01 1.096164417266845703e+01 1.302357912063598633e-01 -2.605983987450599670e-02 3.125278279185295105e-02 -8.064459562301635742e-01
2.939000000000000000e+03 6.631810760498046875e+01 1.688297271728515625e+01 3.150609731674194336e-01 -2.500609755516052246e-01 1.949999853968620300e-02 -5.492861866950988770e-01
2.940000000000000000e+03 5.459053039550781250e+01 2.146327590942382812e+01 8.852726221084594727e-01 1.387076020240783691e+00 6.817045807838439941e-01 1.867741942405700684e-01
2.941000000000000000e+03 5.819471359252929688e+01 2.644066429138183594e+01 5.416069626808166504e-01 9.746321439743041992e-01 4.548717439174652100e-01 1.111274808645248413e-01
2.942000000000000000e+03 6.106189346313476562e+01 9.394127845764160156e+00 -4.195977002382278442e-02 1.596701145172119141e-02 -7.797827944159507751e-03 -8.598412275314331055e-01
2.943000000000000000e+03 6.074491882324218750e+01 1.070566940307617188e+01 1.450631916522979736e-01 2.663934417068958282e-02 5.151075869798660278e-02 -8.128409981727600098e-01
2.944000000000000000e+03 1.212395000457763672e+01 -4.142416763305664062e+01 3.516915068030357361e-02 -2.092001438140869141e-01 -5.220929905772209167e-02 1.144444104284048080e-02
2.945000000000000000e+03 1.468588066101074219e+01 -4.027391433715820312e+01 -1.940082386136054993e-02 -2.081652581691741943e-01 -6.826982647180557251e-02 2.533812262117862701e-02
2.946000000000000000e+03 6.525061035156250000e+01 2.230001068115234375e+01 4.011294841766357422e-01 -1.038243249058723450e-01 8.919154852628707886e-02 -2.798348069190979004e-01
2.947000000000000000e+03 6.451022338867187500e+01 2.419385719299316406e+01 4.071710109710693359e-01 2.302667871117591858e-02 1.290592998266220093e-01 -1.873248666524887085e-01
2.948000000000000000e+03 6.371573257446289062e+01 3.488079452514648438e+01 9.020498394966125488e-02 4.105778336524963379e-01 1.502348333597183228e-01 5.540326237678527832e-02
2.949000000000000000e+03 4.829409790039062500e+01 -3.838280487060546875e+01 -2.069569975137710571e-01 1.117235898971557617e+00 2.730836570262908936e-01 -2.142437696456909180e-01
2.950000000000000000e+03 6.232376861572265625e+01 1.620386123657226562e+01 4.879313707351684570e-01 2.074204199016094208e-02 1.526020169258117676e-01 -5.407320261001586914e-01
2.951000000000000000e+03 6.424396514892578125e+01 9.716529846191406250e+00 -2.516592666506767273e-02 -7.776772230863571167e-02 -3.088009357452392578e-02 -7.990861535072326660e-01
2.952000000000000000e+03 6.572012329101562500e+01 1.010850334167480469e+01 -1.356220897287130356e-02 -1.405634135007858276e-01 -4.623768478631973267e-02 -7.680635452270507812e-01
2.953000000000000000e+03 5.441777420043945312e+01 1.382492542266845703e+01 9.821165800094604492e-01 6.463525295257568359e-01 4.885407388210296631e-01 -2.332165837287902832e-01
2.954000000000000000e+03 5.493311691284179688e+01 1.890402984619140625e+01 9.724565744400024414e-01 1.095714569091796875e+00 6.204513311386108398e-01 6.884476542472839355e-02
2.955000000000000000e+03 6.240388107299804688e+01 9.848725318908691406e+00 -2.130579017102718353e-02 -2.025429159402847290e-02 -1.246802415698766708e-02 -8.333268761634826660e-01
2.956000000000000000e+03 6.558745574951171875e+01 1.579963970184326172e+01 3.244672715663909912e-01 -2.065915763378143311e-01 3.536270558834075928e-02 -5.877280235290527344e-01
2.957000000000000000e+03 5.777562713623046875e+01 2.213901901245117188e+01 7.436589598655700684e-01 8.154174685478210449e-01 4.677229225635528564e-01 1.760361599735915661e-03
2.958000000000000000e+03 5.918981552124023438e+00 -3.538670349121093750e+01 -4.907350242137908936e-02 2.331412024796009064e-02 -7.727815303951501846e-03 3.081861883401870728e-03
2.959000000000000000e+03 5.632812118530273438e+01 1.323941802978515625e+01 7.628648281097412109e-01 3.570952117443084717e-01 3.359880149364471436e-01 -4.681298136711120605e-01
2.960000000000000000e+03 5.622817993164062500e+01 2.544437217712402344e+01 6.349025964736938477e-01 1.288183450698852539e+00 5.769258141517639160e-01 1.790332347154617310e-01
2.961000000000000000e+03 6.357632064819335938e+01 1.529923820495605469e+01 4.005667567253112793e-01 -7.748029381036758423e-02 9.692593663930892944e-02 -6.026989817619323730e-01
2.962000000000000000e+03 6.319995498657226562e+01 8.943910598754882812e+00 -1.097657382488250732e-01 -1.677866838872432709e-02 -3.796332329511642456e-02 -8.366693854331970215e-01
2.963000000000000000e+03 6.593591308593750000e+01 8.457242012023925781e+00 -1.627941131591796875e-01 -9.832359105348587036e-02 -7.833530753850936890e-02 -7.598761320114135742e-01
2.964000000000000000e+03 5.505873870849609375e+01 1.252013111114501953e+01 8.136641383171081543e-01 4.185737669467926025e-01 3.696713745594024658e-01 -4.309867918491363525e-01
2.965000000000000000e+03 6.375071716308593750e+01 2.165177345275878906e+01 4.698201119899749756e-01 3.239221498370170593e-02 1.506636887788772583e-01 -2.771540284156799316e-01
2.966000000000000000e+03 6.041115188598632812e+01 2.746935272216796875e+01 4.398540556430816650e-01 6.777803301811218262e-01 3.352903127670288086e-01 5.244138464331626892e-02
2.967000000000000000e+03 6.170339584350585938e+01 3.113389015197753906e+01 2.465289235115051270e-01 6.051610112190246582e-01 2.555069625377655029e-01 8.086593449115753174e-02
2.968000000000000000e+03 6.735890960693359375e+01 3.246524429321289062e+01 1.297134608030319214e-01 -1.788026988506317139e-01 -1.472676917910575867e-02 -1.894973590970039368e-02
2.969000000000000000e+03 6.389212417602539062e+01 1.189523315429687500e+01 1.457399278879165649e-01 -1.052175313234329224e-01 1.215671747922897339e-02 -7.576769590377807617e-01
2.970000000000000000e+03 6.423574066162109375e+01 1.866825294494628906e+01 4.417654275894165039e-01 -8.125615864992141724e-02 1.081527769565582275e-01 -4.441403448581695557e-01
2.971000000000000000e+03 5.989372634887695312e+01 1.364445400238037109e+01 5.034142136573791504e-01 1.235665902495384216e-01 1.880942434072494507e-01 -6.335568428039550781e-01
2.972000000000000000e+03 6.271274948120117188e+01 1.388423824310302734e+01 3.508973717689514160e-01 -4.111418500542640686e-02 9.293495118618011475e-02 -6.769620180130004883e-01
2.973000000000000000e+03 5.693230819702148438e+01 1.200935077667236328e+01 5.680041313171386719e-01 2.475193589925765991e-01 2.446570396423339844e-01 -6.213662028312683105e-01
2.974000000000000000e+03 5.644250106811523438e+01 1.818415069580078125e+01 9.101259708404541016e-01 7.688811421394348145e-01 5.037021636962890625e-01 -1.054398193955421448e-01
2.975000000000000000e+03 6.337538146972656250e+01 1.066267681121826172e+01 6.426592171192169189e-02 -6.107217073440551758e-02 9.581240592524409294e-04 -7.995665669441223145e-01
2.976000000000000000e+03 5.368237686157226562e+01 1.517092418670654297e+01 1.095080733299255371e+00 9.636385440826416016e-01 6.176158189773559570e-01 -5.393801257014274597e-03
2.977000000000000000e+03 6.027590560913085938e+01 2.386601448059082031e+01 5.862986445426940918e-01 5.542759299278259277e-01 3.421723842620849609e-01 -5.362126603722572327e-02
2.978000000000000000e+03 6.441521453857421875e+01 2.005023574829101562e+01 4.536857306957244873e-01 -7.095180451869964600e-02 1.148201748728752136e-01 -3.758822083473205566e-01
2.979000000000000000e+03 5.881663894653320312e+01 1.735636711120605469e+01 7.461159825325012207e-01 4.015700519084930420e-01 3.443058133125305176e-01 -3.139991760253906250e-01
2.980000000000000000e+03 5.689501190185546875e+01 1.951252937316894531e+01 8.711844086647033691e-01 8.253405690193176270e-01 5.089575052261352539e-01 -4.755666106939315796e-02
2.981000000000000000e+03 5.835063171386718750e+01 1.277502632141113281e+01 5.418381094932556152e-01 1.838243007659912109e-01 2.176987230777740479e-01 -6.357839703559875488e-01
2.982000000000000000e+03 5.564581680297851562e+01 1.457822895050048828e+01 9.033071994781494141e-01 5.415927767753601074e-01 4.334700107574462891e-01 -2.930399775505065918e-01
2.983000000000000000e+03 5.769742965698242188e+01 2.071686935424804688e+01 7.963072657585144043e-01 7.564269304275512695e-01 4.658202528953552246e-01 -5.244482681155204773e-02
2.984000000000000000e+03 5.574014282226562500e+01 2.032090377807617188e+01 8.709667325019836426e-01 1.067886471748352051e+00 5.816559791564941406e-01 5.043685808777809143e-02
2.985000000000000000e+03 5.499665832519531250e+01 2.726764678955078125e+01 5.465852618217468262e-01 1.584752678871154785e+00 6.394013762474060059e-01 2.455271631479263306e-01
2.986000000000000000e+03 6.143088912963867188e+01 2.231450080871582031e+01 5.720949769020080566e-01 3.259729146957397461e-01 2.694203853607177734e-01 -1.744124442338943481e-01
2.987000000000000000e+03 5.874029159545898438e+01 2.438757896423339844e+01 6.073858737945556641e-01 8.084799647331237793e-01 4.247597754001617432e-01 3.576073795557022095e-02
2.988000000000000000e+03 5.782271957397460938e+01 1.859900093078613281e+01 8.408132195472717285e-01 5.804099440574645996e-01 4.263669550418853760e-01 -1.732077449560165405e-01
2.989000000000000000e+03 6.114603805541992188e+01 1.733187294006347656e+01 6.013255119323730469e-01 1.563728451728820801e-01 2.273095101118087769e-01 -4.304621517658233643e-01
2.990000000000000000e+03 5.494812393188476562e+01 1.609055519104003906e+01 1.009407162666320801e+00 8.258560895919799805e-01 5.505789518356323242e-01 -9.435853362083435059e-02
2.991000000000000000e+03 6.001128768920898438e+01 1.859004974365234375e+01 6.786001324653625488e-01 3.377686142921447754e-01 3.049106299877166748e-01 -3.108495175838470459e-01
2.992000000000000000e+03 6.116202926635742188e+01 1.976744079589843750e+01 6.355153918266296387e-01 2.483607679605484009e-01 2.651628553867340088e-01 -2.934872806072235107e-01
2.993000000000000000e+03 5.913764572143554688e+01 2.267681121826171875e+01 6.891085505485534668e-01 6.603214740753173828e-01 4.048290252685546875e-01 -4.038937017321586609e-02
2.994000000000000000e+03 6.239319992065429688e+01 2.081335067749023438e+01 5.586147308349609375e-01 1.622884422540664673e-01 2.162709385156631470e-01 -2.832871675491333008e-01
2.995000000000000000e+03 6.126020812988281250e+01 1.483213043212890625e+01 4.956894814968109131e-01 6.276397407054901123e-02 1.675360351800918579e-01 -5.929827094078063965e-01
2.996000000000000000e+03 6.050290679931640625e+01 1.217180538177490234e+01 3.387724459171295166e-01 4.143832251429557800e-02 1.140632331371307373e-01 -7.394483685493469238e-01
2.997000000000000000e+03 5.763454437255859375e+01 1.401807880401611328e+01 7.025325894355773926e-01 3.223877847194671631e-01 3.074761331081390381e-01 -4.905390441417694092e-01
2.998000000000000000e+03 5.889667892456054688e+01 1.496080493927001953e+01 6.728236675262451172e-01 2.536271810531616211e-01 2.779352366924285889e-01 -4.919676780700683594e-01
2.999000000000000000e+03 6.220914459228515625e+01 1.850120353698730469e+01 5.508341193199157715e-01 1.051888391375541687e-01 1.968068927526473999e-01 -4.013755619525909424e-01
3.000000000000000000e+03 5.685818481445312500e+01 1.523429584503173828e+01 8.553973436355590820e-01 4.723590016365051270e-01 3.983269035816192627e-01 -3.308388590812683105e-01
3.001000000000000000e+03 6.285702514648437500e+01 2.336700630187988281e+01 4.852859675884246826e-01 1.861141473054885864e-01 2.014200389385223389e-01 -1.736415922641754150e-01
3.002000000000000000e+03 6.008663558959960938e+01 2.116085624694824219e+01 6.725208759307861328e-01 4.748198091983795166e-01 3.442021906375885010e-01 -1.611476689577102661e-01
3.003000000000000000e+03 6.005237579345703125e+01 1.609875488281250000e+01 6.332291364669799805e-01 2.081369012594223022e-01 2.524098157882690430e-01 -4.693842232227325439e-01
3.004000000000000000e+03 6.330718994140625000e+01 1.745658683776855469e+01 4.786460101604461670e-01 -2.962477505207061768e-02 1.347063630819320679e-01 -4.923212826251983643e-01
3.005000000000000000e+03 5.696549987792968750e+01 2.869539070129394531e+01 4.335928261280059814e-01 1.274670243263244629e+00 5.124789476394653320e-01 1.991535872220993042e-01
3.006000000000000000e+03 5.709919738769531250e+01 2.372970581054687500e+01 6.790506839752197266e-01 1.044739246368408203e+00 5.171369910240173340e-01 8.654280006885528564e-02
3.007000000000000000e+03 6.323313522338867188e+01 1.950765419006347656e+01 5.192948579788208008e-01 3.533365204930305481e-02 1.663885414600372314e-01 -3.773147761821746826e-01
3.008000000000000000e+03 5.664133453369140625e+01 2.148586082458496094e+01 8.191223740577697754e-01 1.011800169944763184e+00 5.492767691612243652e-01 4.420971125364303589e-02
3.009000000000000000e+03 5.889321517944335938e+01 1.986746025085449219e+01 7.690705060958862305e-01 5.293588042259216309e-01 3.895288109779357910e-01 -1.562155187129974365e-01
3.010000000000000000e+03 6.301683044433593750e+01 3.796004867553710938e+01 4.321280401200056076e-03 5.554240345954895020e-01 1.679235994815826416e-01 3.915149718523025513e-02
3.011000000000000000e+03 6.449808502197265625e+01 3.197403907775878906e+01 1.795049756765365601e-01 2.124098390340805054e-01 1.175744459033012390e-01 2.423311583697795868e-02
3.012000000000000000e+03 6.730133819580078125e+01 4.110638046264648438e+01 4.697722848504781723e-03 -1.205440834164619446e-01 -3.475390747189521790e-02 4.313143435865640640e-03
3.013000000000000000e+03 6.703070068359375000e+01 3.822452545166015625e+01 2.032651752233505249e-02 -9.701933711767196655e-02 -2.300784736871719360e-02 9.256964549422264099e-03
3.014000000000000000e+03 7.604206085205078125e+01 -3.731890487670898438e+01 2.887973794713616371e-03 -1.042993832379579544e-02 -2.262589288875460625e-03 6.469745654612779617e-03
3.015000000000000000e+03 5.229017639160156250e+01 3.759729766845703125e+01 -2.257092893123626709e-01 2.227156877517700195e+00 6.004343032836914062e-01 2.134704589843750000e-01
3.016000000000000000e+03 5.270662689208984375e+01 4.078461074829101562e+01 -3.238159716129302979e-01 2.183503150939941406e+00 5.579061508178710938e-01 8.445625752210617065e-02
3.017000000000000000e+03 3.627504730224609375e+01 3.994081878662109375e+01 -3.865611925721168518e-02 8.896618485450744629e-01 2.553017139434814453e-01 -2.035564631223678589e-01
3.018000000000000000e+03 6.750823974609375000e+01 -4.101068878173828125e+01 3.119328618049621582e-02 -1.487499382346868515e-02 4.895487800240516663e-03 8.519493974745273590e-03
3.019000000000000000e+03 6.403373718261718750e+01 -3.789876937866210938e+01 3.093782253563404083e-02 -4.645925073418766260e-04 9.141969494521617889e-03 2.998883835971355438e-02
3.020000000000000000e+03 5.562728881835937500e+01 3.546190261840820312e+01 -6.025278475135564804e-03 1.701202511787414551e+00 5.085532069206237793e-01 2.172043919563293457e-01
3.021000000000000000e+03 5.107953643798828125e+01 3.487685012817382812e+01 -6.001158058643341064e-02 2.417229890823364258e+00 7.071655392646789551e-01 3.262161910533905029e-01
3.022000000000000000e+03 5.356252288818359375e+01 3.313241958618164062e+01 1.292231082916259766e-01 2.015952825546264648e+00 6.435528397560119629e-01 3.128921687602996826e-01
3.023000000000000000e+03 4.819706344604492188e+01 3.588701629638671875e+01 -2.431885004043579102e-01 2.739725589752197266e+00 7.489610910415649414e-01 2.257160097360610962e-01
3.024000000000000000e+03 3.762785339355468750e+01 -8.690824508666992188e+00 2.171251296997070312e+00 7.160881996154785156e+00 2.799640178680419922e+00 -4.365397930145263672e+00
3.025000000000000000e+03 3.743575286865234375e+01 -8.700789451599121094e+00 1.930944323539733887e+00 8.355212211608886719e+00 3.085847139358520508e+00 -4.400994777679443359e+00
3.026000000000000000e+03 3.751046752929687500e+01 -9.041178703308105469e+00 1.484033346176147461e+00 7.690210819244384766e+00 2.752273082733154297e+00 -3.884336709976196289e+00
3.027000000000000000e+03 3.700331497192382812e+01 -9.111952781677246094e+00 7.953861355781555176e-01 9.868809700012207031e+00 3.199258565902709961e+00 -2.966579437255859375e+00
3.028000000000000000e+03 6.860729980468750000e+01 -1.633008575439453125e+01 -6.822056457167491317e-05 1.032452564686536789e-04 1.050740775099257007e-05 9.020959259942173958e-05
3.029000000000000000e+03 2.613222503662109375e+01 -1.861652851104736328e+00 -2.301904916763305664e+00 -9.682951122522354126e-02 -7.196203470230102539e-01 8.260367065668106079e-02
3.030000000000000000e+03 3.722812652587890625e+01 -4.531499385833740234e+00 -3.165025413036346436e-01 9.925541877746582031e+00 2.882711648941040039e+00 4.452190399169921875e+00
3.031000000000000000e+03 3.820909500122070312e+01 -5.446330070495605469e+00 3.715218782424926758e+00 4.340213298797607422e+00 2.416629552841186523e+00 5.076638698577880859e+00
3.032000000000000000e+03 3.877770996093750000e+01 -5.171880245208740234e+00 2.759521961212158203e+00 2.980630874633789062e+00 1.722045779228210449e+00 3.894432544708251953e+00
3.033000000000000000e+03 2.600458383560180664e+00 3.396519184112548828e+00 -5.011032408219762146e-05 -5.956666791462339461e-05 -3.290309905423782766e-05 4.690826244768686593e-05
3.034000000000000000e+03 7.086692047119140625e+01 -1.131152248382568359e+01 1.588802970945835114e-02 -9.232987649738788605e-03 1.996512757614254951e-03 -7.977058179676532745e-03
3.035000000000000000e+03 7.872785949707031250e+01 -9.978838920593261719e+00 1.233575399965047836e-03 1.369701977819204330e-02 4.479178693145513535e-03 1.014298293739557266e-02
3.036000000000000000e+03 3.721376419067382812e+01 -9.381610870361328125e+00 7.297608256340026855e-01 8.781011581420898438e+00 2.853231668472290039e+00 -3.115520477294921875e+00
3.037000000000000000e+03 3.103912353515625000e+00 -3.468745422363281250e+01 -2.799580059945583344e-02 3.857395350933074951e-01 1.073231175541877747e-01 -4.499333351850509644e-02
3.038000000000000000e+03 5.788019561767578125e+01 -3.613698577880859375e+01 1.911526732146739960e-02 8.036796748638153076e-02 2.984496951103210449e-02 -2.072132378816604614e-02
3.039000000000000000e+03 7.724162292480468750e+01 -8.827454566955566406e+00 -9.946121135726571083e-04 6.742559839040040970e-03 1.724384259432554245e-03 1.330431178212165833e-02
3.040000000000000000e+03 3.814247512817382812e+01 -9.150336265563964844e+00 1.835666775703430176e+00 4.564907550811767578e+00 1.920172333717346191e+00 -3.463528156280517578e+00
3.041000000000000000e+03 2.160955429077148438e+01 3.647096252441406250e+01 1.432297285646200180e-04 7.660494302399456501e-04 2.727837418206036091e-04 -4.455496964510530233e-04
3.042000000000000000e+03 3.822478485107421875e+01 -9.679277420043945312e+00 1.235509872436523438e+00 4.938482761383056641e+00 1.852197885513305664e+00 -3.245351314544677734e+00
3.043000000000000000e+03 3.789690017700195312e+01 -5.207019805908203125e+00 2.775534868240356445e+00 6.476027965545654297e+00 2.775468826293945312e+00 5.697741985321044922e+00
3.044000000000000000e+03 3.929178619384765625e+01 -9.169004440307617188e+00 1.597834229469299316e+00 1.915526747703552246e+00 1.054008245468139648e+00 -1.974343538284301758e+00
3.045000000000000000e+03 2.272080993652343750e+01 -1.639393806457519531e+01 1.431077718734741211e-01 -1.124579235911369324e-01 9.194951504468917847e-03 3.085194230079650879e-01
3.046000000000000000e+03 4.947134017944335938e+00 -3.389721870422363281e+00 -1.235001683235168457e-01 -1.354928035289049149e-02 -4.111483320593833923e-02 -1.457966268062591553e-01
3.047000000000000000e+03 2.493415355682373047e+00 3.697040939331054688e+01 3.867472696583718061e-04 3.223737294320017099e-04 2.127362968167290092e-04 -8.434101619059219956e-05
3.048000000000000000e+03 3.952225875854492188e+01 -5.192254066467285156e+00 2.066166877746582031e+00 1.651144504547119141e+00 1.115193367004394531e+00 2.405834913253784180e+00
3.049000000000000000e+03 3.887715148925781250e+01 -4.576350688934326172e+00 1.448727250099182129e+00 3.885478734970092773e+00 1.600261807441711426e+00 3.782035112380981445e+00
3.050000000000000000e+03 3.568359375000000000e+00 3.521141815185546875e+01 4.667039320338517427e-04 1.649951736908406019e-04 1.895097375381737947e-04 -1.367908262182027102e-04
3.051000000000000000e+03 7.787409210205078125e+01 -3.568706893920898438e+01 -4.016052698716521263e-04 -8.411361835896968842e-03 -2.643890213221311569e-03 3.928091842681169510e-03
3.052000000000000000e+03 4.087576293945312500e+01 3.420675277709960938e+01 1.991831697523593903e-02 2.939431190490722656e+00 8.878048658370971680e-01 -6.148194670677185059e-01
3.053000000000000000e+03 4.134835815429687500e+01 3.668590545654296875e+01 -3.509813249111175537e-01 2.659633636474609375e+00 6.925957202911376953e-01 -3.942392468452453613e-01
3.054000000000000000e+03 8.097139358520507812e+00 -3.122922134399414062e+01 -4.644889235496520996e-01 -2.864503562450408936e-01 -2.252817898988723755e-01 2.203345596790313721e-01
3.055000000000000000e+03 6.368330478668212891e+00 -3.100417900085449219e+01 -3.134410977363586426e-01 -8.390253037214279175e-02 -1.192030906677246094e-01 1.269366741180419922e-01
3.056000000000000000e+03 3.698449707031250000e+01 -2.221659421920776367e+00 -3.468704938888549805e+00 7.661529064178466797e+00 1.257847189903259277e+00 2.562332153320312500e+00
3.057000000000000000e+03 3.829125595092773438e+01 -4.588431835174560547e+00 1.296915411949157715e+00 5.592027187347412109e+00 2.066682815551757812e+00 4.670783042907714844e+00
3.058000000000000000e+03 3.408076477050781250e+01 -4.084808826446533203e+00 6.891087442636489868e-02 4.360848903656005859e+00 1.328927874565124512e+00 -5.517666339874267578e-01
3.059000000000000000e+03 4.642902374267578125e+01 4.156155109405517578e+00 -1.555172920227050781e+00 -5.105412006378173828e-01 -6.197142004966735840e-01 -9.779748320579528809e-02
3.060000000000000000e+03 3.869982147216796875e+01 -9.474305152893066406e+00 1.572388410568237305e+00 3.406392097473144531e+00 1.493634104728698730e+00 -2.850452423095703125e+00
3.061000000000000000e+03 3.901216506958007812e+01 -9.837483406066894531e+00 1.158953547477722168e+00 3.138364553451538086e+00 1.289195418357849121e+00 -2.544333457946777344e+00
3.062000000000000000e+03 6.194544219970703125e+01 -3.638538742065429688e+01 9.980830363929271698e-03 4.895305028185248375e-04 3.141108201816678047e-03 3.134889900684356689e-02
3.063000000000000000e+03 5.561667251586914062e+01 -3.566468429565429688e+01 9.105844656005501747e-04 2.242263406515121460e-01 6.754107773303985596e-02 -9.275279194116592407e-02
3.064000000000000000e+03 4.428168773651123047e+00 -4.658610820770263672e+00 -9.063107520341873169e-02 -4.719061776995658875e-02 -4.134650900959968567e-02 -1.840697377920150757e-01
3.065000000000000000e+03 4.374301910400390625e+01 3.604436874389648438e+01 -3.805188834667205811e-01 3.017972230911254883e+00 7.912360429763793945e-01 -3.606423363089561462e-02
3.066000000000000000e+03 7.504678344726562500e+01 -1.005919075012207031e+01 5.035299342125654221e-03 -5.792447365820407867e-03 -2.271443809149786830e-04 1.103440392762422562e-02
3.067000000000000000e+03 1.121469020843505859e+01 -3.446898651123046875e+01 -2.151105105876922607e-01 -2.485518455505371094e-01 -1.390987038612365723e-01 1.599236726760864258e-01
3.068000000000000000e+03 3.376773834228515625e+01 -3.475733518600463867e+00 -1.317096471786499023e+00 3.159476757049560547e+00 5.527141094207763672e-01 -6.318511962890625000e-01
3.069000000000000000e+03 1.930339431762695312e+01 -1.556563186645507812e+01 4.789700806140899658e-01 -1.728456616401672363e-01 9.183732420206069946e-02 1.355761438608169556e-01
3.070000000000000000e+03 7.021390533447265625e+01 -9.786039352416992188e+00 3.956518601626157761e-03 -1.665671356022357941e-02 -3.810058580711483955e-03 -6.512109655886888504e-03
3.071000000000000000e+03 1.558331394195556641e+01 2.877717018127441406e+00 6.372760981321334839e-05 3.709233715198934078e-05 3.024598481715656817e-05 -1.426167364115826786e-05
3.072000000000000000e+03 4.659887313842773438e+01 -3.145930862426757812e+01 6.382672581821680069e-03 1.167495250701904297e+00 3.521633744239807129e-01 -4.954734444618225098e-01
3.073000000000000000e+03 4.399365615844726562e+01 -2.817914772033691406e+01 2.202689051628112793e-01 1.695144414901733398e+00 5.746240019798278809e-01 -6.432667970657348633e-01
3.074000000000000000e+03 4.075288391113281250e+01 -2.215651702880859375e+01 3.461084663867950439e-01 3.351592540740966797e+00 1.109310388565063477e+00 -1.884653866291046143e-01
3.075000000000000000e+03 1.690523910522460938e+01 2.527884721755981445e+00 -6.967977242311462760e-06 -1.060279828379862010e-04 -3.389878838788717985e-05 -6.626219692407175899e-05
3.076000000000000000e+03 3.309437942504882812e+01 -3.915199518203735352e+00 -2.038539797067642212e-01 1.818822383880615234e+00 4.844905138015747070e-01 -1.122736811637878418e+00
3.077000000000000000e+03 3.527740859985351562e+01 -1.056021404266357422e+01 3.754659295082092285e-01 7.588748455047607422e+00 2.389264345169067383e+00 3.427638411521911621e-01
3.078000000000000000e+03 5.916207313537597656e+00 -3.208268737792968750e+01 -2.362144738435745239e-01 -2.680157311260700226e-02 -7.890481501817703247e-02 1.015737578272819519e-01
3.079000000000000000e+03 3.890767669677734375e+01 -1.582844352722167969e+01 -2.986051738262176514e-01 4.557319164276123047e+00 1.277614116668701172e+00 -1.148057341575622559e+00
3.080000000000000000e+03 3.794300842285156250e+01 -1.629337120056152344e+01 -7.300385236740112305e-01 4.669671535491943359e+00 1.181889891624450684e+00 -8.942134976387023926e-01
3.081000000000000000e+03 7.083950042724609375e+01 -9.898194313049316406e+00 5.197116173803806305e-03 -1.464780140668153763e-02 -2.835205523297190666e-03 -6.137893069535493851e-03
3.082000000000000000e+03 3.433585357666015625e+01 -1.507788848876953125e+01 -1.074554085731506348e+00 3.406638860702514648e+00 6.996254324913024902e-01 -6.767770648002624512e-01
3.083000000000000000e+03 7.665304565429687500e+01 -3.408545684814453125e+01 -1.359705347567796707e-03 -5.011804867535829544e-03 -1.911453087814152241e-03 5.622916854918003082e-03
3.084000000000000000e+03 7.143595886230468750e+01 -8.717213630676269531e+00 -9.665241464972496033e-03 -1.737112551927566528e-02 -8.110910654067993164e-03 -2.554634702391922474e-04
3.085000000000000000e+03 3.143702030181884766e+00 3.298528671264648438e+01 4.608009185176342726e-04 7.284689490916207433e-05 1.600943505764007568e-04 -3.279025258962064981e-05
3.086000000000000000e+03 2.574320793151855469e+01 -5.848080635070800781e+00 2.711164057254791260e-01 -9.111742973327636719e-01 -1.920173764228820801e-01 -1.022764205932617188e+00
3.087000000000000000e+03 2.491813087463378906e+01 -6.701457023620605469e+00 5.602588653564453125e-01 -8.623877763748168945e-01 -9.063867479562759399e-02 -6.786171197891235352e-01
3.088000000000000000e+03 4.357472229003906250e+01 3.331639480590820312e+01 2.153556793928146362e-02 3.399181365966796875e+00 1.026215076446533203e+00 -7.713466137647628784e-02
3.089000000000000000e+03 3.506239700317382812e+01 -1.090829944610595703e+01 3.468737006187438965e-01 6.779343605041503906e+00 2.137865066528320312e+00 4.386249482631683350e-01
3.090000000000000000e+03 5.319654464721679688e+00 8.088132858276367188e+00 4.745328624267131090e-05 3.434364043641835451e-05 2.453907836752478033e-05 2.959678204206284136e-05
3.091000000000000000e+03 4.447412967681884766e+00 7.430704116821289062e+00 -8.375044853892177343e-05 -2.863355075533036143e-05 -3.371519778738729656e-05 -1.051889648806536570e-05
3.092000000000000000e+03 3.189736747741699219e+01 -1.299778079986572266e+01 7.188583612442016602e-01 1.780546665191650391e+00 7.498214840888977051e-01 9.120807051658630371e-01
3.093000000000000000e+03 3.062537765502929688e+01 -1.170202827453613281e+01 1.786950469017028809e+00 7.431768178939819336e-01 7.590382099151611328e-01 1.317211031913757324e+00
3.094000000000000000e+03 3.711884689331054688e+01 -1.145854377746582031e+01 -3.287920057773590088e-01 6.342098236083984375e+00 1.803991794586181641e+00 -2.022462368011474609e+00
3.095000000000000000e+03 3.654119873046875000e+01 -1.150751876831054688e+01 -3.605725169181823730e-01 6.612157821655273438e+00 1.875475525856018066e+00 -1.552220702171325684e+00
3.096000000000000000e+03 3.519114303588867188e+01 -1.430246925354003906e+01 -9.479290246963500977e-01 4.314564228057861328e+00 1.009990572929382324e+00 -8.850485086441040039e-01
3.097000000000000000e+03 4.449445724487304688e+01 -3.250426483154296875e+01 -1.197526231408119202e-01 1.617088317871093750e+00 4.492007195949554443e-01 -5.286450386047363281e-01
3.098000000000000000e+03 4.543250656127929688e+01 -3.072302627563476562e+01 3.869153186678886414e-02 1.412329316139221191e+00 4.353062510490417480e-01 -5.559635162353515625e-01
3.099000000000000000e+03 2.222474288940429688e+01 -1.342818069458007812e+01 5.530990362167358398e-01 -4.083977341651916504e-01 4.341039806604385376e-02 4.291834235191345215e-01
3.100000000000000000e+03 7.410837650299072266e+00 -6.756610870361328125e+00 -1.337299942970275879e-01 1.026576608419418335e-01 -9.321700781583786011e-03 -2.123916745185852051e-01
3.101000000000000000e+03 4.138437271118164062e+01 -2.727982139587402344e+01 2.922740876674652100e-01 2.467773914337158203e+00 8.280144333839416504e-01 -5.799485445022583008e-01
3.102000000000000000e+03 4.199254226684570312e+01 -2.652880287170410156e+01 3.373394012451171875e-01 2.324251651763916016e+00 7.984772920608520508e-01 -6.241741776466369629e-01
3.103000000000000000e+03 1.074791431427001953e+01 -1.079346752166748047e+01 1.466077566146850586e-01 3.148453831672668457e-01 1.384359449148178101e-01 5.617922215606085956e-05
3.104000000000000000e+03 1.019073390960693359e+01 -1.121516609191894531e+01 1.717943698167800903e-01 3.475760221481323242e-01 1.558111160993576050e-01 3.397952066734433174e-03
3.105000000000000000e+03 2.829126167297363281e+01 -8.283905029296875000e+00 2.421345949172973633e+00 -1.112071633338928223e+00 3.927823007106781006e-01 5.853712931275367737e-02
3.106000000000000000e+03 2.980478858947753906e+01 -9.098474502563476562e+00 2.940391778945922852e+00 -3.503511548042297363e-01 7.770122289657592773e-01 8.062915802001953125e-01
3.107000000000000000e+03 4.769289016723632812e+00 8.886593818664550781e+00 -4.563393304124474525e-05 -2.629328992043156177e-05 -2.157816743419971317e-05 -6.073121039662510157e-05
3.108000000000000000e+03 4.148199081420898438e+00 9.659573554992675781e+00 1.201191771542653441e-04 -1.834962495195213705e-05 3.053086402360349894e-05 1.035746245179325342e-04
3.109000000000000000e+03 4.400028228759765625e+01 3.462019348144531250e+01 -1.431138664484024048e-01 3.288596630096435547e+00 9.436448812484741211e-01 -1.211575791239738464e-02
3.110000000000000000e+03 1.566844749450683594e+01 -9.051063537597656250e+00 1.707415133714675903e-01 -3.416645526885986328e-02 4.097251966595649719e-02 6.737683713436126709e-02
3.111000000000000000e+03 2.933858871459960938e+01 -1.004013824462890625e+01 2.424969673156738281e+00 -3.467125296592712402e-01 6.234771013259887695e-01 9.611427783966064453e-01
3.112000000000000000e+03 3.077265930175781250e+01 -1.043180561065673828e+01 2.470161437988281250e+00 6.736074090003967285e-01 9.431306719779968262e-01 1.327474117279052734e+00
3.113000000000000000e+03 3.230190277099609375e+01 -1.245194149017333984e+01 8.358672857284545898e-01 2.380427598953247070e+00 9.648884534835815430e-01 9.861679077148437500e-01
3.114000000000000000e+03 2.759483337402343750e+01 -9.335084915161132812e+00 2.108229398727416992e+00 -9.936273694038391113e-01 3.343805968761444092e-01 3.614624738693237305e-01
3.115000000000000000e+03 2.995008087158203125e+01 -1.052681255340576172e+01 2.313630580902099609e+00 1.465997397899627686e-01 7.380691170692443848e-01 1.205924987792968750e+00
3.116000000000000000e+03 4.996769332885742188e+01 7.737987041473388672e+00 4.949260056018829346e-01 1.964691579341888428e-01 2.074185460805892944e-01 -4.783813655376434326e-01
3.117000000000000000e+03 5.998396301269531250e+01 2.569529056549072266e+00 -1.183841824531555176e+00 1.137630194425582886e-01 -3.210236430168151855e-01 -5.618399977684020996e-01
3.118000000000000000e+03 3.705273818969726562e+01 -1.493502235412597656e+01 -1.005929589271545410e+00 4.863070011138916016e+00 1.157142043113708496e+00 -1.260630726814270020e+00
3.119000000000000000e+03 7.335469055175781250e+01 -2.915818786621093750e+01 -4.631364252418279648e-03 5.741300992667675018e-05 -1.372185302898287773e-03 2.696568612009286880e-03
3.120000000000000000e+03 2.660349655151367188e+01 -7.518865108489990234e+00 1.393550395965576172e+00 -1.200624942779541016e+00 5.787766724824905396e-02 -5.258229970932006836e-01
3.121000000000000000e+03 7.258555603027343750e+01 2.051912498474121094e+01 1.285867691040039062e-01 -8.358349204063415527e-01 -2.121744453907012939e-01 -3.368171453475952148e-01
3.122000000000000000e+03 4.988566589355468750e+01 8.959897994995117188e+00 9.518573284149169922e-01 4.637680649757385254e-01 4.246876239776611328e-01 -1.287724822759628296e-01
3.123000000000000000e+03 2.360527801513671875e+01 -1.101944828033447266e+01 9.605919122695922852e-01 -7.306163311004638672e-01 6.899267435073852539e-02 3.166009485721588135e-01
3.124000000000000000e+03 1.087912940979003906e+01 -1.014765167236328125e+01 8.208651840686798096e-02 2.849638760089874268e-01 1.101151183247566223e-01 -1.806044019758701324e-02
3.125000000000000000e+03 1.031169986724853516e+01 -1.031892204284667969e+01 7.389599084854125977e-02 3.050915300846099854e-01 1.136962547898292542e-01 -4.171517118811607361e-02
3.126000000000000000e+03 7.192666625976562500e+01 -4.987777709960937500e+00 -1.040619313716888428e-01 -1.325946301221847534e-02 -3.519641980528831482e-02 -3.311416879296302795e-02
3.127000000000000000e+03 6.969322967529296875e+01 1.303819417953491211e+00 -3.460509479045867920e-01 8.142174221575260162e-03 -1.013726368546485901e-01 -3.115737140178680420e-01
3.128000000000000000e+03 2.321090888977050781e+01 -8.503723144531250000e+00 7.021844387054443359e-01 -7.313381433486938477e-01 -8.746099658310413361e-03 -1.662021130323410034e-01
3.129000000000000000e+03 1.239535427093505859e+01 -7.985696315765380859e+00 -3.860525786876678467e-02 1.425212770700454712e-01 3.117480501532554626e-02 -2.883538976311683655e-02
3.130000000000000000e+03 5.103282546997070312e+01 1.154468059539794922e+01 1.263883590698242188e+00 8.902376294136047363e-01 6.462363600730895996e-01 7.960945367813110352e-02
3.131000000000000000e+03 5.257691383361816406e+00 1.204299545288085938e+01 -2.000811073230579495e-04 -4.681413429352687672e-06 -6.142875645309686661e-05 -2.959802259283605963e-05
3.132000000000000000e+03 5.867883682250976562e+01 7.082078456878662109e+00 -4.260995984077453613e-01 8.706551045179367065e-02 -1.017102226614952087e-01 -9.060106873512268066e-01
3.133000000000000000e+03 2.333504676818847656e+01 -1.012693500518798828e+01 8.561505675315856934e-01 -7.289446592330932617e-01 3.816176578402519226e-02 1.253724843263626099e-01
3.134000000000000000e+03 9.368369102478027344e+00 1.812458038330078125e+01 1.315484987571835518e-04 1.136562568717636168e-04 7.356142305070534348e-05 1.043701631715521216e-04
3.135000000000000000e+03 9.947627067565917969e+00 -9.762377738952636719e+00 1.997085660696029663e-02 2.712889015674591064e-01 8.737792819738388062e-02 -8.280662447214126587e-02
3.136000000000000000e+03 1.061675453186035156e+01 5.389305114746093750e+00 4.883522706222720444e-05 7.036653551040217280e-05 3.576052768039517105e-05 6.255748303374275565e-06
3.137000000000000000e+03 1.943679809570312500e+01 -9.111053466796875000e+00 3.413473069667816162e-01 -3.373678028583526611e-01 1.193858566693961620e-03 3.007410466670989990e-02
3.138000000000000000e+03 2.095503997802734375e+01 -8.999866485595703125e+00 4.424363970756530762e-01 -4.704862236976623535e-01 -8.414947427809238434e-03 -2.258028276264667511e-02
3.139000000000000000e+03 1.163967800140380859e+01 1.077809906005859375e+01 -9.906641207635402679e-05 -9.569970279699191451e-05 -5.842983227921649814e-05 4.599436579155735672e-05
3.140000000000000000e+03 1.063693428039550781e+01 -8.215890884399414062e+00 -5.676392838358879089e-02 2.015767991542816162e-01 4.344386234879493713e-02 -8.537482470273971558e-02
3.141000000000000000e+03 5.643242645263671875e+01 1.661956024169921875e+01 9.151317477226257324e-01 6.557897329330444336e-01 4.712764620780944824e-01 -1.809215247631072998e-01
3.142000000000000000e+03 6.438927459716796875e+01 8.467432022094726562e+00 -1.779052615165710449e-01 -5.146890506148338318e-02 -6.881225109100341797e-02 -8.112014532089233398e-01
3.143000000000000000e+03 6.513853454589843750e+01 5.408290863037109375e+00 -4.576836228370666504e-01 1.645221561193466187e-02 -1.323694288730621338e-01 -6.994142532348632812e-01
3.144000000000000000e+03 6.430285644531250000e+01 1.329858398437500000e+01 2.417841106653213501e-01 -1.297226697206497192e-01 3.361843526363372803e-02 -7.026221156120300293e-01
3.145000000000000000e+03 7.028992462158203125e+01 1.400018501281738281e+01 9.977822750806808472e-02 -4.702776968479156494e-01 -1.111498400568962097e-01 -5.743971467018127441e-01
3.146000000000000000e+03 6.751415252685546875e+01 1.422268390655517578e+01 1.818193644285202026e-01 -3.138348162174224854e-01 -3.960463777184486389e-02 -6.431775093078613281e-01
3.147000000000000000e+03 6.622975921630859375e+01 1.404444599151611328e+01 2.125421613454818726e-01 -2.320164591073989868e-01 -5.842290353029966354e-03 -6.661375761032104492e-01
3.148000000000000000e+03 6.724787902832031250e+01 1.059857273101806641e+01 -1.229526568204164505e-02 -2.151945531368255615e-01 -6.824694573879241943e-02 -7.147295475006103516e-01
3.149000000000000000e+03 6.680736541748046875e+01 1.199916458129882812e+01 8.746163547039031982e-02 -2.359374314546585083e-01 -4.454274103045463562e-02 -7.092548012733459473e-01
3.150000000000000000e+03 6.881153106689453125e+01 1.486071777343750000e+01 1.550348401069641113e-01 -3.937309384346008301e-01 -7.160883396863937378e-02 -5.920655131340026855e-01
3.151000000000000000e+03 6.923539733886718750e+01 1.368338298797607422e+01 1.090479567646980286e-01 -3.975958824157714844e-01 -8.656437695026397705e-02 -6.144220829010009766e-01
3.152000000000000000e+03 4.024943161010742188e+01 -7.535470962524414062e+00 -6.313834786415100098e-01 4.452026262879371643e-02 -1.760589629411697388e-01 1.034009680151939392e-01
3.153000000000000000e+03 3.995606994628906250e+01 -8.572442054748535156e+00 9.360460638999938965e-01 5.323303937911987305e-01 4.405129551887512207e-01 -7.014280557632446289e-01
3.154000000000000000e+03 4.037826156616210938e+01 -8.221716880798339844e+00 2.235716283321380615e-01 1.897328048944473267e-01 1.239913329482078552e-01 -4.840891808271408081e-02
3.155000000000000000e+03 3.998157501220703125e+01 -8.369038581848144531e+00 7.223498225212097168e-01 4.405241608619689941e-01 3.488622009754180908e-01 -5.246701240539550781e-01
3.156000000000000000e+03 4.032459640502929688e+01 -8.428780555725097656e+00 4.379520416259765625e-01 4.362229406833648682e-01 2.622525095939636230e-01 -2.964111864566802979e-01
3.157000000000000000e+03 4.093760299682617188e+01 -8.187884330749511719e+00 4.365142434835433960e-02 1.635446958243846893e-02 1.800176873803138733e-02 1.573618352413177490e-01
3.158000000000000000e+03 4.001013565063476562e+01 -8.782696723937988281e+00 9.139515757560729980e-01 7.194202542304992676e-01 4.900115430355072021e-01 -8.116328120231628418e-01
3.159000000000000000e+03 4.130104064941406250e+01 -8.664856910705566406e+00 5.460872198455035686e-04 -6.781937181949615479e-02 -2.018198557198047638e-02 1.348099410533905029e-01
3.160000000000000000e+03 4.172537994384765625e+01 -8.440427780151367188e+00 -1.295814290642738342e-02 -3.350083231925964355e-01 -1.043899431824684143e-01 8.351960778236389160e-02
3.161000000000000000e+03 4.006448364257812500e+01 -7.943423748016357422e+00 7.211989909410476685e-02 1.306071579456329346e-01 6.081811711192131042e-02 -9.326819330453872681e-02
3.162000000000000000e+03 4.059365081787109375e+01 -7.720503807067871094e+00 -4.080780446529388428e-01 -4.222473874688148499e-02 -1.350908428430557251e-01 6.439560651779174805e-02
3.163000000000000000e+03 4.063031005859375000e+01 -8.399618148803710938e+00 1.868189126253128052e-01 1.954492032527923584e-01 1.146804317831993103e-01 -3.051736950874328613e-02
3.164000000000000000e+03 4.074182510375976562e+01 -8.738343238830566406e+00 3.620624840259552002e-01 4.362875521183013916e-01 2.395050078630447388e-01 -2.280379384756088257e-01
3.165000000000000000e+03 4.050467681884765625e+01 -7.999460220336914062e+00 7.952558249235153198e-02 5.235446617007255554e-02 3.956401348114013672e-02 5.839128792285919189e-02
3.166000000000000000e+03 4.030163955688476562e+01 -8.668735504150390625e+00 6.500635147094726562e-01 6.332948207855224609e-01 3.850075006484985352e-01 -5.391803383827209473e-01
3.167000000000000000e+03 4.123432159423828125e+01 -7.772230148315429688e+00 -1.321782618761062622e-01 3.451387397944927216e-03 -3.861806169152259827e-02 1.319667994976043701e-01
3.168000000000000000e+03 4.001658630371093750e+01 -8.156483650207519531e+00 4.842428267002105713e-01 2.711665630340576172e-01 2.266228199005126953e-01 -2.692734301090240479e-01
3.169000000000000000e+03 4.009996414184570312e+01 -7.737069129943847656e+00 -1.527176499366760254e-01 1.293917000293731689e-01 -6.997784599661827087e-03 8.020953088998794556e-02
3.170000000000000000e+03 7.190987396240234375e+01 -1.413351440429687500e+01 7.053365698084235191e-05 3.853946964227361605e-06 2.231628059234935790e-05 2.635297278175130486e-05
3.171000000000000000e+03 7.117191314697265625e+01 -1.423426437377929688e+01 1.289853844355093315e-05 3.615640889620408416e-05 1.471648465667385608e-05 -1.511227196715481114e-06
3.172000000000000000e+03 7.054098510742187500e+01 -1.506571102142333984e+01 -3.597209069994278252e-05 6.037121784174814820e-05 7.319738415390020236e-06 1.415628867107443511e-05
3.173000000000000000e+03 7.272534942626953125e+01 -1.476733016967773438e+01 9.611621499061584473e-05 2.859020423784386367e-05 3.741192631423473358e-05 3.823697988991625607e-05
3.174000000000000000e+03 7.199845123291015625e+01 -1.486828804016113281e+01 -1.642656934564001858e-05 -4.237879693391732872e-06 -6.199334620760055259e-06 -2.535544808779377490e-05
3.175000000000000000e+03 7.127030181884765625e+01 -1.496769714355468750e+01 1.254119415534660220e-04 -3.937255314667709172e-05 2.581181433924939483e-05 6.003936869092285633e-05
3.176000000000000000e+03 7.264659118652343750e+01 -1.403121566772460938e+01 3.927312718587927520e-05 -4.250111305736936629e-05 -9.683952839623088948e-07 2.110973582603037357e-06
3.177000000000000000e+03 7.043277740478515625e+01 -1.433362007141113281e+01 3.546971129253506660e-05 -6.302753899944946170e-05 -8.267348675872199237e-06 3.035117515537422150e-05
3.178000000000000000e+03 7.413023376464843750e+01 -1.390827560424804688e+01 3.948986704926937819e-05 -7.459439075319096446e-05 -1.053135656547965482e-05 1.576092654431704432e-05
3.179000000000000000e+03 7.418925476074218750e+01 -1.464601135253906250e+01 1.077164270100183785e-04 4.216526212985627353e-05 4.496450492297299206e-05 -2.915814184234477580e-05
3.180000000000000000e+03 7.345582580566406250e+01 -1.469340133666992188e+01 8.121289283735677600e-06 -5.434122067526914179e-05 -1.386597887176321819e-05 1.048800731950905174e-05
3.181000000000000000e+03 7.487351226806640625e+01 -1.386064338684082031e+01 7.531220762757584453e-05 6.122626655269414186e-05 4.096154225408099592e-05 -2.144794052583165467e-05
3.182000000000000000e+03 7.492264556884765625e+01 -1.459901237487792969e+01 -8.329912816407158971e-06 -5.058626993559300900e-05 -1.767485446180216968e-05 3.700181696331128478e-05
3.183000000000000000e+03 7.565595245361328125e+01 -1.455239677429199219e+01 1.110986704588867724e-04 2.941308048320934176e-05 4.215352601022459567e-05 -7.182874833233654499e-05
3.184000000000000000e+03 7.561669921875000000e+01 -1.381339359283447266e+01 1.888080441858619452e-05 -4.026841634185984731e-05 -6.416283213184215128e-06 2.023516390181612223e-05
3.185000000000000000e+03 7.338691711425781250e+01 -1.395629978179931641e+01 7.851603004382923245e-05 6.501054303953424096e-05 4.305797119741328061e-05 6.512037771244649775e-07
3.186000000000000000e+03 7.636968994140625000e+01 -1.377867794036865234e+01 5.326383325154893100e-05 8.163164238794706762e-06 1.842809979279991239e-05 -2.802845847327262163e-05
3.187000000000000000e+03 7.711952209472656250e+01 -1.377026462554931641e+01 -2.396867330389795825e-06 1.951333797478582710e-05 5.134941147844074294e-06 1.656023414398077875e-05
3.188000000000000000e+03 7.880826568603515625e+01 -1.359098052978515625e+01 -1.927319317474029958e-05 -6.484067853307351470e-05 -2.523416151234414428e-05 1.412761412211693823e-05
3.189000000000000000e+03 7.957907104492187500e+01 -1.383945655822753906e+01 2.207934267062228173e-05 3.829479828709736466e-05 1.811224137782119215e-05 -2.368567584198899567e-05
3.190000000000000000e+03 7.818760681152343750e+01 -1.360080337524414062e+01 7.017672032816335559e-06 3.100803223787806928e-05 1.140771109930938110e-05 2.112213041982613504e-05
3.191000000000000000e+03 7.770421600341796875e+01 -1.456077384948730469e+01 -5.908591629122383893e-05 -1.506379066995577887e-05 -2.224491254310123622e-05 2.735791713348589838e-05
3.192000000000000000e+03 7.832720947265625000e+01 -1.463026809692382812e+01 1.067712291842326522e-04 4.346697460277937353e-05 4.507146149990148842e-05 -5.195838093641214073e-05
3.193000000000000000e+03 7.636756134033203125e+01 -1.452004623413085938e+01 -4.226199962431564927e-05 -2.388439315836876631e-05 -1.984391747100744396e-05 4.748571154777891934e-05
3.194000000000000000e+03 7.868551635742187500e+01 -1.398741340637207031e+01 -5.253450945019721985e-05 -2.448483610351104289e-05 -2.310580384801141918e-05 -9.758702071849256754e-05
3.195000000000000000e+03 7.704452514648437500e+01 -1.451572895050048828e+01 1.141937464126385748e-04 1.171685107692610472e-05 3.777318124775774777e-05 -6.989287794567644596e-05
3.196000000000000000e+03 7.932569885253906250e+01 -1.446048069000244141e+01 2.150268701370805502e-04 -3.923830809071660042e-05 5.273657006910070777e-05 5.457633960759267211e-05
3.197000000000000000e+03 7.842517852783203125e+01 -1.427305221557617188e+01 4.085159889655187726e-05 1.108054129872471094e-05 1.557964242238085717e-05 5.161513036000542343e-05
3.198000000000000000e+03 7.781768798828125000e+01 -1.396652030944824219e+01 2.405371924396604300e-05 -1.756565325194969773e-05 1.946419615705963224e-06 -4.318148785387165844e-05
3.199000000000000000e+03 7.885647583007812500e+01 -1.460024929046630859e+01 -1.758108410285785794e-04 -4.565839390124892816e-06 -5.411300662672147155e-05 4.096952761756256223e-05
3.200000000000000000e+03 7.711834716796875000e+01 -1.299776554107666016e+01 1.157683972269296646e-02 3.676808846648782492e-04 3.583356272429227829e-03 3.081389004364609718e-03
3.201000000000000000e+03 7.789198303222656250e+01 -1.297994422912597656e+01 5.709751509130001068e-03 2.508385805413126945e-04 1.788177061825990677e-03 2.445802558213472366e-03
3.202000000000000000e+03 7.903719329833984375e+01 -1.217878055572509766e+01 2.802072092890739441e-03 2.450062194839119911e-03 1.575640286318957806e-03 3.145497059449553490e-03
3.203000000000000000e+03 7.634127044677734375e+01 -1.300821304321289062e+01 1.800427585840225220e-02 3.072635445278137922e-04 5.493461620062589645e-03 3.553462680429220200e-03
3.204000000000000000e+03 7.865165710449218750e+01 -1.295684051513671875e+01 2.261460758745670319e-03 8.275179425254464149e-04 9.266936103813350201e-04 1.251184497959911823e-03
3.205000000000000000e+03 7.934807586669921875e+01 -1.291915225982666016e+01 -5.067739984951913357e-04 -3.085240605287253857e-04 -2.445894351694732904e-04 1.162344124168157578e-03
3.206000000000000000e+03 7.966441345214843750e+01 -1.234435749053955078e+01 8.920058608055114746e-04 1.845057820901274681e-03 8.211191161535680294e-04 2.400226367171853781e-04
3.207000000000000000e+03 7.627622985839843750e+01 -1.226877021789550781e+01 1.394862122833728790e-02 5.706868832930922508e-04 4.355792421847581863e-03 8.303496055305004120e-03
3.208000000000000000e+03 7.770402526855468750e+01 -1.224003696441650391e+01 7.361654657870531082e-03 1.834796741604804993e-03 2.758935326710343361e-03 6.933661643415689468e-03
3.209000000000000000e+03 7.840223693847656250e+01 -1.221670055389404297e+01 3.513968782499432564e-03 2.251427853479981422e-03 1.729618990793824196e-03 5.034042987972497940e-03
3.210000000000000000e+03 7.699185180664062500e+01 -1.225809097290039062e+01 1.029249560087919235e-02 6.894209072925150394e-04 3.294575028121471405e-03 7.964612916111946106e-03
3.211000000000000000e+03 7.406774902343750000e+01 -1.312981986999511719e+01 3.205617144703865051e-02 -1.172693882836028934e-04 9.581670165061950684e-03 3.649589605629444122e-03
3.212000000000000000e+03 7.400872802734375000e+01 -1.239208412170410156e+01 2.252175100147724152e-02 -4.599945095833390951e-04 6.618527229875326157e-03 5.233229137957096100e-03
3.213000000000000000e+03 7.557528686523437500e+01 -1.303425216674804688e+01 2.395781129598617554e-02 3.061677853111177683e-04 7.279193494468927383e-03 3.947783261537551880e-03
3.214000000000000000e+03 7.331423187255859375e+01 -1.317915630340576172e+01 3.443502262234687805e-02 2.943157451227307320e-04 1.041880156844854355e-02 3.223759355023503304e-03
3.215000000000000000e+03 7.482145690917968750e+01 -1.308151912689208984e+01 2.822226099669933319e-02 2.442999393679201603e-04 8.539968170225620270e-03 3.879109863191843033e-03
3.216000000000000000e+03 7.553604125976562500e+01 -1.229524612426757812e+01 1.679687201976776123e-02 3.220809740014374256e-04 5.135686136782169342e-03 7.783338893204927444e-03
3.217000000000000000e+03 7.324532318115234375e+01 -1.244205474853515625e+01 2.418889664113521576e-02 -1.456081634387373924e-03 6.819844245910644531e-03 3.650945844128727913e-03
3.218000000000000000e+03 7.477232360839843750e+01 -1.234315013885498047e+01 2.086023055016994476e-02 -6.494377739727497101e-04 6.063237786293029785e-03 6.805295124650001526e-03
3.219000000000000000e+03 7.096827697753906250e+01 -1.272444248199462891e+01 2.134053595364093781e-02 -3.037139540538191795e-03 5.491019226610660553e-03 -4.520488437265157700e-03
3.220000000000000000e+03 7.106666564941406250e+01 -1.345787525177001953e+01 2.530167251825332642e-02 -6.454128888435661793e-04 7.396877743303775787e-03 4.243611474521458149e-04
3.221000000000000000e+03 7.031845092773437500e+01 -1.356116008758544922e+01 1.885730959475040436e-02 -2.271210687467828393e-04 5.589056294411420822e-03 -6.103903870098292828e-04
3.222000000000000000e+03 7.181496429443359375e+01 -1.335562419891357422e+01 3.020321205258369446e-02 -6.450641667470335960e-04 8.867444470524787903e-03 1.933689578436315060e-03
3.223000000000000000e+03 7.172639465332031250e+01 -1.262085151672363281e+01 2.389620989561080933e-02 -3.237201832234859467e-03 6.197702139616012573e-03 -1.873156055808067322e-03
3.224000000000000000e+03 7.256328582763671875e+01 -1.325442695617675781e+01 3.408757597208023071e-02 1.559856318635866046e-04 1.027306914329528809e-02 3.156191436573863029e-03
3.225000000000000000e+03 7.248452758789062500e+01 -1.251831245422363281e+01 2.391930855810642242e-02 -1.797560486011207104e-03 6.636524572968482971e-03 1.104603798012249172e-04
3.226000000000000000e+03 7.021024322509765625e+01 -1.282906818389892578e+01 1.745105721056461334e-02 -3.733524121344089508e-03 4.115260206162929535e-03 -7.540096528828144073e-03
3.227000000000000000e+03 6.788661956787109375e+01 -1.320209407806396484e+01 1.398764783516526222e-03 2.222789451479911804e-03 1.086466247215867043e-03 -1.805470790714025497e-03
3.228000000000000000e+03 6.878565216064453125e+01 -1.352828216552734375e+01 8.630050346255302429e-03 3.821950871497392654e-03 3.735600272193551064e-03 -2.210765611380338669e-03
3.229000000000000000e+03 6.828938293457031250e+01 -1.306586265563964844e+01 2.244540723040699959e-03 2.629109891131520271e-03 1.462095184251666069e-03 -9.215772151947021484e-03
3.230000000000000000e+03 6.830919647216796875e+01 -1.388005447387695312e+01 7.539592916145920753e-04 1.744042529026046395e-04 2.785090764518827200e-04 -4.387783410493284464e-04
3.231000000000000000e+03 6.952383422851562500e+01 -1.367080211639404297e+01 9.956778958439826965e-03 -2.504576696082949638e-03 2.235660562291741371e-03 -2.947439905256032944e-03
3.232000000000000000e+03 6.948915863037109375e+01 -1.292583274841308594e+01 1.515521015971899033e-02 -1.204557018354535103e-03 4.185196012258529663e-03 -6.549849174916744232e-03
3.233000000000000000e+03 6.884123229980468750e+01 -1.296961402893066406e+01 9.553679265081882477e-03 1.318199560046195984e-03 3.261563600972294807e-03 -7.160997949540615082e-03
3.234000000000000000e+03 6.915425872802734375e+01 -1.528317165374755859e+01 2.831389974744524807e-05 2.192697684222366661e-05 1.507226261310279369e-05 5.776533726020716131e-05
3.235000000000000000e+03 6.981649780273437500e+01 -1.516665935516357422e+01 6.441649020416662097e-05 -3.681322777993045747e-05 8.280978363472968340e-06 3.434629252296872437e-05
3.236000000000000000e+03 6.849820709228515625e+01 -1.521993160247802734e+01 1.466463145334273577e-04 6.077778743929229677e-05 6.222723459359258413e-05 -8.275455184048041701e-05
3.237000000000000000e+03 6.962475585937500000e+01 -1.444882297515869141e+01 -9.814125405682716519e-07 7.911033026175573468e-05 2.343867345189210027e-05 -2.158640199922956526e-05
3.238000000000000000e+03 6.880525207519531250e+01 -1.459250164031982422e+01 -1.472237054258584976e-04 -9.567258530296385288e-05 -7.286889012902975082e-05 9.218887862516567111e-05
3.239000000000000000e+03 1.628620338439941406e+01 -1.255944609642028809e+00 -6.432427763938903809e-01 -1.610485836863517761e-02 -1.978042870759963989e-01 3.289766609668731689e-02
3.240000000000000000e+03 1.779829025268554688e+01 -2.059187889099121094e+00 -5.961480140686035156e-01 -1.934246718883514404e-02 -1.846471428871154785e-01 -2.164593897759914398e-02
3.241000000000000000e+03 1.623538208007812500e+01 -1.994474172592163086e+00 -5.459887385368347168e-01 -1.837919838726520538e-02 -1.693103760480880737e-01 1.817938126623630524e-02
3.242000000000000000e+03 1.858121871948242188e+01 -2.091711521148681641e+00 -5.969880223274230957e-01 -5.171721428632736206e-02 -1.946115642786026001e-01 -4.807237908244132996e-02
3.243000000000000000e+03 1.856809425354003906e+01 -1.350533485412597656e+00 -7.245848774909973145e-01 -1.343777775764465332e-02 -2.214067876338958740e-01 -1.401406340301036835e-02
3.244000000000000000e+03 1.704577255249023438e+01 -1.287305474281311035e+00 -6.428113579750061035e-01 5.332173896022140980e-04 -1.926834434270858765e-01 2.020694129168987274e-02
3.245000000000000000e+03 1.701626777648925781e+01 -2.026717901229858398e+00 -5.725117921829223633e-01 -2.247925847768783569e-02 -1.784973144531250000e-01 4.116701893508434296e-03
3.246000000000000000e+03 1.780648040771484375e+01 -1.318892598152160645e+00 -6.649863123893737793e-01 -1.091079134494066238e-02 -2.027691304683685303e-01 1.067708060145378113e-02
3.247000000000000000e+03 2.016102409362792969e+01 -1.984116315841674805e+00 -6.568480730056762695e-01 -4.108009859919548035e-02 -2.093784511089324951e-01 -7.968156039714813232e-02
3.248000000000000000e+03 1.932956504821777344e+01 -1.326877713203430176e+00 -7.425594925880432129e-01 -3.408611193299293518e-02 -2.329936772584915161e-01 -5.565215274691581726e-02
3.249000000000000000e+03 2.095439147949218750e+01 -1.900163888931274414e+00 -6.776759028434753418e-01 -1.797625422477722168e-02 -2.086956351995468140e-01 -1.057160273194313049e-01
3.250000000000000000e+03 1.936882019042968750e+01 -2.066858530044555664e+00 -6.195042729377746582e-01 -4.024240002036094666e-02 -1.979240030050277710e-01 -5.403761938214302063e-02
3.251000000000000000e+03 2.174835014343261719e+01 -1.814883351325988770e+00 -6.836506128311157227e-01 -2.994792349636554718e-02 -2.140795588493347168e-01 -1.022546514868736267e-01
3.252000000000000000e+03 2.161623764038085938e+01 -1.084643244743347168e+00 -7.561793327331542969e-01 -8.826158940792083740e-03 -2.295016497373580933e-01 -1.024982556700706482e-01
3.253000000000000000e+03 2.009082221984863281e+01 -1.247412800788879395e+00 -7.197476625442504883e-01 -1.964413560926914215e-03 -2.165136188268661499e-01 -7.971139997243881226e-02
3.254000000000000000e+03 2.085324478149414062e+01 -1.166737556457519531e+00 -7.294184565544128418e-01 -2.491476386785507202e-02 -2.262999713420867920e-01 -8.612114936113357544e-02
3.255000000000000000e+03 2.387390518188476562e+01 -4.479292035102844238e-01 -1.767881512641906738e-01 2.063994109630584717e-02 -4.684446379542350769e-02 9.678994119167327881e-02
3.256000000000000000e+03 2.338660240173339844e+01 -1.393575310707092285e+00 -8.169854283332824707e-01 1.319410353899002075e-01 -2.055133134126663208e-01 -3.964833542704582214e-02
3.257000000000000000e+03 2.463154602050781250e+01 -7.788130044937133789e-01 -5.071617364883422852e-01 -1.260569542646408081e-01 -1.899656057357788086e-01 1.947071105241775513e-01
3.258000000000000000e+03 2.316317939758300781e+01 -6.830692291259765625e-01 -4.366106986999511719e-01 9.387133270502090454e-02 -1.028218045830726624e-01 -1.713369973003864288e-02
3.259000000000000000e+03 2.239013290405273438e+01 -9.233466386795043945e-01 -6.602851152420043945e-01 -2.567508816719055176e-02 -2.057880610227584839e-01 -9.291188418865203857e-02
3.260000000000000000e+03 2.256301116943359375e+01 -1.645976901054382324e+00 -7.362381815910339355e-01 6.993323564529418945e-02 -1.998914927244186401e-01 -5.757650732994079590e-02
3.261000000000000000e+03 2.414787673950195312e+01 -1.146310925483703613e+00 -8.781884908676147461e-01 9.063415229320526123e-02 -2.362662851810455322e-01 1.182383764535188675e-02
3.262000000000000000e+03 2.268977355957031250e+01 7.519461512565612793e-01 -3.394210216356441379e-05 -1.423632966179866344e-05 -1.445352972950786352e-05 -1.868344952526967973e-05
3.263000000000000000e+03 2.288392829895019531e+01 3.258301690220832825e-02 1.137573781306855381e-05 5.026229246141156182e-06 4.920590072288177907e-06 -4.476587037061108276e-06
3.264000000000000000e+03 2.203942871093750000e+01 5.569665431976318359e-01 8.365847861568909138e-06 3.379370173206552863e-05 1.264786442334298044e-05 5.739171228924533352e-06
3.265000000000000000e+03 2.220252990722656250e+01 -1.685228794813156128e-01 -8.429063200310338289e-06 -4.976891432306729257e-06 -4.021786480734590441e-06 -2.256729658256517723e-06
3.266000000000000000e+03 2.341383171081542969e+01 3.852292895317077637e-01 -2.368520426898612641e-06 -7.196222668426344171e-06 -2.869422814910649322e-06 1.483537516833166592e-06
3.267000000000000000e+03 2.086642074584960938e+01 -3.808408677577972412e-01 -9.074842637346591800e-06 -8.357897058886010200e-06 -5.229821908869780600e-06 -1.718267697015107842e-07
3.268000000000000000e+03 2.032355690002441406e+01 -5.136474370956420898e-01 3.177341113769216463e-06 2.306943315488751978e-05 7.874032235122285783e-06 1.436174102309450973e-06
3.269000000000000000e+03 2.127867507934570312e+01 4.179379940032958984e-01 -1.251758749276632443e-05 -1.893626540550030768e-05 -9.436155778530519456e-06 1.191734736494254321e-05
3.270000000000000000e+03 1.928600883483886719e+01 1.842018812894821167e-01 -4.020407504867762327e-05 2.751027750491630286e-06 -1.123591391660738736e-05 3.736788357855402865e-06
3.271000000000000000e+03 1.994704437255859375e+01 -1.048566401004791260e-02 -3.018389179487712681e-06 -3.123797569060116075e-06 -1.842656047301716171e-06 -1.664594492467585951e-05
3.272000000000000000e+03 1.923109054565429688e+01 -5.657521486282348633e-01 1.358745339530287310e-05 -9.483288522460497916e-06 1.231249484590080101e-06 -5.581015557254431769e-06
3.273000000000000000e+03 2.048274993896484375e+01 3.226658403873443604e-01 3.783243300858885050e-05 2.619488896016264334e-06 1.213557607115944847e-05 -1.291692001359479036e-06
3.274000000000000000e+03 2.150494194030761719e+01 -3.022379875183105469e-01 3.126568344669067301e-06 5.987370059301611036e-06 2.734181407504365779e-06 -2.340249523058446357e-07
3.275000000000000000e+03 1.981065368652343750e+01 -5.720503926277160645e-01 -1.587963424753979780e-06 -1.413598056387854740e-05 -4.717182946478715166e-06 1.210749269375810400e-05
3.276000000000000000e+03 1.707793617248535156e+01 -5.109162330627441406e-01 -6.540711638081120327e-06 -2.651038266776595265e-05 -9.915328519127797335e-06 -1.702326153463218361e-05
3.277000000000000000e+03 1.633993148803710938e+01 -4.782602787017822266e-01 5.653935204463778064e-06 5.170956137590110302e-05 1.720904947433155030e-05 1.649385740165598691e-05
3.278000000000000000e+03 1.781616592407226562e+01 -5.415064096450805664e-01 9.789415344130247831e-06 1.914205313369166106e-06 3.511086106300354004e-06 1.259845066670095548e-05
3.279000000000000000e+03 1.854128074645996094e+01 1.711868941783905029e-01 3.768736132769845426e-05 7.565697615063982084e-06 1.357591736450558528e-05 1.689463351794984192e-05
3.280000000000000000e+03 1.855440711975097656e+01 -5.699911117553710938e-01 -9.094085726246703416e-06 1.173821783595485613e-05 7.932395647003431804e-07 -5.249441983323777094e-06
3.281000000000000000e+03 1.639075088500976562e+01 2.602692842483520508e-01 -1.247381896973820403e-05 -5.416473868535831571e-05 -1.999156665988266468e-05 -3.831476351479068398e-05
3.282000000000000000e+03 1.710744285583496094e+01 2.284961640834808350e-01 1.959762994374614209e-05 3.907426071236841381e-05 1.760156737873330712e-05 4.181408439762890339e-05
3.283000000000000000e+03 1.782435607910156250e+01 1.987887471914291382e-01 -2.925845183199271560e-05 -2.195733759435825050e-05 -1.536473791929893196e-05 -3.603945515351369977e-05
3.284000000000000000e+03 1.421318435668945312e+01 5.040000677108764648e-01 1.249399338121293113e-05 7.326591003220528364e-05 2.572797166067175567e-05 1.305599471379537135e-05
3.285000000000000000e+03 1.412459087371826172e+01 -2.306861728429794312e-01 -5.631818112306063995e-06 -8.197866554837673903e-05 -2.628314541652798653e-05 -1.098843313229735941e-05
3.286000000000000000e+03 1.338628387451171875e+01 -1.375386416912078857e-01 6.060327905288431793e-06 7.961418305058032274e-05 2.570235301391221583e-05 9.719317858980502933e-06
3.287000000000000000e+03 1.486306858062744141e+01 -3.233485221862792969e-01 5.374791271606227383e-06 7.874616858316585422e-05 2.523628791095688939e-05 1.298846655117813498e-05
3.288000000000000000e+03 1.566856193542480469e+01 3.219058215618133545e-01 1.323719516221899539e-05 6.303201371338218451e-05 2.288076393597293645e-05 2.798317655106075108e-05
3.289000000000000000e+03 1.560165977478027344e+01 -4.155019819736480713e-01 -6.047464012226555496e-06 -6.860823486931622028e-05 -2.239670902781654149e-05 -1.465478635509498417e-05
3.290000000000000000e+03 1.348572158813476562e+01 5.957868695259094238e-01 -1.563262594572734088e-05 -7.464646478183567524e-05 -2.708372630877420306e-05 -9.590417903382331133e-06
3.291000000000000000e+03 1.494081592559814453e+01 4.126985073089599609e-01 -1.122307185141835362e-05 -6.981189653743058443e-05 -2.431048960715997964e-05 -2.009602394537068903e-05
3.292000000000000000e+03 1.115022563934326172e+01 2.165033817291259766e-01 -5.936145043961005285e-06 -7.007826934568583965e-05 -2.280432454426772892e-05 -8.052926204982213676e-06
3.293000000000000000e+03 1.122651290893554688e+01 9.537453055381774902e-01 1.573769077367614955e-05 6.858885171823203564e-05 2.529796256567351520e-05 8.067175258474890143e-06
3.294000000000000000e+03 1.040434932708740234e+01 3.321511745452880859e-01 4.506526693148771301e-06 7.055194873828440905e-05 2.251754085591528565e-05 7.011842171777971089e-06
3.295000000000000000e+03 1.189680099487304688e+01 9.631319344043731689e-02 5.822727871418464929e-06 7.051743887132033706e-05 2.290205156896263361e-05 8.088753020274452865e-06
3.296000000000000000e+03 1.274307727813720703e+01 7.053368687629699707e-01 1.631746999919414520e-05 7.196534716058522463e-05 2.648484405654016882e-05 8.557227374694775790e-06
3.297000000000000000e+03 1.264393043518066406e+01 -2.822761237621307373e-02 -5.955528649792540818e-06 -7.391195686068385839e-05 -2.396024683548603207e-05 -8.653954864712432027e-06
3.298000000000000000e+03 1.046920776367187500e+01 1.071231842041015625e+00 -1.177589001599699259e-05 -6.435635441448539495e-05 -2.283967296534683555e-05 -5.979482011753134429e-06
3.299000000000000000e+03 1.198451900482177734e+01 8.317164182662963867e-01 -1.627613892196677625e-05 -7.123487011995166540e-05 -2.625330307637341321e-05 -8.832019375404343009e-06
3.300000000000000000e+03 9.722556114196777344e+00 1.127092480659484863e+00 1.530136614746879786e-05 6.286200368776917458e-05 2.344901258766185492e-05 4.792663730768254027e-06
3.301000000000000000e+03 8.893199920654296875e+00 3.828711509704589844e-01 5.738780600950121880e-06 6.763896817574277520e-05 2.201332608819939196e-05 6.702628070343052968e-06
3.302000000000000000e+03 8.134614944458007812e+00 3.804794847965240479e-01 -5.685039013769710436e-06 -6.128714449005201459e-05 -2.009165473282337189e-05 -5.555021743930410594e-06
3.303000000000000000e+03 7.376657485961914062e+00 3.794998824596405029e-01 4.433951289684046060e-06 5.086078090243972838e-05 1.658841938478872180e-05 3.088456196564948186e-06
3.304000000000000000e+03 5.861315727233886719e+00 3.756705820560455322e-01 2.836262865457683802e-06 1.867487480922136456e-05 6.453341484302654862e-06 -4.825061751034809276e-06
3.305000000000000000e+03 5.314155578613281250e+00 1.111996769905090332e+00 1.275206068385159597e-05 1.733378303470090032e-05 9.025752660818397999e-06 -1.597403934283647686e-05
3.306000000000000000e+03 4.345917224884033203e+00 3.706551194190979004e-01 4.862152763962512836e-06 -1.027133112074807286e-05 -1.622753529773035552e-06 -8.239187991421204060e-06
3.307000000000000000e+03 2.830904960632324219e+00 3.606805205345153809e-01 9.200992280966602266e-06 -1.242458711203653365e-05 -9.670784493209794164e-07 -1.967038770089857280e-06
3.308000000000000000e+03 2.075619697570800781e+00 3.579981029033660889e-01 -5.688360033673234284e-06 7.512174761359347031e-06 5.471444524118851405e-07 1.263761078007519245e-06
3.309000000000000000e+03 2.378913402557373047e+00 1.097998142242431641e+00 2.124981619999743998e-05 -4.967469067196361721e-06 4.884704139840323478e-06 5.071859959571156651e-06
3.310000000000000000e+03 1.332661628723144531e+00 3.664357960224151611e-01 6.006006856296153273e-07 -7.700376954744569957e-06 -2.129932909156195819e-06 -6.471959295595297590e-06
3.311000000000000000e+03 1.659207582473754883e+00 1.106435775756835938e+00 -1.126093229686375707e-05 -4.736309165309648961e-06 -4.799172074854141101e-06 -2.787070798149215989e-06
3.312000000000000000e+03 6.544207930564880371e-01 3.946581482887268066e-01 2.725036029005423188e-05 2.302761276951059699e-05 1.508339209976838902e-05 2.773237974906805903e-05
3.313000000000000000e+03 3.110946178436279297e+00 1.100680470466613770e+00 -2.568882155173923820e-05 7.590701443405123428e-06 -5.429435987025499344e-06 -1.588055056345183402e-06
3.314000000000000000e+03 3.587856292724609375e+00 3.676122725009918213e-01 -6.775557267246767879e-06 1.504686952102929354e-05 2.481393721609492786e-06 5.819610578328138217e-06
3.315000000000000000e+03 5.103871345520019531e+00 3.719967305660247803e-01 -3.177213329763617367e-06 -1.857713073150080163e-06 -1.510477886768057942e-06 7.830613867554347962e-06
3.316000000000000000e+03 6.048347473144531250e+00 1.115670561790466309e+00 -8.379282007808797061e-06 -2.921665873145684600e-05 -1.127878203988075256e-05 1.593941487953998148e-05
3.317000000000000000e+03 6.618996143341064453e+00 3.784884214401245117e-01 -3.563626705727074295e-06 -3.606367317843250930e-05 -1.188818987429840490e-05 7.304859082069015130e-07
3.318000000000000000e+03 8.251890182495117188e+00 1.120479464530944824e+00 1.225556025019614026e-05 5.305932791088707745e-05 1.959446672117337584e-05 -1.164842046819103416e-06
3.319000000000000000e+03 8.987222671508789062e+00 1.122871160507202148e+00 -1.391043406329117715e-05 -5.815678014187142253e-05 -2.162016426154877990e-05 -2.089765075652394444e-06
3.320000000000000000e+03 9.651785850524902344e+00 3.870925009250640869e-01 -6.296041192399570718e-06 -7.024057413218542933e-05 -2.296098500664811581e-05 -6.788308837712975219e-06
3.321000000000000000e+03 7.517184734344482422e+00 1.119499921798706055e+00 -9.079077244678046554e-06 -4.737258859677240252e-05 -1.693550075287930667e-05 6.035857040842529386e-06
3.322000000000000000e+03 6.782775878906250000e+00 1.118488430976867676e+00 7.256749995576683432e-06 3.954163548769429326e-05 1.403951591782970354e-05 -1.171501753560733050e-05
3.323000000000000000e+03 4.579453945159912109e+00 1.110655069351196289e+00 -1.846736086008604616e-05 -5.709570814360631630e-06 -7.253079729707678780e-06 1.241619975189678371e-05
3.324000000000000000e+03 3.844645261764526367e+00 1.107612252235412598e+00 2.538919761718716472e-05 -3.338100668770493940e-06 6.615328857151325792e-06 -4.788163096236530691e-06
3.325000000000000000e+03 1.004219174385070801e+00 1.134658098220825195e+00 -9.381202289659995586e-06 2.628322545206174254e-05 5.070607130619464442e-06 -6.621199645451270044e-06
3.326000000000000000e+03 3.516347110271453857e-01 9.575126171112060547e-01 -3.660163201857358217e-05 -2.310650052095297724e-05 -1.791243994375690818e-05 -1.136468654294731095e-05
3.327000000000000000e+03 1.328147125244140625e+01 -9.107246994972229004e-01 -5.355930924415588379e-01 -9.804512374103069305e-03 -1.636192798614501953e-01 5.696026608347892761e-02
3.328000000000000000e+03 1.470345211029052734e+01 -1.836183547973632812e+00 -5.187020897865295410e-01 -3.950086887925863266e-03 -1.567956507205963135e-01 2.514163032174110413e-02
3.329000000000000000e+03 1.318203258514404297e+01 -1.644050240516662598e+00 -4.687115252017974854e-01 1.272917957976460457e-03 -1.402315795421600342e-01 2.423555962741374969e-02
3.330000000000000000e+03 1.478120040893554688e+01 -1.100136518478393555e+00 -5.824744105339050293e-01 -9.532460942864418030e-03 -1.776020526885986328e-01 5.806340649724006653e-02
3.331000000000000000e+03 1.546425342559814453e+01 -1.930399060249328613e+00 -5.290954113006591797e-01 -1.987995766103267670e-02 -1.646926105022430420e-01 1.691130734980106354e-02
3.332000000000000000e+03 1.553115558624267578e+01 -1.192991256713867188e+00 -6.232293844223022461e-01 -1.009365171194076538e-02 -1.899969130754470825e-01 5.201157927513122559e-02
3.333000000000000000e+03 1.403127861022949219e+01 -1.006039500236511230e+00 -5.567802786827087402e-01 -4.207354970276355743e-03 -1.682962924242019653e-01 5.793913826346397400e-02
3.334000000000000000e+03 1.394268608093261719e+01 -1.740725755691528320e+00 -4.948288798332214355e-01 -3.310436150059103966e-03 -1.494417935609817505e-01 2.744708396494388580e-02
3.335000000000000000e+03 1.171745300292968750e+01 -1.416588187217712402e+00 -4.195983707904815674e-01 1.192047912627458572e-02 -1.223033666610717773e-01 8.083409629762172699e-03
3.336000000000000000e+03 1.027132415771484375e+01 -1.186757922172546387e+00 -3.652486205101013184e-01 2.698444761335849762e-02 -1.014792546629905701e-01 -1.103409193456172943e-02
3.337000000000000000e+03 1.244032764434814453e+01 -1.534988999366760254e+00 -4.443340897560119629e-01 4.143347498029470444e-03 -1.320572197437286377e-01 1.396245788782835007e-02
3.338000000000000000e+03 1.253947448730468750e+01 -8.014244437217712402e-01 -5.028544068336486816e-01 -6.782283075153827667e-03 -1.528910100460052490e-01 5.767412483692169189e-02
3.339000000000000000e+03 1.180517101287841797e+01 -6.811850070953369141e-01 -4.584637880325317383e-01 -4.703342448920011520e-03 -1.389501392841339111e-01 5.181791260838508606e-02
3.340000000000000000e+03 1.107078933715820312e+01 -5.637502074241638184e-01 -4.138695001602172852e-01 -1.016255002468824387e-03 -1.244657263159751892e-01 4.267352446913719177e-02
3.341000000000000000e+03 1.099450206756591797e+01 -1.300992131233215332e+00 -3.872967362403869629e-01 1.892062835395336151e-02 -1.105128303170204163e-01 -3.645197255536913872e-03
3.342000000000000000e+03 1.033618259429931641e+01 -4.476772546768188477e-01 -3.594693839550018311e-01 7.828338071703910828e-03 -1.054923161864280701e-01 2.561112679541110992e-02
3.343000000000000000e+03 9.576753616333007812e+00 -3.928347527980804443e-01 -3.332972824573516846e-01 1.011439040303230286e-02 -9.695487469434738159e-02 3.354220185428857803e-03
3.344000000000000000e+03 9.504050254821777344e+00 -1.132834792137145996e+00 -3.343222141265869141e-01 2.360954508185386658e-02 -9.321379661560058594e-02 -1.715636067092418671e-02
3.345000000000000000e+03 8.792594909667968750e+00 -3.964475393295288086e-01 -3.277788758277893066e-01 2.942892024293541908e-03 -9.745079278945922852e-02 -1.085915416479110718e-02
3.346000000000000000e+03 8.008638381958007812e+00 -3.979170620441436768e-01 -3.015819489955902100e-01 2.415225841104984283e-03 -8.975001424551010132e-02 -1.643445342779159546e-02
3.347000000000000000e+03 7.224994659423828125e+00 -3.992207646369934082e-01 -2.655937969684600830e-01 8.791353320702910423e-04 -7.941439747810363770e-02 -2.011348307132720947e-02
3.348000000000000000e+03 6.441524982452392578e+00 -4.004793763160705566e-01 -2.240129560232162476e-01 9.561341139487922192e-04 -6.691704690456390381e-02 -2.199229411780834198e-02
3.349000000000000000e+03 5.658351421356201172e+00 -4.034211039543151855e-01 -1.791576743125915527e-01 -3.840148565359413624e-04 -5.386250838637351990e-02 -2.297333627939224243e-02
3.350000000000000000e+03 4.875236511230468750e+00 -4.076028764247894287e-01 -1.342133879661560059e-01 -1.929435529746115208e-04 -4.032190144062042236e-02 -2.237494848668575287e-02
3.351000000000000000e+03 4.092308998107910156e+00 -4.107097685337066650e-01 -9.122438728809356689e-02 -2.309329574927687645e-03 -2.806011587381362915e-02 -2.065956965088844299e-02
3.352000000000000000e+03 2.531672000885009766e+00 -4.164903461933135986e-01 -2.442560717463493347e-02 -3.923123702406883240e-03 -8.504618890583515167e-03 -1.132059842348098755e-02
3.353000000000000000e+03 2.214911937713623047e+00 -1.156490325927734375e+00 -3.096228837966918945e-02 -1.356401666998863220e-02 -1.335789170116186142e-02 -2.802567929029464722e-02
3.354000000000000000e+03 3.740455806255340576e-01 -5.643077492713928223e-01 4.492397711146622896e-04 1.769617665559053421e-03 6.656572222709655762e-04 9.230035357177257538e-04
3.355000000000000000e+03 1.421646475791931152e+00 -1.153123378753662109e+00 -1.361155696213245392e-02 -1.126907020807266235e-02 -7.464188151061534882e-03 -1.223592553287744522e-02
3.356000000000000000e+03 8.692774772644042969e+00 -1.136447548866271973e+00 -2.971859574317932129e-01 1.490079984068870544e-02 -8.468554913997650146e-02 -3.272628039121627808e-02
3.357000000000000000e+03 7.881700515747070312e+00 -1.137917041778564453e+00 -2.688175737857818604e-01 7.712525781244039536e-03 -7.833151519298553467e-02 -4.732591658830642700e-02
3.358000000000000000e+03 7.070939540863037109e+00 -1.139220714569091797e+00 -2.356388121843338013e-01 5.491087678819894791e-03 -6.904432177543640137e-02 -5.543562397360801697e-02
3.359000000000000000e+03 6.260352134704589844e+00 -1.140479445457458496e+00 -1.988348960876464844e-01 1.589240273460745811e-03 -5.917369946837425232e-02 -6.042984873056411743e-02
3.360000000000000000e+03 5.450060844421386719e+00 -1.143421053886413574e+00 -1.613094210624694824e-01 -3.380528942216187716e-04 -4.849424585700035095e-02 -6.171819940209388733e-02
3.361000000000000000e+03 4.639828681945800781e+00 -1.147602915763854980e+00 -1.231894195079803467e-01 -4.507338628172874451e-03 -3.830902650952339172e-02 -5.972738564014434814e-02
3.362000000000000000e+03 3.829783916473388672e+00 -1.150709748268127441e+00 -8.847285062074661255e-02 -6.989038549363613129e-03 -2.863856591284275055e-02 -5.371777713298797607e-02
3.363000000000000000e+03 3.020616531372070312e+00 -1.151894450187683105e+00 -5.602949485182762146e-02 -1.255403552204370499e-02 -2.057505957782268524e-02 -4.350745305418968201e-02
3.364000000000000000e+03 3.310259342193603516e+00 -4.118944704532623291e-01 -5.363504216074943542e-02 -2.005331683903932571e-03 -1.669211313128471375e-02 -1.633271947503089905e-02
3.365000000000000000e+03 1.765524148941040039e+00 -4.131233394145965576e-01 -6.433761212974786758e-03 -1.872655353508889675e-03 -2.491924911737442017e-03 -4.925403743982315063e-03
3.366000000000000000e+03 1.067645549774169922e+00 -3.868701159954071045e-01 9.148104581981897354e-04 -2.874724799767136574e-03 -5.879742675460875034e-04 -6.091709365136921406e-04
3.367000000000000000e+03 6.966503262519836426e-01 -1.126870155334472656e+00 -4.662208724766969681e-03 -2.725628903135657310e-03 -2.216351218521595001e-03 -2.101382240653038025e-03
3.368000000000000000e+03 3.702614212036132812e+01 -6.955368518829345703e+00 3.422807312011718750e+01 2.607105255126953125e+00 1.105055427551269531e+01 5.780266761779785156e+00
3.369000000000000000e+03 3.702498245239257812e+01 -6.935934543609619141e+00 3.484169769287109375e+01 9.878141403198242188e+00 1.341595077514648438e+01 1.630933952331542969e+01
3.370000000000000000e+03 3.702006149291992188e+01 -6.917098045349121094e+00 3.381007003784179688e+01 1.833117485046386719e+01 1.564237308502197266e+01 2.118062400817871094e+01
3.371000000000000000e+03 3.701156997680664062e+01 -6.899580001831054688e+00 3.090205955505371094e+01 2.776044845581054688e+01 1.759875106811523438e+01 2.406728363037109375e+01
3.372000000000000000e+03 3.699982833862304688e+01 -6.884049892425537109e+00 2.764167022705078125e+01 3.724917984008789062e+01 1.946725463867187500e+01 2.435941314697265625e+01
3.373000000000000000e+03 3.698529052734375000e+01 -6.871102809906005859e+00 2.371380996704101562e+01 4.561646652221679688e+01 2.079908180236816406e+01 2.256089210510253906e+01
3.374000000000000000e+03 3.696850967407226562e+01 -6.861234188079833984e+00 2.106849479675292969e+01 5.267554855346679688e+01 2.212321281433105469e+01 1.867171287536621094e+01
3.375000000000000000e+03 3.695012664794921875e+01 -6.854821205139160156e+00 1.901401329040527344e+01 5.734898757934570312e+01 2.290889930725097656e+01 1.337914562225341797e+01
3.376000000000000000e+03 3.693084716796875000e+01 -6.852109432220458984e+00 1.886547088623046875e+01 5.942145919799804688e+01 2.348607826232910156e+01 7.748606204986572266e+00
3.377000000000000000e+03 3.691141128540039062e+01 -6.853203296661376953e+00 2.040634346008300781e+01 5.907091140747070312e+01 2.384317588806152344e+01 2.200677156448364258e+00
3.378000000000000000e+03 3.689255905151367188e+01 -6.858059883117675781e+00 2.374285125732421875e+01 5.682599639892578125e+01 2.417065429687500000e+01 -2.282987356185913086e+00
3.379000000000000000e+03 3.687501144409179688e+01 -6.866493701934814453e+00 2.666560554504394531e+01 5.250770950317382812e+01 2.375199508666992188e+01 -5.482298374176025391e+00
3.380000000000000000e+03 3.685944366455078125e+01 -6.878182888031005859e+00 3.150191497802734375e+01 4.903325271606445312e+01 2.416054916381835938e+01 -6.375530719757080078e+00
3.381000000000000000e+03 3.684644699096679688e+01 -6.892678737640380859e+00 3.536379623413085938e+01 4.398285675048828125e+01 2.380399513244628906e+01 -6.100971698760986328e+00
3.382000000000000000e+03 3.683652496337890625e+01 -6.909427165985107422e+00 3.825146865844726562e+01 4.040788269042968750e+01 2.359780502319335938e+01 -4.467917919158935547e+00
3.383000000000000000e+03 3.683005142211914062e+01 -6.927787780761718750e+00 4.064115142822265625e+01 3.850610733032226562e+01 2.374417686462402344e+01 -1.622334480285644531e+00
3.384000000000000000e+03 3.682727432250976562e+01 -6.947056770324707031e+00 4.167429351806640625e+01 3.732497406005859375e+01 2.369977951049804688e+01 2.094187736511230469e+00
3.385000000000000000e+03 3.682830429077148438e+01 -6.966497898101806641e+00 4.118739700317382812e+01 3.749135971069335938e+01 2.360362625122070312e+01 5.647270679473876953e+00
3.386000000000000000e+03 3.683309555053710938e+01 -6.985366821289062500e+00 3.958214569091796875e+01 3.964569091796875000e+01 2.376835060119628906e+01 8.851975440979003906e+00
3.387000000000000000e+03 3.684147262573242188e+01 -7.002941131591796875e+00 3.644605255126953125e+01 4.354473495483398438e+01 2.399723625183105469e+01 1.149439334869384766e+01
3.388000000000000000e+03 3.685310745239257812e+01 -7.018548965454101562e+00 3.192853927612304688e+01 4.740867233276367188e+01 2.380116271972656250e+01 1.287461853027343750e+01
3.389000000000000000e+03 3.686756134033203125e+01 -7.031592369079589844e+00 2.715480995178222656e+01 5.234409713745117188e+01 2.384967231750488281e+01 1.234874057769775391e+01
3.390000000000000000e+03 3.688427734375000000e+01 -7.041572570800781250e+00 2.215040016174316406e+01 5.681401062011718750e+01 2.368932342529296875e+01 9.939849853515625000e+00
3.391000000000000000e+03 3.690261459350585938e+01 -7.048107624053955078e+00 1.730427360534667969e+01 5.979054260253906250e+01 2.312844467163085938e+01 5.801859378814697266e+00
3.392000000000000000e+03 3.692187500000000000e+01 -7.050947189331054688e+00 1.401418495178222656e+01 6.084291458129882812e+01 2.245713043212890625e+01 3.624295890331268311e-01
3.393000000000000000e+03 3.694132232666015625e+01 -7.049983024597167969e+00 1.228134822845458984e+01 5.936421203613281250e+01 2.149366950988769531e+01 -5.735291004180908203e+00
3.394000000000000000e+03 3.696020507812500000e+01 -7.045251846313476562e+00 1.187189674377441406e+01 5.504232406616210938e+01 2.007426643371582031e+01 -1.164268589019775391e+01
3.395000000000000000e+03 3.697780990600585938e+01 -7.036934375762939453e+00 1.325879192352294922e+01 4.855567932128906250e+01 1.854434204101562500e+01 -1.637556838989257812e+01
3.396000000000000000e+03 3.699345397949218750e+01 -7.025349617004394531e+00 1.517875194549560547e+01 3.991744995117187500e+01 1.652886009216308594e+01 -1.955639457702636719e+01
3.397000000000000000e+03 3.700654602050781250e+01 -7.010940074920654297e+00 1.811772346496582031e+01 3.020728302001953125e+01 1.449750232696533203e+01 -2.049650573730468750e+01
3.398000000000000000e+03 3.701658248901367188e+01 -6.994257926940917969e+00 2.044194030761718750e+01 1.987988471984863281e+01 1.209654712677001953e+01 -1.918591117858886719e+01
3.399000000000000000e+03 3.702317810058593750e+01 -6.975940704345703125e+00 2.481607818603515625e+01 8.163622856140136719e+00 9.893910408020019531e+00 -1.234827804565429688e+01
