# el_label, x, y, sXX, sYY, sZZ, sXY
1.000000000000000000e+00 7.567594909667968750e+01 -1.345078086853027344e+01 -3.683342695236206055e+00 -3.162011384963989258e+00 -2.053606271743774414e+00 -2.826526880264282227e+00
2.000000000000000000e+00 7.547973632812500000e+01 -1.348418426513671875e+01 -3.622029721736907959e-01 1.195255041122436523e+00 2.499156296253204346e-01 8.490560650825500488e-01
3.000000000000000000e+00 7.528351593017578125e+01 -1.351758861541748047e+01 -1.964347362518310547e+00 -4.242601096630096436e-01 -7.165822386741638184e-01 -2.954003773629665375e-02
4.000000000000000000e+00 7.508729553222656250e+01 -1.355099296569824219e+01 -2.404958724975585938e+00 3.038966655731201172e-01 -6.303185820579528809e-01 -2.300416864454746246e-02
5.000000000000000000e+00 7.569133758544921875e+01 -1.350712203979492188e+01 1.170782756805419922e+01 -2.072102785110473633e+00 2.890717267990112305e+00 3.626243352890014648e+00
6.000000000000000000e+00 7.550537872314453125e+01 -1.357808780670166016e+01 3.493440628051757812e+00 7.815393805503845215e-01 1.282493948936462402e+00 1.976420044898986816e+00
7.000000000000000000e+00 7.531941986083984375e+01 -1.364905261993408203e+01 2.986484527587890625e+00 1.317294836044311523e+00 1.291133761405944824e+00 2.637725830078125000e+00
8.000000000000000000e+00 7.513345336914062500e+01 -1.372001743316650391e+01 1.526601910591125488e+00 6.642022132873535156e-01 6.572412252426147461e-01 1.671645522117614746e+00
9.000000000000000000e+00 7.571739959716796875e+01 -1.355939006805419922e+01 1.565996551513671875e+01 4.684758663177490234e+00 6.103416919708251953e+00 1.133904647827148438e+01
1.000000000000000000e+01 7.554881286621093750e+01 -1.366520118713378906e+01 8.926036834716796875e+00 2.927073240280151367e+00 3.555932998657226562e+00 6.502311229705810547e+00
1.100000000000000000e+01 7.538022613525390625e+01 -1.377101135253906250e+01 5.396404743194580078e+00 3.045570373535156250e+00 2.532592535018920898e+00 4.910180568695068359e+00
1.200000000000000000e+01 7.521163940429687500e+01 -1.387682247161865234e+01 4.432983398437500000e+00 2.937724351882934570e+00 2.211212396621704102e+00 4.558051109313964844e+00
1.300000000000000000e+01 7.575314331054687500e+01 -1.360558509826660156e+01 1.617217445373535156e+01 1.339096450805664062e+01 8.868941307067871094e+00 1.663142585754394531e+01
1.400000000000000000e+01 7.560837554931640625e+01 -1.374219131469726562e+01 9.649749755859375000e+00 8.339703559875488281e+00 5.396835803985595703e+00 1.073713397979736328e+01
1.500000000000000000e+01 7.546361541748046875e+01 -1.387879848480224609e+01 7.185827732086181641e+00 6.809215068817138672e+00 4.198513031005859375e+00 8.205939292907714844e+00
1.600000000000000000e+01 7.531885528564453125e+01 -1.401540565490722656e+01 5.075339794158935547e+00 5.728739261627197266e+00 3.241223573684692383e+00 6.743484020233154297e+00
1.700000000000000000e+01 7.579718780517578125e+01 -1.364393806457519531e+01 1.317313003540039062e+01 2.339077758789062500e+01 1.096917247772216797e+01 1.919211578369140625e+01
1.800000000000000000e+01 7.568178558349609375e+01 -1.380611324310302734e+01 8.948445320129394531e+00 1.528253555297851562e+01 7.269294261932373047e+00 1.336372089385986328e+01
1.900000000000000000e+01 7.556639099121093750e+01 -1.396828937530517578e+01 6.271018505096435547e+00 1.211917018890380859e+01 5.517056465148925781e+00 1.041854476928710938e+01
2.000000000000000000e+01 7.545099639892578125e+01 -1.413046455383300781e+01 4.790080070495605469e+00 1.043662834167480469e+01 4.568012714385986328e+00 8.788202285766601562e+00
2.100000000000000000e+01 7.584785461425781250e+01 -1.367298126220703125e+01 9.794129371643066406e+00 3.313299179077148438e+01 1.287813663482666016e+01 1.874127960205078125e+01
2.200000000000000000e+01 7.576624298095703125e+01 -1.385451984405517578e+01 6.556509971618652344e+00 2.271153259277343750e+01 8.780412673950195312e+00 1.374222564697265625e+01
2.300000000000000000e+01 7.568462371826171875e+01 -1.403605842590332031e+01 4.704121112823486328e+00 1.819060707092285156e+01 6.868418216705322266e+00 1.123585033416748047e+01
2.400000000000000000e+01 7.560301208496093750e+01 -1.421759700775146484e+01 3.373475551605224609e+00 1.565374565124511719e+01 5.708166599273681641e+00 9.486912727355957031e+00
2.500000000000000000e+01 7.590321350097656250e+01 -1.369160556793212891e+01 6.588696479797363281e+00 4.149972152709960938e+01 1.442652606964111328e+01 1.544130516052246094e+01
2.600000000000000000e+01 7.585850524902343750e+01 -1.388555908203125000e+01 4.408655643463134766e+00 2.954516792297363281e+01 1.018614673614501953e+01 1.220456123352050781e+01
2.700000000000000000e+01 7.581378936767578125e+01 -1.407951354980468750e+01 2.705180883407592773e+00 2.399858474731445312e+01 8.011129379272460938e+00 1.012005996704101562e+01
2.800000000000000000e+01 7.576908111572265625e+01 -1.427346706390380859e+01 1.769274711608886719e+00 2.065603446960449219e+01 6.727592468261718750e+00 8.724720954895019531e+00
2.900000000000000000e+01 7.596113586425781250e+01 -1.369909572601318359e+01 5.193277359008789062e+00 4.751324844360351562e+01 1.581195831298828125e+01 1.040153884887695312e+01
3.000000000000000000e+01 7.595503997802734375e+01 -1.389804267883300781e+01 2.859590768814086914e+00 3.495032882690429688e+01 1.134297561645507812e+01 8.887115478515625000e+00
3.100000000000000000e+01 7.594894409179687500e+01 -1.409699058532714844e+01 1.440294623374938965e+00 2.881560134887695312e+01 9.076768875122070312e+00 7.624454975128173828e+00
3.200000000000000000e+01 7.594284820556640625e+01 -1.429593849182128906e+01 3.267728686332702637e-01 2.489762496948242188e+01 7.567319393157958984e+00 6.443303585052490234e+00
3.300000000000000000e+01 7.601940155029296875e+01 -1.369516563415527344e+01 5.766524314880371094e+00 5.067068481445312500e+01 1.693116188049316406e+01 4.474790096282958984e+00
3.400000000000000000e+01 7.605215454101562500e+01 -1.389149379730224609e+01 2.820727825164794922e+00 3.848417282104492188e+01 1.239146995544433594e+01 4.774909496307373047e+00
3.500000000000000000e+01 7.608490753173828125e+01 -1.408782196044921875e+01 1.093693494796752930e+00 3.203321075439453125e+01 9.938071250915527344e+00 4.026807308197021484e+00
3.600000000000000000e+01 7.611766052246093750e+01 -1.428415012359619141e+01 4.805590957403182983e-03 2.801429939270019531e+01 8.405731201171875000e+00 3.504612922668457031e+00
3.700000000000000000e+01 7.607579803466796875e+01 -1.367996692657470703e+01 8.464022636413574219e+00 5.123688125610351562e+01 1.791027069091796875e+01 -9.093136787414550781e-01
3.800000000000000000e+01 7.614614105224609375e+01 -1.386616230010986328e+01 4.296835899353027344e+00 3.982400894165039062e+01 1.323625278472900391e+01 3.701272010803222656e-01
3.900000000000000000e+01 7.621649169921875000e+01 -1.405235767364501953e+01 2.105139017105102539e+00 3.359539413452148438e+01 1.071015930175781250e+01 3.951484560966491699e-01
4.000000000000000000e+01 7.628683471679687500e+01 -1.423855304718017578e+01 8.677029013633728027e-01 2.942246055603027344e+01 9.087049484252929688e+00 1.589110344648361206e-01
4.100000000000000000e+01 7.612815093994140625e+01 -1.365408039093017578e+01 1.268894958496093750e+01 4.956169509887695312e+01 1.867519378662109375e+01 -5.076796054840087891e+00
4.200000000000000000e+01 7.623339843750000000e+01 -1.382301807403564453e+01 7.155465602874755859e+00 3.942145919799804688e+01 1.397307777404785156e+01 -3.310371160507202148e+00
4.300000000000000000e+01 7.633865356445312500e+01 -1.399195575714111328e+01 4.468294620513916016e+00 3.329096984863281250e+01 1.132777976989746094e+01 -2.853584289550781250e+00
4.400000000000000000e+01 7.644390106201171875e+01 -1.416089344024658203e+01 2.717502832412719727e+00 2.933882331848144531e+01 9.616897583007812500e+00 -2.663208961486816406e+00
4.500000000000000000e+01 7.617446136474609375e+01 -1.361849689483642578e+01 1.769923019409179688e+01 4.677017211914062500e+01 1.934082031250000000e+01 -7.366630077362060547e+00
4.600000000000000000e+01 7.631059265136718750e+01 -1.376371192932128906e+01 1.093155288696289062e+01 3.744387054443359375e+01 1.451262664794921875e+01 -5.797696590423583984e+00
4.700000000000000000e+01 7.644671630859375000e+01 -1.390892696380615234e+01 7.723707675933837891e+00 3.183712387084960938e+01 1.186824989318847656e+01 -5.046690464019775391e+00
4.800000000000000000e+01 7.658283996582031250e+01 -1.405414199829101562e+01 5.555345058441162109e+00 2.783380317687988281e+01 1.001674461364746094e+01 -4.654766082763671875e+00
4.900000000000000000e+01 7.621296691894531250e+01 -1.357457733154296875e+01 2.251690483093261719e+01 4.337851715087890625e+01 1.976862716674804688e+01 -7.831148147583007812e+00
5.000000000000000000e+01 7.637475585937500000e+01 -1.369051265716552734e+01 1.508653450012207031e+01 3.493769073486328125e+01 1.500726795196533203e+01 -6.623347282409667969e+00
5.100000000000000000e+01 7.653654479980468750e+01 -1.380644798278808594e+01 1.119921588897705078e+01 2.945432090759277344e+01 1.219606113433837891e+01 -5.948923587799072266e+00
5.200000000000000000e+01 7.669833374023437500e+01 -1.392238330841064453e+01 8.814434051513671875e+00 2.595615959167480469e+01 1.043117809295654297e+01 -5.460574150085449219e+00
5.300000000000000000e+01 7.624217987060546875e+01 -1.352400302886962891e+01 2.656592941284179688e+01 4.059387207031250000e+01 2.014793968200683594e+01 -6.615712165832519531e+00
5.400000000000000000e+01 7.642344665527343750e+01 -1.360622215270996094e+01 1.879944419860839844e+01 3.217287826538085938e+01 1.529169750213623047e+01 -5.906482219696044922e+00
5.500000000000000000e+01 7.660471343994140625e+01 -1.368844127655029297e+01 1.440299987792968750e+01 2.729478454589843750e+01 1.250933551788330078e+01 -5.352480411529541016e+00
5.600000000000000000e+01 7.678598022460937500e+01 -1.377066135406494141e+01 1.155600738525390625e+01 2.369687271118164062e+01 1.057586383819580078e+01 -4.971621990203857422e+00
5.700000000000000000e+01 7.626098632812500000e+01 -1.346870899200439453e+01 2.928513336181640625e+01 3.850103378295898438e+01 2.033584976196289062e+01 -4.198203086853027344e+00
5.800000000000000000e+01 7.645478820800781250e+01 -1.351406574249267578e+01 2.147879600524902344e+01 3.024018478393554688e+01 1.551569461822509766e+01 -3.919479131698608398e+00
5.900000000000000000e+01 7.664859771728515625e+01 -1.355942344665527344e+01 1.676417541503906250e+01 2.548758888244628906e+01 1.267552947998046875e+01 -3.500594854354858398e+00
6.000000000000000000e+01 7.684239959716796875e+01 -1.360478019714355469e+01 1.349038410186767578e+01 2.205539321899414062e+01 1.066373252868652344e+01 -3.321870565414428711e+00
6.100000000000000000e+01 7.626866912841796875e+01 -1.341081237792968750e+01 3.043612480163574219e+01 3.769184112548828125e+01 2.043838882446289062e+01 -1.198748111724853516e+00
6.200000000000000000e+01 7.646759796142578125e+01 -1.341757106781005859e+01 2.264584159851074219e+01 2.932211494445800781e+01 1.559038734436035156e+01 -1.104951143264770508e+00
6.300000000000000000e+01 7.666651916503906250e+01 -1.342432975769042969e+01 1.786341667175292969e+01 2.469069480895996094e+01 1.276623344421386719e+01 -9.902281165122985840e-01
6.400000000000000000e+01 7.686544799804687500e+01 -1.343108749389648438e+01 1.455338191986083984e+01 2.134972953796386719e+01 1.077093315124511719e+01 -9.380925297737121582e-01
6.500000000000000000e+01 7.626493072509765625e+01 -1.335252666473388672e+01 2.989978218078613281e+01 3.809210205078125000e+01 2.039756584167480469e+01 1.931500792503356934e+00
6.600000000000000000e+01 7.646137237548828125e+01 -1.332042884826660156e+01 2.214858055114746094e+01 2.976791000366210938e+01 1.557494735717773438e+01 1.776867628097534180e+00
6.700000000000000000e+01 7.665780639648437500e+01 -1.328833007812500000e+01 1.745031547546386719e+01 2.499219703674316406e+01 1.273275375366210938e+01 1.637684941291809082e+00
6.800000000000000000e+01 7.685424041748046875e+01 -1.325623226165771484e+01 1.439276599884033203e+01 2.183807373046875000e+01 1.086925220489501953e+01 1.401793837547302246e+00
6.900000000000000000e+01 7.624992370605468750e+01 -1.329608440399169922e+01 2.776743316650390625e+01 3.966875457763671875e+01 2.023085784912109375e+01 4.519565105438232422e+00
7.000000000000000000e+01 7.643634796142578125e+01 -1.322635746002197266e+01 2.006483650207519531e+01 3.142488479614257812e+01 1.544691658020019531e+01 4.157423496246337891e+00
7.100000000000000000e+01 7.662277984619140625e+01 -1.315663051605224609e+01 1.565553379058837891e+01 2.640771293640136719e+01 1.261897373199462891e+01 3.673824310302734375e+00
7.200000000000000000e+01 7.680920410156250000e+01 -1.308690357208251953e+01 1.258191967010498047e+01 2.324639892578125000e+01 1.074849510192871094e+01 3.319125890731811523e+00
7.300000000000000000e+01 7.622421264648437500e+01 -1.324364376068115234e+01 2.427975654602050781e+01 4.241469192504882812e+01 2.000833511352539062e+01 6.128491401672363281e+00
7.400000000000000000e+01 7.639349365234375000e+01 -1.313895702362060547e+01 1.674734687805175781e+01 3.371570205688476562e+01 1.513891506195068359e+01 5.380464076995849609e+00
7.500000000000000000e+01 7.656278228759765625e+01 -1.303426933288574219e+01 1.276133346557617188e+01 2.873874855041503906e+01 1.245002460479736328e+01 4.674588203430175781e+00
7.600000000000000000e+01 7.673207092285156250e+01 -1.292958259582519531e+01 9.875576972961425781e+00 2.505782508850097656e+01 1.048002052307128906e+01 4.439238548278808594e+00
7.700000000000000000e+01 7.618878173828125000e+01 -1.319721221923828125e+01 1.969876480102539062e+01 4.536606979370117188e+01 1.951945114135742188e+01 6.334522247314453125e+00
7.800000000000000000e+01 7.633444976806640625e+01 -1.306157112121582031e+01 1.289408016204833984e+01 3.656051254272460938e+01 1.483637809753417969e+01 4.991913318634033203e+00
7.900000000000000000e+01 7.648011016845703125e+01 -1.292593002319335938e+01 9.228015899658203125e+00 3.089424324035644531e+01 1.203667736053466797e+01 4.454670429229736328e+00
8.000000000000000000e+01 7.662577819824218750e+01 -1.279028892517089844e+01 7.126979351043701172e+00 2.724386405944824219e+01 1.031125354766845703e+01 4.131851196289062500e+00
8.100000000000000000e+01 7.614498901367187500e+01 -1.315856742858886719e+01 1.499221897125244141e+01 4.847145462036132812e+01 1.903910255432128906e+01 4.630314350128173828e+00
8.200000000000000000e+01 7.626145935058593750e+01 -1.299716281890869141e+01 8.891109466552734375e+00 3.865849685668945312e+01 1.426488113403320312e+01 3.151090383529663086e+00
8.300000000000000000e+01 7.637792968750000000e+01 -1.283575820922851562e+01 6.059106349945068359e+00 3.282136535644531250e+01 1.166414165496826172e+01 2.686612844467163086e+00
8.400000000000000000e+01 7.649440765380859375e+01 -1.267435359954833984e+01 4.130881309509277344e+00 2.869300651550292969e+01 9.847167015075683594e+00 2.506211757659912109e+00
8.500000000000000000e+01 7.609451293945312500e+01 -1.312918663024902344e+01 1.053963565826416016e+01 5.048586654663085938e+01 1.830765151977539062e+01 1.164315700531005859e+00
8.600000000000000000e+01 7.617733764648437500e+01 -1.294819545745849609e+01 5.797769069671630859e+00 3.972648239135742188e+01 1.365727519989013672e+01 -1.284373402595520020e-01
8.700000000000000000e+01 7.626015472412109375e+01 -1.276720333099365234e+01 3.442985534667968750e+00 3.348361206054687500e+01 1.107797908782958984e+01 -2.028907686471939087e-01
8.800000000000000000e+01 7.634297943115234375e+01 -1.258621215820312500e+01 1.845302700996398926e+00 2.945260047912597656e+01 9.389370918273925781e+00 -1.067436337471008301e-01
8.900000000000000000e+01 7.603927612304687500e+01 -1.311019515991210938e+01 7.356566905975341797e+00 5.077259445190429688e+01 1.743874931335449219e+01 -3.806010007858276367e+00
9.000000000000000000e+01 7.608528137207031250e+01 -1.291654300689697266e+01 3.985940217971801758e+00 3.896848297119140625e+01 1.288632678985595703e+01 -4.251979827880859375e+00
9.100000000000000000e+01 7.613128662109375000e+01 -1.272289085388183594e+01 1.909188508987426758e+00 3.270947265625000000e+01 1.038559818267822266e+01 -3.761186599731445312e+00
9.200000000000000000e+01 7.617728424072265625e+01 -1.252923870086669922e+01 8.094151020050048828e-01 2.862285995483398438e+01 8.829682350158691406e+00 -3.205438137054443359e+00
9.300000000000000000e+01 7.598140716552734375e+01 -1.310231971740722656e+01 6.165877342224121094e+00 4.856892776489257812e+01 1.642044067382812500e+01 -9.449147224426269531e+00
9.400000000000000000e+01 7.598883056640625000e+01 -1.290341758728027344e+01 3.553783655166625977e+00 3.628155899047851562e+01 1.195060253143310547e+01 -8.564089775085449219e+00
9.500000000000000000e+01 7.599624633789062500e+01 -1.270451450347900391e+01 1.918719887733459473e+00 3.006726837158203125e+01 9.595796585083007812e+00 -7.281645774841308594e+00
9.600000000000000000e+01 7.600366973876953125e+01 -1.250561237335205078e+01 7.094848752021789551e-01 2.617386817932128906e+01 8.065006256103515625e+00 -6.401748180389404297e+00
9.700000000000000000e+01 7.592311096191406250e+01 -1.310586166381835938e+01 7.007680416107177734e+00 4.362982559204101562e+01 1.519125175476074219e+01 -1.490023326873779297e+01
9.800000000000000000e+01 7.589167022705078125e+01 -1.290932083129882812e+01 4.667081356048583984e+00 3.160094642639160156e+01 1.088040828704833984e+01 -1.206967449188232422e+01
9.900000000000000000e+01 7.586022186279296875e+01 -1.271277904510498047e+01 2.998904228210449219e+00 2.585483932495117188e+01 8.656123161315917969e+00 -1.030939674377441406e+01
1.000000000000000000e+02 7.582877349853515625e+01 -1.251623725891113281e+01 1.821867465972900391e+00 2.225124549865722656e+01 7.221933841705322266e+00 -8.838311195373535156e+00
1.010000000000000000e+02 7.586662292480468750e+01 -1.312068557739257812e+01 9.606111526489257812e+00 3.625033569335937500e+01 1.375693416595458984e+01 -1.872650337219238281e+01
1.020000000000000000e+02 7.579751586914062500e+01 -1.293402671813964844e+01 6.833494186401367188e+00 2.533849906921386719e+01 9.651597976684570312e+00 -1.437202167510986328e+01
1.030000000000000000e+02 7.572840881347656250e+01 -1.274736785888671875e+01 4.803460597991943359e+00 2.042978858947753906e+01 7.569974422454833984e+00 -1.186909770965576172e+01
1.040000000000000000e+02 7.565929412841796875e+01 -1.256070899963378906e+01 3.575092077255249023e+00 1.749891471862792969e+01 6.322201728820800781e+00 -1.033204650878906250e+01
1.050000000000000000e+02 7.581409454345703125e+01 -1.314622402191162109e+01 1.332140731811523438e+01 2.708789443969726562e+01 1.212279033660888672e+01 -2.028993415832519531e+01
1.060000000000000000e+02 7.570996856689453125e+01 -1.297659015655517578e+01 9.090672492980957031e+00 1.828630256652832031e+01 8.213092803955078125e+00 -1.464441013336181641e+01
1.070000000000000000e+02 7.560584259033203125e+01 -1.280695629119873047e+01 6.870651721954345703e+00 1.443413925170898438e+01 6.391437053680419922e+00 -1.194792175292968750e+01
1.080000000000000000e+02 7.550172424316406250e+01 -1.263732337951660156e+01 5.143408298492431641e+00 1.240103721618652344e+01 5.263333797454833984e+00 -1.010786342620849609e+01
1.090000000000000000e+02 7.576754760742187500e+01 -1.318149948120117188e+01 1.640458869934082031e+01 1.753370094299316406e+01 1.018148708343505859e+01 -1.887737655639648438e+01
1.100000000000000000e+02 7.563239288330078125e+01 -1.303538227081298828e+01 1.094421291351318359e+01 1.114301300048828125e+01 6.626167774200439453e+00 -1.298754405975341797e+01
1.110000000000000000e+02 7.549723815917968750e+01 -1.288926601409912109e+01 7.936723232269287109e+00 8.835616111755371094e+00 5.031702041625976562e+00 -1.018611240386962891e+01
1.120000000000000000e+02 7.536207580566406250e+01 -1.274314880371093750e+01 6.259092330932617188e+00 7.579432487487792969e+00 4.151557445526123047e+00 -8.651211738586425781e+00
1.130000000000000000e+02 7.572875213623046875e+01 -1.322516155242919922e+01 1.801708030700683594e+01 8.511264801025390625e+00 7.958503723144531250e+00 -1.471793079376220703e+01
1.140000000000000000e+02 7.556773376464843750e+01 -1.310815334320068359e+01 1.068930339813232422e+01 5.211432933807373047e+00 4.770221233367919922e+00 -9.435237884521484375e+00
1.150000000000000000e+02 7.540672302246093750e+01 -1.299114513397216797e+01 7.797788619995117188e+00 4.275587081909179688e+00 3.622012853622436523e+00 -7.319677829742431641e+00
1.160000000000000000e+02 7.524570465087890625e+01 -1.287413692474365234e+01 5.776987075805664062e+00 3.865918159484863281e+00 2.892871618270874023e+00 -6.107686519622802734e+00
1.170000000000000000e+02 7.569920349121093750e+01 -1.327554035186767578e+01 1.562981700897216797e+01 1.707091569900512695e+00 5.201072692871093750e+00 -8.600049018859863281e+00
1.180000000000000000e+02 7.551848602294921875e+01 -1.319211864471435547e+01 8.425312995910644531e+00 9.795058965682983398e-01 2.821445703506469727e+00 -4.898872852325439453e+00
1.190000000000000000e+02 7.533777618408203125e+01 -1.310869598388671875e+01 4.974402427673339844e+00 1.728207468986511230e+00 2.010782957077026367e+00 -3.895723104476928711e+00
1.200000000000000000e+02 7.515705871582031250e+01 -1.302527427673339844e+01 3.990876913070678711e+00 1.605244398117065430e+00 1.678836345672607422e+00 -3.729716062545776367e+00
1.210000000000000000e+02 7.568003082275390625e+01 -1.333070850372314453e+01 9.126681327819824219e+00 -2.888659954071044922e+00 1.871406435966491699e+00 -1.099094271659851074e+00
1.220000000000000000e+02 7.548653411865234375e+01 -1.328406429290771484e+01 1.663074254989624023e+00 1.862407326698303223e-01 5.547944903373718262e-01 -1.114994764328002930e+00
1.230000000000000000e+02 7.529303741455078125e+01 -1.323742008209228516e+01 1.729585170745849609e+00 6.463045477867126465e-01 7.127668857574462891e-01 -1.966096758842468262e+00
1.240000000000000000e+02 7.509954071044921875e+01 -1.319077682495117188e+01 3.960265219211578369e-01 9.214489907026290894e-02 1.464514285326004028e-01 -1.133150219917297363e+00
1.250000000000000000e+02 7.567195892333984375e+01 -1.338855361938476562e+01 -8.161865234375000000e+00 -2.478502988815307617e+00 -3.192110300064086914e+00 2.825362682342529297e+00
1.260000000000000000e+02 7.547308349609375000e+01 -1.338047218322753906e+01 -2.624278545379638672e+00 9.727277159690856934e-01 -4.954652190208435059e-01 -9.227339625358581543e-01
1.270000000000000000e+02 7.527420806884765625e+01 -1.337239170074462891e+01 -3.802891731262207031e+00 -4.564729034900665283e-01 -1.277809381484985352e+00 -6.670864671468734741e-02
1.280000000000000000e+02 7.507533264160156250e+01 -1.336431121826171875e+01 -3.857888698577880859e+00 2.283996492624282837e-01 -1.088846683502197266e+00 -2.956536114215850830e-01
1.290000000000000000e+02 7.271359252929687500e+01 -1.492849540710449219e+01 -5.259890109300613403e-02 4.323736429214477539e-01 1.139324232935905457e-01 8.169206976890563965e-02
1.300000000000000000e+02 7.112039184570312500e+01 -1.507808685302734375e+01 -3.946903944015502930e-01 -8.407134562730789185e-02 -1.436285227537155151e-01 -6.300815939903259277e-01
1.310000000000000000e+02 7.051801300048828125e+01 -1.506979751586914062e+01 -3.572725951671600342e-01 -1.800687611103057861e-01 -1.612024009227752686e-01 -6.551397442817687988e-01
1.320000000000000000e+02 7.283343505859375000e+01 -1.400656604766845703e+01 -2.069030761718750000e+00 9.187105298042297363e-02 -5.931478738784790039e-01 -5.144392848014831543e-01
1.330000000000000000e+02 7.198427581787109375e+01 -1.451749420166015625e+01 -1.033985018730163574e+00 -1.443274598568677902e-02 -3.145253360271453857e-01 -4.758395552635192871e-01
1.340000000000000000e+02 7.300055694580078125e+01 -1.487172222137451172e+01 1.308434754610061646e-01 5.829440355300903320e-01 2.141362428665161133e-01 2.447726726531982422e-01
1.350000000000000000e+02 7.301762390136718750e+01 -1.458557605743408203e+01 -5.439919233322143555e-01 4.192935824394226074e-01 -3.740949556231498718e-02 3.283732756972312927e-02
1.360000000000000000e+02 7.234114074707031250e+01 -1.403465557098388672e+01 -2.245558261871337891e+00 -1.119339838624000549e-01 -7.072476744651794434e-01 -4.972962737083435059e-01
1.370000000000000000e+02 7.269761657714843750e+01 -1.378257369995117188e+01 -2.905371189117431641e+00 -1.108877733349800110e-02 -8.749380111694335938e-01 -4.870661497116088867e-01
1.380000000000000000e+02 7.163972473144531250e+01 -1.507702255249023438e+01 -2.631462812423706055e-01 8.451774716377258301e-02 -5.358856171369552612e-02 -5.071162581443786621e-01
1.390000000000000000e+02 7.044596862792968750e+01 -1.433276557922363281e+01 -1.022977709770202637e+00 -9.509894251823425293e-02 -3.354229927062988281e-01 -4.457938075065612793e-01
1.400000000000000000e+02 7.291181945800781250e+01 -1.420898246765136719e+01 -1.546994924545288086e+00 1.978309154510498047e-01 -4.047492146492004395e-01 -3.875409364700317383e-01
1.410000000000000000e+02 7.261460113525390625e+01 -1.459161853790283203e+01 -7.567020654678344727e-01 1.373646259307861328e-01 -1.858012378215789795e-01 -1.860921084880828857e-01
1.420000000000000000e+02 7.297016143798828125e+01 -1.440663528442382812e+01 -9.812600612640380859e-01 3.385331630706787109e-01 -1.928180605173110962e-01 -1.407065540552139282e-01
1.430000000000000000e+02 7.282756042480468750e+01 -1.454619789123535156e+01 -7.029853463172912598e-01 3.471702039241790771e-01 -1.067445352673530579e-01 -1.237880960106849670e-01
1.440000000000000000e+02 7.236907196044921875e+01 -1.438837242126464844e+01 -1.269614458084106445e+00 -7.529775798320770264e-02 -4.034736752510070801e-01 -4.044971168041229248e-01
1.450000000000000000e+02 7.217829132080078125e+01 -1.497774314880371094e+01 -2.258881181478500366e-01 2.281937897205352783e-01 6.917009013704955578e-04 -3.003989756107330322e-01
1.460000000000000000e+02 7.186721801757812500e+01 -1.402441883087158203e+01 -2.223760843276977539e+00 -6.815104931592941284e-02 -6.875736117362976074e-01 -5.152010321617126465e-01
1.470000000000000000e+02 7.142704010009765625e+01 -1.468074131011962891e+01 -8.072789311408996582e-01 -8.278419077396392822e-02 -2.670189440250396729e-01 -5.832543373107910156e-01
1.480000000000000000e+02 7.118784332275390625e+01 -1.417866134643554688e+01 -1.582903146743774414e+00 -9.035334736108779907e-02 -5.019769668579101562e-01 -4.954985380172729492e-01
1.490000000000000000e+02 7.257041931152343750e+01 -1.419734287261962891e+01 -1.758154273033142090e+00 -4.579229652881622314e-02 -5.411839485168457031e-01 -4.216346144676208496e-01
1.500000000000000000e+02 7.271565246582031250e+01 -1.436551570892333984e+01 -1.392853140830993652e+00 5.751050636172294617e-02 -4.006027877330780029e-01 -3.392243087291717529e-01
1.510000000000000000e+02 7.292371368408203125e+01 -1.468702411651611328e+01 -3.351858854293823242e-01 5.760884284973144531e-01 7.227075845003128052e-02 5.288119614124298096e-02
1.520000000000000000e+02 7.303624725341796875e+01 -1.474235534667968750e+01 9.988321363925933838e-02 4.902511239051818848e-01 1.770403087139129639e-01 2.105459272861480713e-01
1.530000000000000000e+02 7.310732269287109375e+01 -1.373118019104003906e+01 -3.192860364913940430e+00 -9.291251748800277710e-02 -9.857318401336669922e-01 -3.282684683799743652e-01
1.540000000000000000e+02 7.408112335205078125e+01 -1.366998672485351562e+01 -3.450108051300048828e+00 1.280228723771870136e-03 -1.034648299217224121e+00 -2.368080914020538330e-01
1.550000000000000000e+02 7.737764739990234375e+01 -1.361097526550292969e+01 9.015837669372558594e+00 1.654848670959472656e+01 7.669297218322753906e+00 -2.202362775802612305e+00
1.560000000000000000e+02 7.663414001464843750e+01 -1.250694751739501953e+01 2.801027059555053711e+00 2.570763969421386719e+01 8.552599906921386719e+00 2.559299230575561523e+00
1.570000000000000000e+02 7.599528503417968750e+01 -1.228610610961914062e+01 5.395648069679737091e-03 2.311658668518066406e+01 6.936594486236572266e+00 -5.694776535034179688e+00
1.580000000000000000e+02 7.458292388916015625e+01 -1.212320423126220703e+01 2.611041784286499023e+00 3.829106807708740234e+00 1.932044625282287598e+00 -4.408253192901611328e+00
1.590000000000000000e+02 7.555486297607421875e+01 -1.481154537200927734e+01 5.186495780944824219e-01 1.445048999786376953e+01 4.490741729736328125e+00 6.320534706115722656e+00
1.600000000000000000e+02 7.321222686767578125e+01 -1.497325325012207031e+01 3.227382302284240723e-01 1.020635128021240234e+00 4.030120372772216797e-01 5.396895408630371094e-01
1.610000000000000000e+02 7.337752532958984375e+01 -1.455566501617431641e+01 -1.761084198951721191e-01 5.035886168479919434e-01 9.824406355619430542e-02 2.789369821548461914e-01
1.620000000000000000e+02 7.459358215332031250e+01 -1.482140159606933594e+01 2.054325103759765625e+00 4.338864326477050781e+00 1.917956829071044922e+00 3.872447967529296875e+00
1.630000000000000000e+02 7.594068908691406250e+01 -1.451525974273681641e+01 -3.349713385105133057e-01 2.239259910583496094e+01 6.617288112640380859e+00 5.491551876068115234e+00
1.640000000000000000e+02 7.574755859375000000e+01 -1.477560234069824219e+01 -1.826984435319900513e-01 1.735466766357421875e+01 5.151590824127197266e+00 5.759733676910400391e+00
1.650000000000000000e+02 7.515740966796875000e+01 -1.420867252349853516e+01 3.959151506423950195e+00 5.636080265045166016e+00 2.878569602966308594e+00 5.979204654693603516e+00
1.660000000000000000e+02 7.519456481933593750e+01 -1.482284259796142578e+01 1.558753728866577148e+00 9.459183692932128906e+00 3.305381059646606445e+00 5.925863742828369141e+00
1.670000000000000000e+02 7.501795196533203125e+01 -1.402617359161376953e+01 3.208029031753540039e+00 2.433931589126586914e+00 1.692588210105895996e+00 3.811537981033325195e+00
1.680000000000000000e+02 7.452293395996093750e+01 -1.390802478790283203e+01 -3.085696697235107422e-01 5.236424803733825684e-01 6.452183425426483154e-02 8.278259038925170898e-01
1.690000000000000000e+02 7.359465026855468750e+01 -1.492676448822021484e+01 7.288315892219543457e-01 1.386655330657958984e+00 6.346461176872253418e-01 1.111956834793090820e+00
1.700000000000000000e+02 7.618305969238281250e+01 -1.229907894134521484e+01 -2.653927803039550781e-01 2.522822952270507812e+01 7.488851070404052734e+00 -3.213487625122070312e+00
1.710000000000000000e+02 7.616681671142578125e+01 -1.204135990142822266e+01 -1.011048674583435059e+00 2.175178146362304688e+01 6.222219944000244141e+00 -3.363375663757324219e+00
1.720000000000000000e+02 7.679941558837890625e+01 -1.231737709045410156e+01 1.826679825782775879e+00 2.284993743896484375e+01 7.402985095977783203e+00 2.785273075103759766e+00
1.730000000000000000e+02 7.690422058105468750e+01 -1.281861495971679688e+01 7.975441455841064453e+00 2.259155845642089844e+01 9.170100212097167969e+00 4.239811420440673828e+00
1.740000000000000000e+02 7.731951141357421875e+01 -1.321630287170410156e+01 9.286294937133789062e+00 1.659162139892578125e+01 7.763375282287597656e+00 8.802058696746826172e-01
1.750000000000000000e+02 7.687180328369140625e+01 -1.404342365264892578e+01 6.752696037292480469e+00 2.303439903259277344e+01 8.936128616333007812e+00 -5.153777122497558594e+00
1.760000000000000000e+02 7.660105133056640625e+01 -1.432700252532958984e+01 1.901962637901306152e+00 2.597320938110351562e+01 8.362551689147949219e+00 -2.982468366622924805e+00
1.770000000000000000e+02 7.294086456298828125e+01 -1.220278167724609375e+01 2.080726809799671173e-02 7.233550548553466797e-01 2.232487052679061890e-01 -5.343790054321289062e-01
1.780000000000000000e+02 7.406475830078125000e+01 -1.341244029998779297e+01 -4.583547592163085938e+00 1.634501665830612183e-02 -1.370160818099975586e+00 -1.215662285685539246e-01
1.790000000000000000e+02 7.495439910888671875e+01 -1.292056655883789062e+01 2.935513496398925781e+00 1.128808736801147461e+00 1.219296693801879883e+00 -3.067498207092285156e+00
1.800000000000000000e+02 7.559129333496093750e+01 -1.233631610870361328e+01 2.501471996307373047e+00 1.547363567352294922e+01 5.392532348632812500e+00 -8.748649597167968750e+00
1.810000000000000000e+02 7.577683258056640625e+01 -1.204383277893066406e+01 1.600591391324996948e-01 1.792185211181640625e+01 5.424573421478271484e+00 -6.543025970458984375e+00
1.820000000000000000e+02 7.306321716308593750e+01 -1.345805454254150391e+01 -4.306003093719482422e+00 -2.118241488933563232e-01 -1.355348110198974609e+00 -3.453509509563446045e-01
1.830000000000000000e+02 7.297566986083984375e+01 -1.263290023803710938e+01 -1.003036499023437500e+00 2.160175591707229614e-01 -2.361056655645370483e-01 -4.235484823584556580e-02
1.840000000000000000e+02 7.296212768554687500e+01 -1.242081451416015625e+01 -6.150183081626892090e-01 4.420672953128814697e-01 -5.188531056046485901e-02 -2.836447060108184814e-01
1.850000000000000000e+02 7.417014312744140625e+01 -1.215492439270019531e+01 1.861097693443298340e+00 2.085478305816650391e+00 1.183972835540771484e+00 -2.762211322784423828e+00
1.860000000000000000e+02 7.487162780761718750e+01 -1.335056972503662109e+01 -3.944487810134887695e+00 -8.582710474729537964e-02 -1.209094524383544922e+00 -1.491026282310485840e-01
1.870000000000000000e+02 7.489278411865234375e+01 -1.312972831726074219e+01 -4.505332931876182556e-02 3.442662954330444336e-01 8.976388722658157349e-02 -1.352231383323669434e+00
1.880000000000000000e+02 7.700224304199218750e+01 -1.302021121978759766e+01 1.016871261596679688e+01 2.039087295532226562e+01 9.167876243591308594e+00 3.191682338714599609e+00
1.890000000000000000e+02 7.636246490478515625e+01 -1.225434970855712891e+01 -5.038888752460479736e-02 2.486251640319824219e+01 7.443638324737548828e+00 -1.179110646247863770e+00
1.900000000000000000e+02 7.579698181152343750e+01 -1.229768848419189453e+01 9.630984067916870117e-01 1.989061546325683594e+01 6.256114482879638672e+00 -7.684025764465332031e+00
1.910000000000000000e+02 7.468943786621093750e+01 -1.361716747283935547e+01 -2.992445945739746094e+00 9.516056627035140991e-02 -8.691856265068054199e-01 -9.318294376134872437e-02
1.920000000000000000e+02 7.552851867675781250e+01 -1.443605041503906250e+01 2.341631412506103516e+00 1.414954471588134766e+01 4.947352886199951172e+00 8.070630073547363281e+00
1.930000000000000000e+02 7.613763427734375000e+01 -1.450203609466552734e+01 -7.829210758209228516e-01 2.486409568786621094e+01 7.224352836608886719e+00 3.097747087478637695e+00
1.940000000000000000e+02 7.632196044921875000e+01 -1.446563529968261719e+01 -2.657533884048461914e-01 2.615258979797363281e+01 7.766050815582275391e+00 4.843573570251464844e-01
1.950000000000000000e+02 7.674165344238281250e+01 -1.420080947875976562e+01 4.082244396209716797e+00 2.489737510681152344e+01 8.693885803222656250e+00 -4.553386211395263672e+00
1.960000000000000000e+02 7.695782470703125000e+01 -1.384833717346191406e+01 9.517417907714843750e+00 2.145111656188964844e+01 9.290560722351074219e+00 -4.706546306610107422e+00
1.970000000000000000e+02 7.350833892822265625e+01 -1.367708015441894531e+01 -3.448385238647460938e+00 2.126334793865680695e-02 -1.028136610984802246e+00 -3.259281516075134277e-01
1.980000000000000000e+02 7.312264251708984375e+01 -1.413618850708007812e+01 -1.444062471389770508e+00 1.241086125373840332e-01 -3.959861695766448975e-01 -2.998053729534149170e-01
1.990000000000000000e+02 7.700409698486328125e+01 -1.364383697509765625e+01 1.177004432678222656e+01 1.983305931091308594e+01 9.480931282043457031e+00 -3.118140220642089844e+00
2.000000000000000000e+02 7.615236663818359375e+01 -1.475334835052490234e+01 -1.239810228347778320e+00 2.210184669494628906e+01 6.258610725402832031e+00 2.791966199874877930e+00
2.010000000000000000e+02 7.711392974853515625e+01 -1.386068534851074219e+01 8.569286346435546875e+00 1.938619232177734375e+01 8.386643409729003906e+00 -4.205485343933105469e+00
2.020000000000000000e+02 7.488894653320312500e+01 -1.358602046966552734e+01 -2.734212636947631836e+00 -1.587810516357421875e-01 -8.678981065750122070e-01 -9.417586028575897217e-02
2.030000000000000000e+02 7.448947143554687500e+01 -1.363990402221679688e+01 -3.200062513351440430e+00 -1.594041660428047180e-02 -9.648008942604064941e-01 -1.528661996126174927e-01
2.040000000000000000e+02 7.665895843505859375e+01 -1.461494159698486328e+01 3.439296782016754150e-01 2.327749633789062500e+01 7.086427688598632812e+00 -2.479868650436401367e+00
2.050000000000000000e+02 7.517776489257812500e+01 -1.204708957672119141e+01 2.535451412200927734e+00 8.999420166015625000e+00 3.460461378097534180e+00 -6.796027660369873047e+00
2.060000000000000000e+02 7.649839782714843750e+01 -1.210814189910888672e+01 -3.133457303047180176e-01 2.328098487854003906e+01 6.890292167663574219e+00 9.132067859172821045e-02
2.070000000000000000e+02 7.678488159179687500e+01 -1.264191722869873047e+01 5.288917064666748047e+00 2.414868164062500000e+01 8.831279754638671875e+00 3.882583141326904297e+00
2.080000000000000000e+02 7.709545898437500000e+01 -1.257291316986083984e+01 5.187837600708007812e+00 2.043932342529296875e+01 7.688148021697998047e+00 3.974633216857910156e+00
2.090000000000000000e+02 7.539028930664062500e+01 -1.242812919616699219e+01 3.932678937911987305e+00 1.118666076660156250e+01 4.535801887512207031e+00 -8.807965278625488281e+00
2.100000000000000000e+02 7.465863800048828125e+01 -1.333214187622070312e+01 -3.974185705184936523e+00 -7.665175199508666992e-02 -1.215251207351684570e+00 -2.585276663303375244e-01
2.110000000000000000e+02 7.647788238525390625e+01 -1.240094947814941406e+01 1.039041519165039062e+00 2.621557617187500000e+01 8.176385879516601562e+00 5.000163912773132324e-01
2.120000000000000000e+02 7.664596557617187500e+01 -1.220584201812744141e+01 4.268254637718200684e-01 2.295127677917480469e+01 7.013430595397949219e+00 1.411069512367248535e+00
2.130000000000000000e+02 7.651142883300781250e+01 -1.468779373168945312e+01 -8.601877093315124512e-01 2.328038024902343750e+01 6.726057529449462891e+00 -5.540145635604858398e-01
2.140000000000000000e+02 7.679266357421875000e+01 -1.449905872344970703e+01 1.317800045013427734e+00 2.252415847778320312e+01 7.152587890625000000e+00 -3.531004905700683594e+00
2.150000000000000000e+02 7.730284881591796875e+01 -1.392999935150146484e+01 6.951350688934326172e+00 1.729247665405273438e+01 7.273148536682128906e+00 -4.092444419860839844e+00
2.160000000000000000e+02 7.731295776367187500e+01 -1.301809692382812500e+01 8.406516075134277344e+00 1.683833312988281250e+01 7.573454856872558594e+00 2.245006561279296875e+00
2.170000000000000000e+02 7.692977142333984375e+01 -1.436773109436035156e+01 3.043835878372192383e+00 2.192145538330078125e+01 7.489587306976318359e+00 -4.519849777221679688e+00
2.180000000000000000e+02 7.705432128906250000e+01 -1.344622898101806641e+01 1.232312774658203125e+01 1.909470939636230469e+01 9.425351142883300781e+00 -1.120913982391357422e+00
2.190000000000000000e+02 7.712397003173828125e+01 -1.366990089416503906e+01 1.095311832427978516e+01 1.915995407104492188e+01 9.033921241760253906e+00 -3.076925754547119141e+00
2.200000000000000000e+02 7.706040954589843750e+01 -1.421003723144531250e+01 4.896401882171630859e+00 2.058014678955078125e+01 7.642964363098144531e+00 -4.913566112518310547e+00
2.210000000000000000e+02 7.695067596435546875e+01 -1.245259189605712891e+01 3.488983631134033203e+00 2.168872451782226562e+01 7.553312301635742188e+00 3.585303068161010742e+00
2.220000000000000000e+02 7.719056701660156250e+01 -1.405922698974609375e+01 6.326762676239013672e+00 1.900405120849609375e+01 7.599244117736816406e+00 -4.825946331024169922e+00
2.230000000000000000e+02 7.735646820068359375e+01 -1.342491054534912109e+01 9.816262245178222656e+00 1.648038864135742188e+01 7.888995170593261719e+00 -7.223872542381286621e-01
2.240000000000000000e+02 7.706846618652343750e+01 -1.323266983032226562e+01 1.158851337432861328e+01 1.926825714111328125e+01 9.257030487060546875e+00 1.187563419342041016e+00
2.250000000000000000e+02 7.728171539306640625e+01 -1.285395336151123047e+01 6.744460582733154297e+00 1.755405044555664062e+01 7.289553165435791016e+00 3.324677228927612305e+00
2.260000000000000000e+02 7.597781372070312500e+01 -1.203496932983398438e+01 -6.288082599639892578e-01 2.039443206787109375e+01 5.929687500000000000e+00 -5.064981937408447266e+00
2.270000000000000000e+02 7.418429565429687500e+01 -1.484990406036376953e+01 1.477597713470458984e+00 2.517178535461425781e+00 1.198432922363281250e+00 2.407191753387451172e+00
2.280000000000000000e+02 7.499790191650390625e+01 -1.481182670593261719e+01 1.989656329154968262e+00 7.371843814849853516e+00 2.808449983596801758e+00 5.381472110748291016e+00
2.290000000000000000e+02 7.538055419921875000e+01 -1.483787918090820312e+01 1.087429881095886230e+00 1.164755821228027344e+01 3.820496559143066406e+00 6.104224205017089844e+00
2.300000000000000000e+02 7.479766845703125000e+01 -1.481117057800292969e+01 2.131925106048583984e+00 5.793836593627929688e+00 2.377728462219238281e+00 4.691652774810791016e+00
2.310000000000000000e+02 7.340509033203125000e+01 -1.495538330078125000e+01 4.961873590946197510e-01 1.075667619705200195e+00 4.715564846992492676e-01 7.762256860733032227e-01
2.320000000000000000e+02 7.533729553222656250e+01 -1.432863044738769531e+01 3.635489463806152344e+00 9.455187797546386719e+00 3.927203178405761719e+00 7.532117843627929688e+00
2.330000000000000000e+02 7.363481140136718750e+01 -1.385200214385986328e+01 -2.453675508499145508e+00 1.166883949190378189e-02 -7.326020002365112305e-01 -2.261782586574554443e-01
2.340000000000000000e+02 7.595490264892578125e+01 -1.476949501037597656e+01 -9.548525810241699219e-01 2.025853919982910156e+01 5.791105747222900391e+00 4.505781173706054688e+00
2.350000000000000000e+02 7.408886718750000000e+01 -1.394150257110595703e+01 -1.363742947578430176e+00 2.549192011356353760e-01 -3.326471447944641113e-01 2.035566717386245728e-01
2.360000000000000000e+02 7.332586669921875000e+01 -1.372390460968017578e+01 -3.294799089431762695e+00 -2.896105870604515076e-04 -9.885266423225402832e-01 -3.823787271976470947e-01
2.370000000000000000e+02 7.361093902587890625e+01 -1.427892398834228516e+01 -6.841602325439453125e-01 3.350253701210021973e-01 -1.047404631972312927e-01 2.225383520126342773e-01
2.380000000000000000e+02 7.387606811523437500e+01 -1.367449378967285156e+01 -3.494593143463134766e+00 1.472823228687047958e-02 -1.043959498405456543e+00 -2.827775180339813232e-01
2.390000000000000000e+02 7.428650665283203125e+01 -1.365732955932617188e+01 -3.349774122238159180e+00 3.008889965713024139e-02 -9.959055781364440918e-01 -1.913152039051055908e-01
2.400000000000000000e+02 7.300664520263671875e+01 -1.303930473327636719e+01 -2.376636743545532227e+00 -1.267632935196161270e-02 -7.167938947677612305e-01 1.137080788612365723e-01
2.410000000000000000e+02 7.444773101806640625e+01 -1.335267162322998047e+01 -4.123016357421875000e+00 -1.717889606952667236e-01 -1.288441658020019531e+00 -3.849589824676513672e-01
2.420000000000000000e+02 7.331426239013671875e+01 -1.292808341979980469e+01 -1.842373967170715332e+00 -1.601255685091018677e-02 -5.575159788131713867e-01 -1.120211556553840637e-01
2.430000000000000000e+02 7.419955444335937500e+01 -1.318637466430664062e+01 -2.805053472518920898e+00 2.679271399974822998e-01 -7.611379027366638184e-01 -2.118991166353225708e-01
2.440000000000000000e+02 7.466432189941406250e+01 -1.306029415130615234e+01 -2.884490191936492920e-01 1.347381025552749634e-01 -4.611327499151229858e-02 -1.123084545135498047e+00
2.450000000000000000e+02 7.556371307373046875e+01 -1.206426525115966797e+01 1.200862884521484375e+00 1.463487434387207031e+01 4.750720977783203125e+00 -7.379540443420410156e+00
2.460000000000000000e+02 7.378516387939453125e+01 -1.245193195343017578e+01 4.386513829231262207e-01 7.817536592483520508e-01 3.661215007305145264e-01 -1.237654924392700195e+00
2.470000000000000000e+02 7.399388122558593750e+01 -1.243380451202392578e+01 8.971218466758728027e-01 1.006856679916381836e+00 5.711935758590698242e-01 -1.653660297393798828e+00
2.480000000000000000e+02 7.437855529785156250e+01 -1.214340209960937500e+01 2.188499689102172852e+00 2.934496164321899414e+00 1.536898732185363770e+00 -3.494343757629394531e+00
2.490000000000000000e+02 7.536051177978515625e+01 -1.205245780944824219e+01 2.104790925979614258e+00 1.180360794067382812e+01 4.172519683837890625e+00 -7.522092819213867188e+00
2.500000000000000000e+02 7.314726257324218750e+01 -1.219959163665771484e+01 1.608208864927291870e-01 5.644931197166442871e-01 2.175942063331604004e-01 -7.067269086837768555e-01
2.510000000000000000e+02 7.478713226318359375e+01 -1.210245132446289062e+01 2.866052627563476562e+00 5.501037597656250000e+00 2.510127067565917969e+00 -5.453751087188720703e+00
2.520000000000000000e+02 7.506525421142578125e+01 -1.232284069061279297e+01 3.746412754058837891e+00 6.775308609008789062e+00 3.156516313552856445e+00 -6.743259906768798828e+00
2.530000000000000000e+02 7.375605010986328125e+01 -1.217782497406005859e+01 1.121529340744018555e+00 1.284402966499328613e+00 7.217797040939331055e-01 -1.670574307441711426e+00
2.540000000000000000e+02 7.411878967285156250e+01 -1.287327098846435547e+01 -5.241197347640991211e-01 3.928721249103546143e-01 -3.937427327036857605e-02 -8.502481579780578613e-01
2.550000000000000000e+02 7.398203277587890625e+01 -1.486810684204101562e+01 1.194135308265686035e+00 2.037864446640014648e+00 9.695999622344970703e-01 1.910010099411010742e+00
2.560000000000000000e+02 7.311844635009765625e+01 -1.394732666015625000e+01 -2.324095726013183594e+00 -5.781440064311027527e-02 -7.145730257034301758e-01 -3.914332091808319092e-01
2.570000000000000000e+02 7.368162536621093750e+01 -1.337985229492187500e+01 -4.282052993774414062e+00 -4.668806120753288269e-02 -1.298622250556945801e+00 -1.635239124298095703e-01
2.580000000000000000e+02 7.322829437255859375e+01 -1.320694828033447266e+01 -3.182183027267456055e+00 -1.090247407555580139e-01 -9.873623847961425781e-01 -1.643103957176208496e-01
2.590000000000000000e+02 7.346711730957031250e+01 -1.340678882598876953e+01 -4.238772392272949219e+00 -1.917729154229164124e-02 -1.277384877204895020e+00 -1.956778913736343384e-01
2.600000000000000000e+02 7.317067718505859375e+01 -1.243577289581298828e+01 -2.959532737731933594e-01 4.313091933727264404e-01 4.060678184032440186e-02 -4.597373008728027344e-01
2.610000000000000000e+02 7.445503234863281250e+01 -1.272765064239501953e+01 1.459002375602722168e+00 1.003597855567932129e+00 7.387800812721252441e-01 -2.039510726928710938e+00
2.620000000000000000e+02 7.473023986816406250e+01 -1.387124252319335938e+01 2.874423861503601074e-01 4.540588259696960449e-01 2.224503606557846069e-01 1.152638673782348633e+00
2.630000000000000000e+02 7.378481292724609375e+01 -1.489347076416015625e+01 9.118692874908447266e-01 1.695294380187988281e+00 7.821491360664367676e-01 1.482993125915527344e+00
2.640000000000000000e+02 7.352703094482421875e+01 -1.468143939971923828e+01 2.406426519155502319e-01 7.988680601119995117e-01 3.118532001972198486e-01 6.791725158691406250e-01
2.650000000000000000e+02 7.400308227539062500e+01 -1.322487640380859375e+01 -3.108023881912231445e+00 4.502222314476966858e-02 -9.189004898071289062e-01 -3.075013756752014160e-01
2.660000000000000000e+02 7.337813568115234375e+01 -1.245468997955322266e+01 -9.186571836471557617e-02 4.237602353096008301e-01 9.956835210323333740e-02 -6.557542681694030762e-01
2.670000000000000000e+02 7.388453674316406250e+01 -1.339756488800048828e+01 -4.366699218750000000e+00 -2.824907749891281128e-02 -1.318484544754028320e+00 -1.220052093267440796e-01
2.680000000000000000e+02 7.326369476318359375e+01 -1.343561744689941406e+01 -4.215942859649658203e+00 -3.734837519004940987e-03 -1.265903353691101074e+00 -2.000602334737777710e-01
2.690000000000000000e+02 7.505316925048828125e+01 -1.272130107879638672e+01 4.530831813812255859e+00 3.482798814773559570e+00 2.404089212417602539e+00 -5.449851512908935547e+00
2.700000000000000000e+02 7.520310211181640625e+01 -1.255870056152343750e+01 4.695060729980468750e+00 6.586219787597656250e+00 3.384384155273437500e+00 -7.274152278900146484e+00
2.710000000000000000e+02 7.335145568847656250e+01 -1.219539356231689453e+01 4.686288833618164062e-01 8.559215068817138672e-01 3.973651230335235596e-01 -9.987095594406127930e-01
2.720000000000000000e+02 7.336913299560546875e+01 -1.474576950073242188e+01 2.079699933528900146e-01 8.645483851432800293e-01 3.217555284500122070e-01 5.458337068557739258e-01
2.730000000000000000e+02 7.389772033691406250e+01 -1.299903964996337891e+01 -1.724996924400329590e+00 1.296621412038803101e-01 -4.786004126071929932e-01 -3.643844723701477051e-01
2.740000000000000000e+02 7.479049682617187500e+01 -1.414784049987792969e+01 2.379875421524047852e+00 2.265696525573730469e+00 1.393671631813049316e+00 3.112556457519531250e+00
2.750000000000000000e+02 7.481446075439453125e+01 -1.446908473968505859e+01 2.641961574554443359e+00 4.110928058624267578e+00 2.025866985321044922e+00 4.322355747222900391e+00
2.760000000000000000e+02 7.503798675537109375e+01 -1.449529647827148438e+01 2.969993352890014648e+00 6.108774662017822266e+00 2.723630428314208984e+00 5.614902973175048828e+00
2.770000000000000000e+02 7.485124969482421875e+01 -1.235585689544677734e+01 3.605206489562988281e+00 4.569128990173339844e+00 2.452300548553466797e+00 -5.382936954498291016e+00
2.780000000000000000e+02 7.410628509521484375e+01 -1.422327613830566406e+01 7.168075442314147949e-02 6.405521035194396973e-01 2.136698514223098755e-01 8.667761087417602539e-01
2.790000000000000000e+02 7.414309692382812500e+01 -1.452579689025878906e+01 1.028823375701904297e+00 1.513769984245300293e+00 7.627780437469482422e-01 1.694948434829711914e+00
2.800000000000000000e+02 7.425261688232421875e+01 -1.302054119110107422e+01 -9.065300822257995605e-01 2.485550045967102051e-01 -1.973925232887268066e-01 -7.500826120376586914e-01
2.810000000000000000e+02 7.471433258056640625e+01 -1.279993438720703125e+01 2.336125373840332031e+00 1.262703061103820801e+00 1.079648494720458984e+00 -2.713865756988525391e+00
2.820000000000000000e+02 7.360135650634765625e+01 -1.275586700439453125e+01 -8.230602145195007324e-01 2.055420279502868652e-01 -1.852554529905319214e-01 -4.871179163455963135e-01
2.830000000000000000e+02 7.422143554687500000e+01 -1.268158340454101562e+01 6.504168510437011719e-01 7.787500619888305664e-01 4.287500679492950439e-01 -1.517818808555603027e+00
2.840000000000000000e+02 7.382248687744140625e+01 -1.272614002227783203e+01 -3.485150933265686035e-01 4.121068716049194336e-01 1.907753199338912964e-02 -8.620682954788208008e-01
2.850000000000000000e+02 7.481506347656250000e+01 -1.257526874542236328e+01 3.316764116287231445e+00 3.002637386322021484e+00 1.895820498466491699e+00 -4.339247226715087891e+00
2.860000000000000000e+02 7.298614501953125000e+01 -1.283803939819335938e+01 -1.600651860237121582e+00 2.591686137020587921e-02 -4.724205136299133301e-01 1.323349121958017349e-02
2.870000000000000000e+02 7.370495605468750000e+01 -1.459480094909667969e+01 4.014040231704711914e-01 9.411567449569702148e-01 4.027682244777679443e-01 8.552396893501281738e-01
2.880000000000000000e+02 7.455985260009765625e+01 -1.418708992004394531e+01 1.398047924041748047e+00 1.423766016960144043e+00 8.465442061424255371e-01 2.091886758804321289e+00
2.890000000000000000e+02 7.315509033203125000e+01 -1.285029697418212891e+01 -1.469192028045654297e+00 8.939626812934875488e-02 -4.139387309551239014e-01 -2.336074039340019226e-02
2.900000000000000000e+02 7.303681182861328125e+01 -1.324442291259765625e+01 -3.146748304367065430e+00 -2.063656002283096313e-01 -1.005934119224548340e+00 -1.034799888730049133e-01
2.910000000000000000e+02 7.358158874511718750e+01 -1.246267414093017578e+01 1.754934936761856079e-01 6.541562080383300781e-01 2.488949149847030640e-01 -9.637719392776489258e-01
2.920000000000000000e+02 7.355354309082031250e+01 -1.218838596343994141e+01 7.441903948783874512e-01 9.775283932685852051e-01 5.165156126022338867e-01 -1.279923439025878906e+00
2.930000000000000000e+02 7.396160125732421875e+01 -1.216555500030517578e+01 1.514196038246154785e+00 1.555375099182128906e+00 9.208713173866271973e-01 -2.145349979400634766e+00
2.940000000000000000e+02 7.315766906738281250e+01 -1.434265708923339844e+01 -1.074704408645629883e+00 2.518136203289031982e-01 -2.468672543764114380e-01 -1.226229295134544373e-01
2.950000000000000000e+02 7.347180938720703125e+01 -1.398483753204345703e+01 -1.960758209228515625e+00 9.970363974571228027e-02 -5.583163499832153320e-01 -2.407191246747970581e-01
2.960000000000000000e+02 7.368237304687500000e+01 -1.366242122650146484e+01 -3.502864122390747070e+00 -5.437758937478065491e-02 -1.067172527313232422e+00 -2.886698842048645020e-01
2.970000000000000000e+02 7.385308074951171875e+01 -1.393584918975830078e+01 -1.867115497589111328e+00 1.311950683593750000e-01 -5.207761526107788086e-01 -3.692555427551269531e-02
2.980000000000000000e+02 7.317375946044921875e+01 -1.455355644226074219e+01 -3.588669002056121826e-01 3.897686600685119629e-01 9.270531125366687775e-03 1.200703084468841553e-01
2.990000000000000000e+02 7.328821563720703125e+01 -1.408056259155273438e+01 -1.749492526054382324e+00 3.676008060574531555e-02 -5.138197541236877441e-01 -2.076558023691177368e-01
3.000000000000000000e+02 7.318871307373046875e+01 -1.476162052154541016e+01 9.330578148365020752e-02 5.895707011222839355e-01 2.048629373311996460e-01 3.061357736587524414e-01
3.010000000000000000e+02 7.430965423583984375e+01 -1.393003749847412109e+01 -8.774646520614624023e-01 2.543886899948120117e-01 -1.869228035211563110e-01 4.677135348320007324e-01
3.020000000000000000e+02 7.493643951416015625e+01 -1.380186271667480469e+01 8.144322037696838379e-01 7.335057854652404785e-01 4.643813967704772949e-01 1.515238165855407715e+00
3.030000000000000000e+02 7.392184448242187500e+01 -1.454978466033935547e+01 6.436048746109008789e-01 1.114469170570373535e+00 5.274222493171691895e-01 1.208727717399597168e+00
3.040000000000000000e+02 7.424990844726562500e+01 -1.339018726348876953e+01 -4.459028720855712891e+00 2.182402163743972778e-01 -1.272236466407775879e+00 -3.997596502304077148e-01
3.050000000000000000e+02 7.436585998535156250e+01 -1.315161705017089844e+01 -2.074886798858642578e+00 4.313576221466064453e-02 -6.095252633094787598e-01 -2.544101178646087646e-01
3.060000000000000000e+02 7.364923858642578125e+01 -1.306840515136718750e+01 -2.358262777328491211e+00 1.041032094508409500e-02 -7.043557167053222656e-01 -1.845513731241226196e-01
3.070000000000000000e+02 7.342524719238281250e+01 -1.313265991210937500e+01 -2.786020755767822266e+00 9.307456202805042267e-03 -8.330140113830566406e-01 -1.058708578348159790e-01
3.080000000000000000e+02 7.524311828613281250e+01 -1.456862926483154297e+01 2.716600179672241211e+00 9.407364845275878906e+00 3.637189388275146484e+00 6.816009044647216797e+00
3.090000000000000000e+02 7.543787384033203125e+01 -1.464896106719970703e+01 1.599074602127075195e+00 1.281367301940917969e+01 4.323824405670166016e+00 6.910988807678222656e+00
3.100000000000000000e+02 7.438841247558593750e+01 -1.483506488800048828e+01 1.761964678764343262e+00 3.341278076171875000e+00 1.530972838401794434e+00 3.066622018814086914e+00
3.110000000000000000e+02 7.458479309082031250e+01 -1.449118137359619141e+01 2.047169446945190430e+00 2.840123653411865234e+00 1.466187953948974609e+00 3.181567192077636719e+00
3.120000000000000000e+02 7.436315155029296875e+01 -1.450934314727783203e+01 1.514666080474853516e+00 2.009258508682250977e+00 1.057177424430847168e+00 2.324777603149414062e+00
3.130000000000000000e+02 7.573481750488281250e+01 -1.450260162353515625e+01 8.080173134803771973e-01 1.838420677185058594e+01 5.757667541503906250e+00 7.208333492279052734e+00
3.140000000000000000e+02 7.633875274658203125e+01 -1.472332000732421875e+01 -1.275950789451599121e+00 2.265212631225585938e+01 6.412852764129638672e+00 8.810727596282958984e-01
3.150000000000000000e+02 7.650545501708984375e+01 -1.448711872100830078e+01 3.482784628868103027e-01 2.510603141784667969e+01 7.636292934417724609e+00 -1.440067529678344727e+00
3.160000000000000000e+02 7.736127471923828125e+01 -1.378331756591796875e+01 7.835398197174072266e+00 1.617046928405761719e+01 7.201760292053222656e+00 -3.186734676361083984e+00
3.170000000000000000e+02 7.719081878662109375e+01 -1.351646232604980469e+01 1.091459465026855469e+01 1.757252883911132812e+01 8.546136856079101562e+00 -1.549652218818664551e+00
3.180000000000000000e+02 7.715576934814453125e+01 -1.293320560455322266e+01 8.596235275268554688e+00 1.931823539733886719e+01 8.374341011047363281e+00 3.213919639587402344e+00
3.190000000000000000e+02 7.720497894287109375e+01 -1.269718551635742188e+01 6.535744190216064453e+00 1.905659294128417969e+01 7.677701473236083984e+00 3.701719284057617188e+00
3.200000000000000000e+02 7.634275054931640625e+01 -1.205461692810058594e+01 -1.022542357444763184e+00 2.275008201599121094e+01 6.518261432647705078e+00 -2.002902746200561523e+00
3.210000000000000000e+02 7.498942565917968750e+01 -1.208035659790039062e+01 2.742452144622802734e+00 7.417191982269287109e+00 3.047893285751342773e+00 -6.210601329803466797e+00
3.220000000000000000e+02 7.465056610107421875e+01 -1.239079380035400391e+01 2.823788881301879883e+00 2.902667522430419922e+00 1.717936873435974121e+00 -3.913581132888793945e+00
3.230000000000000000e+02 7.444031524658203125e+01 -1.243387031555175781e+01 2.198173046112060547e+00 2.042330503463745117e+00 1.272151112556457520e+00 -3.054137468338012695e+00
3.240000000000000000e+02 7.526161193847656250e+01 -1.222430419921875000e+01 3.086228847503662109e+00 9.994443893432617188e+00 3.924201726913452148e+00 -7.647152423858642578e+00
3.250000000000000000e+02 7.724018096923828125e+01 -1.365167331695556641e+01 9.792325019836425781e+00 1.714314079284667969e+01 8.080639839172363281e+00 -2.488509416580200195e+00
3.260000000000000000e+02 7.317249298095703125e+01 -1.301568603515625000e+01 -2.338045597076416016e+00 -5.824151635169982910e-02 -7.188861370086669922e-01 1.862731762230396271e-02
3.270000000000000000e+02 7.317337799072265625e+01 -1.265963840484619141e+01 -1.020517230033874512e+00 2.160738408565521240e-01 -2.413330078125000000e-01 -2.402900606393814087e-01
3.280000000000000000e+02 7.443949890136718750e+01 -1.298957347869873047e+01 -5.465548634529113770e-01 3.259755969047546387e-01 -6.617376953363418579e-02 -9.055740237236022949e-01
3.290000000000000000e+02 7.433535003662109375e+01 -1.420951557159423828e+01 6.634550690650939941e-01 1.048567056655883789e+00 5.136066675186157227e-01 1.418097853660583496e+00
3.300000000000000000e+02 7.420996856689453125e+01 -1.242832946777343750e+01 1.553463697433471680e+00 1.299300074577331543e+00 8.558291196823120117e-01 -2.240920782089233398e+00
3.310000000000000000e+02 7.402495574951171875e+01 -1.267698860168457031e+01 1.047719195485115051e-01 5.880390405654907227e-01 2.078432887792587280e-01 -1.208977341651916504e+00
3.320000000000000000e+02 7.385884094238281250e+01 -1.423223972320556641e+01 -4.391584396362304688e-01 4.908918440341949463e-01 1.552002411335706711e-02 4.440276026725769043e-01
3.330000000000000000e+02 7.706703948974609375e+01 -1.275010395050048828e+01 6.906891822814941406e+00 2.028313064575195312e+01 8.157006263732910156e+00 4.176997661590576172e+00
3.340000000000000000e+02 7.724793243408203125e+01 -1.380647087097167969e+01 8.290758132934570312e+00 1.777562904357910156e+01 7.819915771484375000e+00 -3.537099599838256836e+00
3.350000000000000000e+02 7.337821197509765625e+01 -1.432903480529785156e+01 -7.646166682243347168e-01 3.185901939868927002e-01 -1.338079422712326050e-01 9.135237336158752441e-02
3.360000000000000000e+02 7.338158416748046875e+01 -1.272105503082275391e+01 -1.002870559692382812e+00 2.069059908390045166e-01 -2.387893646955490112e-01 -3.489334881305694580e-01
3.370000000000000000e+02 7.231090545654296875e+01 -1.333834934234619141e+01 -3.014486789703369141e+00 -4.922199994325637817e-02 -9.191126227378845215e-01 -8.940500766038894653e-02
3.380000000000000000e+02 7.253590393066406250e+01 -1.289165115356445312e+01 -1.881195187568664551e+00 2.446791157126426697e-02 -5.570181608200073242e-01 2.464776113629341125e-02
3.390000000000000000e+02 7.093750762939453125e+01 -1.260621452331542969e+01 -1.048607587814331055e+00 1.920921951532363892e-01 -2.569546103477478027e-01 5.289936065673828125e-01
3.400000000000000000e+02 7.165587615966796875e+01 -1.301963615417480469e+01 -1.809064626693725586e+00 8.448768407106399536e-02 -5.173730850219726562e-01 2.886198163032531738e-01
3.410000000000000000e+02 7.098887634277343750e+01 -1.310136222839355469e+01 -1.568384170532226562e+00 1.432568132877349854e-01 -4.275382161140441895e-01 3.550113141536712646e-01
3.420000000000000000e+02 7.275726318359375000e+01 -1.264894676208496094e+01 -1.224338054656982422e+00 8.522601425647735596e-02 -3.417336344718933105e-01 -1.516068447381258011e-02
3.430000000000000000e+02 7.220652770996093750e+01 -1.254938697814941406e+01 -1.032600045204162598e+00 2.913314700126647949e-01 -2.223805785179138184e-01 2.024287581443786621e-01
3.440000000000000000e+02 7.255092620849609375e+01 -1.226917648315429688e+01 -4.072104990482330322e-01 3.079298436641693115e-01 -2.978419698774814606e-02 -5.639021098613739014e-02
3.450000000000000000e+02 7.018965911865234375e+01 -1.270786571502685547e+01 -9.476697444915771484e-01 1.623870581388473511e-01 -2.355848103761672974e-01 6.338008046150207520e-01
3.460000000000000000e+02 7.106900024414062500e+01 -1.358828544616699219e+01 -2.062757015228271484e+00 -6.075179670006036758e-03 -6.206496357917785645e-01 -6.287411600351333618e-02
3.470000000000000000e+02 7.219496154785156250e+01 -1.296146965026855469e+01 -1.955885410308837891e+00 1.024750471115112305e-01 -5.560231208801269531e-01 1.736370176076889038e-01
3.480000000000000000e+02 7.033404541015625000e+01 -1.368556404113769531e+01 -1.436687350273132324e+00 5.987415090203285217e-02 -4.130439758300781250e-01 1.869605667889118195e-02
3.490000000000000000e+02 7.025924682617187500e+01 -1.319738101959228516e+01 -1.188151478767395020e+00 7.899225503206253052e-02 -3.327477872371673584e-01 3.774026036262512207e-01
3.500000000000000000e+02 7.267212677001953125e+01 -1.349297523498535156e+01 -3.772488594055175781e+00 3.066855110228061676e-02 -1.122545957565307617e+00 -3.052821159362792969e-01
3.510000000000000000e+02 7.277353668212890625e+01 -1.284002685546875000e+01 -1.593959808349609375e+00 1.295538097620010376e-01 -4.393218159675598145e-01 1.070692613720893860e-01
3.520000000000000000e+02 7.274871063232421875e+01 -1.303162288665771484e+01 -2.341943025588989258e+00 1.317596584558486938e-01 -6.630550622940063477e-01 3.184482082724571228e-02
3.530000000000000000e+02 7.270606231689453125e+01 -1.247009563446044922e+01 -7.821265459060668945e-01 1.059349328279495239e-01 -2.028574943542480469e-01 -3.855425119400024414e-02
3.540000000000000000e+02 7.252490234375000000e+01 -1.264590072631835938e+01 -1.196688771247863770e+00 2.712646313011646271e-02 -3.508686721324920654e-01 3.892349079251289368e-02
3.550000000000000000e+02 7.165323638916015625e+01 -1.251804256439208984e+01 -1.011345148086547852e+00 2.284033298492431641e-01 -2.348825484514236450e-01 3.954290449619293213e-01
3.560000000000000000e+02 7.177345275878906250e+01 -1.349181842803955078e+01 -2.713189125061035156e+00 2.436864376068115234e-02 -8.066461682319641113e-01 -1.400386542081832886e-01
3.570000000000000000e+02 7.272544097900390625e+01 -1.324527263641357422e+01 -2.932965040206909180e+00 1.526133567094802856e-01 -8.341055512428283691e-01 2.773803845047950745e-02
3.580000000000000000e+02 6.882574462890625000e+01 -1.332870006561279297e+01 -5.453975796699523926e-01 -4.071304202079772949e-02 -1.758331805467605591e-01 3.687709569931030273e-01
3.590000000000000000e+02 6.951456451416015625e+01 -1.329587650299072266e+01 -7.892449498176574707e-01 9.865453094244003296e-02 -2.071771323680877686e-01 4.218486845493316650e-01
3.600000000000000000e+02 6.947547149658203125e+01 -1.281133460998535156e+01 -7.756156921386718750e-01 5.444532260298728943e-02 -2.163511067628860474e-01 5.855404734611511230e-01
3.610000000000000000e+02 6.951573181152343750e+01 -1.380308723449707031e+01 -7.485359311103820801e-01 -1.663540489971637726e-02 -2.295513898134231567e-01 6.283345073461532593e-02
3.620000000000000000e+02 6.883803558349609375e+01 -1.289682579040527344e+01 -5.948603749275207520e-01 -2.931811287999153137e-02 -1.872535347938537598e-01 5.467835664749145508e-01
3.630000000000000000e+02 6.795117187500000000e+01 -1.339536476135253906e+01 -4.390963166952133179e-02 -2.026463150978088379e-01 -7.396678626537322998e-02 7.108750939369201660e-02
3.640000000000000000e+02 6.864185333251953125e+01 -1.389250469207763672e+01 -1.577947735786437988e-01 6.727012991905212402e-02 -2.715739421546459198e-02 1.144532114267349243e-01
3.650000000000000000e+02 6.831046295166015625e+01 -1.305835151672363281e+01 -3.935019373893737793e-01 -2.704117000102996826e-01 -1.991740912199020386e-01 4.435713589191436768e-01
3.660000000000000000e+02 6.915425872802734375e+01 -1.528317165374755859e+01 -1.562698781490325928e-01 -4.773579537868499756e-01 -1.900883466005325317e-01 -4.474769830703735352e-01
3.670000000000000000e+02 6.981649780273437500e+01 -1.516665935516357422e+01 -2.668253779411315918e-01 -2.599357366561889648e-01 -1.580283343791961670e-01 -6.265710592269897461e-01
3.680000000000000000e+02 6.849820709228515625e+01 -1.521993160247802734e+01 -2.686466462910175323e-02 -2.615236043930053711e-01 -8.651648461818695068e-02 -9.071637690067291260e-02
3.690000000000000000e+02 6.962475585937500000e+01 -1.444882297515869141e+01 -4.481623172760009766e-01 -1.338553130626678467e-01 -1.746052801609039307e-01 -3.041242361068725586e-01
3.700000000000000000e+02 6.880525207519531250e+01 -1.459250164031982422e+01 -6.405489146709442139e-02 -8.665804564952850342e-02 -4.521388188004493713e-02 -1.086165979504585266e-01
3.710000000000000000e+02 6.865592193603515625e+01 -1.638172149658203125e+01 -1.028181333094835281e-02 -1.021062135696411133e+00 -3.094031810760498047e-01 -2.033687531948089600e-01
3.720000000000000000e+02 7.097187805175781250e+01 -1.639727592468261719e+01 3.404778540134429932e-01 1.977978795766830444e-01 1.614827215671539307e-01 -4.241225421428680420e-01
3.730000000000000000e+02 7.176808929443359375e+01 -1.552333259582519531e+01 1.199893578886985779e-01 3.040866553783416748e-01 1.272228062152862549e-01 -3.324939310550689697e-01
3.740000000000000000e+02 7.065397644042968750e+01 -1.577335548400878906e+01 8.943566679954528809e-02 -8.846096694469451904e-02 2.924108121078461409e-04 -6.335631012916564941e-01
3.750000000000000000e+02 6.948767852783203125e+01 -2.519230461120605469e+01 -6.456760168075561523e-01 -9.578875303268432617e-01 -4.810690581798553467e-01 -5.427718758583068848e-01
3.760000000000000000e+02 7.813120269775390625e+01 -3.043453598022460938e+01 -6.682946532964706421e-02 1.123167705535888672e+01 3.349454402923583984e+00 3.697796761989593506e-01
3.770000000000000000e+02 7.941707611083984375e+01 -2.639627838134765625e+01 -3.159843757748603821e-02 1.355233955383300781e+01 4.056222438812255859e+00 3.486597910523414612e-03
3.780000000000000000e+02 7.832954406738281250e+01 -2.346862602233886719e+01 -6.218001991510391235e-02 1.207100582122802734e+01 3.602647542953491211e+00 -1.162416189908981323e-01
3.790000000000000000e+02 7.944419860839843750e+01 -2.221495056152343750e+01 -2.023085020482540131e-02 1.364215946197509766e+01 4.086578369140625000e+00 -1.550066620111465454e-01
3.800000000000000000e+02 6.855628204345703125e+01 -2.493489265441894531e+01 -4.244131445884704590e-01 -3.064259529113769531e+00 -1.046601891517639160e+00 -7.400984168052673340e-01
3.810000000000000000e+02 6.817247009277343750e+01 -2.629924964904785156e+01 -7.027244567871093750e-01 -3.015318155288696289e+00 -1.115412831306457520e+00 -1.277617216110229492e+00
3.820000000000000000e+02 6.931123352050781250e+01 -3.206648254394531250e+01 -5.823222994804382324e-01 1.161403656005859375e+00 1.737243980169296265e-01 2.594766914844512939e-01
3.830000000000000000e+02 6.472650909423828125e+01 -3.095404815673828125e+01 -2.780883550643920898e+00 -1.709479570388793945e+00 -1.347108960151672363e+00 -2.005320310592651367e+00
3.840000000000000000e+02 6.216969680786132812e+01 -3.247682189941406250e+01 -2.679843425750732422e+00 -8.565170168876647949e-01 -1.060908079147338867e+00 -1.303218483924865723e+00
3.850000000000000000e+02 6.074878692626953125e+01 -3.299654388427734375e+01 -2.319130420684814453e+00 -5.508390665054321289e-01 -8.609908223152160645e-01 -8.277689218521118164e-01
3.860000000000000000e+02 5.581628036499023438e+01 -3.355051803588867188e+01 -6.348574757575988770e-01 1.176899224519729614e-01 -1.551502645015716553e-01 -2.540035247802734375e-01
3.870000000000000000e+02 5.453142166137695312e+01 -3.087588310241699219e+01 -9.073281288146972656e-02 1.441014707088470459e-01 1.601059921085834503e-02 -5.548342689871788025e-02
3.880000000000000000e+02 5.243305969238281250e+01 -3.172485160827636719e+01 -2.042213827371597290e-01 6.226640343666076660e-01 1.255327910184860229e-01 -2.671590447425842285e-01
3.890000000000000000e+02 4.562779998779296875e+01 -3.208169174194335938e+01 -1.922630667686462402e-01 2.444011211395263672e+00 6.755244731903076172e-01 -7.498572468757629395e-01
3.900000000000000000e+02 3.476564407348632812e+01 -2.846022987365722656e+01 1.206502199172973633e+00 5.725834369659423828e+00 2.079700946807861328e+00 1.829103231430053711e+00
3.910000000000000000e+02 3.219421386718750000e+01 -2.961122703552246094e+01 1.625664591789245605e+00 2.645060539245605469e+00 1.281217575073242188e+00 1.957340955734252930e+00
3.920000000000000000e+02 3.105125617980957031e+01 -3.038376235961914062e+01 1.214341282844543457e+00 1.606777787208557129e+00 8.463357090950012207e-01 1.338189482688903809e+00
3.930000000000000000e+02 2.785679244995117188e+01 -3.578763198852539062e+01 -1.600503027439117432e-01 9.851966500282287598e-01 2.475439161062240601e-01 5.450297594070434570e-01
3.940000000000000000e+02 2.918627548217773438e+01 -3.861557388305664062e+01 -3.875304162502288818e-01 1.626604199409484863e+00 3.717221617698669434e-01 4.456052780151367188e-01
3.950000000000000000e+02 3.607679748535156250e+01 -3.818756484985351562e+01 -1.045349955558776855e+00 3.389542102813720703e+00 7.032576203346252441e-01 1.740072518587112427e-01
3.960000000000000000e+02 3.836234664916992188e+01 -3.653920364379882812e+01 -1.032127618789672852e+00 3.634109258651733398e+00 7.805945277214050293e-01 -3.767639398574829102e-02
3.970000000000000000e+02 3.605245208740234375e+01 -3.194058036804199219e+01 -4.350041449069976807e-01 4.431869983673095703e+00 1.199059724807739258e+00 4.609528481960296631e-01
3.980000000000000000e+02 5.284065246582031250e+01 -2.879979515075683594e+01 1.099440231919288635e-01 2.469036877155303955e-01 1.070543080568313599e-01 -1.789901554584503174e-01
3.990000000000000000e+02 4.978493881225585938e+01 -2.736421394348144531e+01 2.953998744487762451e-01 7.173726558685302734e-01 3.038317561149597168e-01 -4.809864163398742676e-01
4.000000000000000000e+02 4.424450302124023438e+01 -1.994479179382324219e+01 1.316449522972106934e+00 3.156020164489746094e+00 1.341740965843200684e+00 -1.849493026733398438e+00
4.010000000000000000e+02 4.203171539306640625e+01 -1.634210395812988281e+01 1.267509460449218750e+00 1.282368087768554688e+01 4.227356910705566406e+00 -2.847058534622192383e+00
4.020000000000000000e+02 4.146589660644531250e+01 -1.352766513824462891e+01 4.114706516265869141e-01 1.402725696563720703e+01 4.331618309020996094e+00 -1.218889474868774414e+00
4.030000000000000000e+02 4.137199783325195312e+01 -1.210353279113769531e+01 8.608987927436828613e-02 1.404097652435302734e+01 4.238120079040527344e+00 -8.618354201316833496e-01
4.040000000000000000e+02 4.130425262451171875e+01 -1.069592761993408203e+01 4.058609306812286377e-01 1.511725616455078125e+01 4.656935214996337891e+00 -4.380616247653961182e-01
4.050000000000000000e+02 4.154449081420898438e+01 -6.530309200286865234e+00 1.174256324768066406e+00 1.702543258666992188e+01 5.459907054901123047e+00 2.946038007736206055e+00
4.060000000000000000e+02 4.045145797729492188e+01 -6.407010078430175781e+00 1.285022735595703125e+00 1.320667457580566406e+01 4.347508907318115234e+00 1.513130545616149902e+00
4.070000000000000000e+02 4.374565887451171875e+01 -9.845870733261108398e-02 -1.901843905448913574e+00 4.915187835693359375e+00 9.040031433105468750e-01 1.185316681861877441e+00
4.080000000000000000e+02 3.955800628662109375e+01 6.776550292968750000e+00 2.276591062545776367e+00 1.465875244140625000e+01 5.080603122711181641e+00 5.424749851226806641e+00
4.090000000000000000e+02 4.004124450683593750e+01 8.125129699707031250e+00 1.868709683418273926e+00 1.492808151245117188e+01 5.039037227630615234e+00 4.837997913360595703e+00
4.100000000000000000e+02 4.009741592407226562e+01 5.011023998260498047e+00 5.546053051948547363e-01 1.126090049743652344e+01 3.544651746749877930e+00 3.186464309692382812e+00
4.110000000000000000e+02 3.828970336914062500e+01 4.136396884918212891e+00 1.974791169166564941e+00 1.006306743621826172e+01 3.611357688903808594e+00 4.310431957244873047e+00
4.120000000000000000e+02 4.074072265625000000e+01 -5.048483848571777344e+00 6.299592256546020508e-01 1.338839912414550781e+01 4.205507278442382812e+00 2.137164115905761719e+00
4.130000000000000000e+02 4.010445022583007812e+01 -1.207794380187988281e+01 5.870421528816223145e-01 1.225420856475830078e+01 3.852375268936157227e+00 -2.926717400550842285e-01
4.140000000000000000e+02 3.255427932739257812e+01 -1.781210517883300781e+01 -2.572191715240478516e+00 -2.248863130807876587e-01 -8.391233682632446289e-01 8.710945844650268555e-01
4.150000000000000000e+02 3.840243911743164062e+01 -1.668610763549804688e+01 1.010850965976715088e-01 8.082766532897949219e+00 2.455155372619628906e+00 3.879217505455017090e-01
4.160000000000000000e+02 3.557951736450195312e+01 -2.193230247497558594e+01 2.126912027597427368e-01 8.636948585510253906e+00 2.654891967773437500e+00 5.106541514396667480e-01
4.170000000000000000e+02 3.515649032592773438e+01 -1.973376655578613281e+01 -2.872669398784637451e-01 5.955735683441162109e+00 1.700540661811828613e+00 6.886284798383712769e-03
4.180000000000000000e+02 4.224137878417968750e+01 1.209116363525390625e+01 1.148585915565490723e+00 9.786467552185058594e+00 3.280515909194946289e+00 2.855969429016113281e+00
4.190000000000000000e+02 4.165538024902343750e+01 1.798337936401367188e+01 1.856271028518676758e-01 8.231171607971191406e+00 2.525039434432983398e+00 5.445152521133422852e-01
4.200000000000000000e+02 4.167861557006835938e+01 2.650587081909179688e+01 1.069659441709518433e-01 6.190981388092041016e+00 1.889384150505065918e+00 -1.632520854473114014e-01
4.210000000000000000e+02 4.157956695556640625e+01 2.794892883300781250e+01 4.409882128238677979e-01 6.527073860168457031e+00 2.090418577194213867e+00 -6.846682429313659668e-01
4.220000000000000000e+02 4.696680450439453125e+01 1.386842131614685059e+00 -1.121992111206054688e+01 -9.750335812568664551e-01 -3.658486366271972656e+00 4.025908708572387695e-01
4.230000000000000000e+02 4.559604644775390625e+01 1.220509648323059082e+00 -8.314843177795410156e+00 4.898476228117942810e-02 -2.479757308959960938e+00 -4.312659502029418945e-01
4.240000000000000000e+02 4.844754409790039062e+01 1.259391188621520996e+00 -8.808567047119140625e+00 -6.643642783164978027e-01 -2.841879367828369141e+00 1.476266264915466309e+00
4.250000000000000000e+02 5.077232742309570312e+01 2.325850725173950195e+00 -4.982892513275146484e+00 8.263188600540161133e-02 -1.470078229904174805e+00 9.012390673160552979e-02
4.260000000000000000e+02 5.121685791015625000e+01 1.845566332340240479e-01 -5.305398464202880859e+00 -2.509662508964538574e-01 -1.666909456253051758e+00 1.508138418197631836e+00
4.270000000000000000e+02 5.515494537353515625e+01 -8.235975503921508789e-01 -5.652883052825927734e+00 -1.477953940629959106e-01 -1.740203499794006348e+00 7.857576012611389160e-01
4.280000000000000000e+02 6.048307037353515625e+01 -2.160377264022827148e+00 -5.159717082977294922e+00 -8.582671284675598145e-01 -1.805395364761352539e+00 1.903258085250854492e+00
4.290000000000000000e+02 6.417093658447265625e+01 -4.373861312866210938e+00 -2.461492300033569336e+00 -2.198614358901977539e+00 -1.398031949996948242e+00 2.014257907867431641e+00
4.300000000000000000e+02 6.507975006103515625e+01 -5.570570468902587891e+00 -1.587639808654785156e+00 -2.544579505920410156e+00 -1.239665865898132324e+00 1.605870246887207031e+00
4.310000000000000000e+02 7.090383148193359375e+01 -1.203086757659912109e+01 -5.790725350379943848e-01 3.178288936614990234e-01 -7.837308943271636963e-02 5.804164409637451172e-01
4.320000000000000000e+02 6.805365753173828125e+01 -9.740551948547363281e+00 -3.505139648914337158e-01 -5.354834794998168945e-01 -2.657992243766784668e-01 6.869713068008422852e-01
4.330000000000000000e+02 7.834481048583984375e+01 -2.960675477981567383e+00 -9.143859148025512695e-02 9.853374481201171875e+00 2.928580760955810547e+00 -3.530282676219940186e-01
4.340000000000000000e+02 7.810259246826171875e+01 4.217749595642089844e+00 1.302659627981483936e-03 7.845569610595703125e+00 2.354061603546142578e+00 -6.297936439514160156e-01
4.350000000000000000e+02 7.808432769775390625e+01 1.115941238403320312e+01 2.409978210926055908e-02 5.862072467803955078e+00 1.765851616859436035e+00 -5.690084099769592285e-01
4.360000000000000000e+02 7.804179382324218750e+01 1.951451683044433594e+01 3.188288956880569458e-02 4.097270011901855469e+00 1.238745927810668945e+00 -3.368669450283050537e-01
4.370000000000000000e+02 7.663352966308593750e+01 2.374209022521972656e+01 7.144939899444580078e-02 3.527889490127563477e+00 1.079801678657531738e+00 -3.600901961326599121e-01
4.380000000000000000e+02 7.933091735839843750e+01 3.193778991699218750e+01 2.504135947674512863e-03 2.929784774780273438e+00 8.796866536140441895e-01 -2.177917584776878357e-02
4.390000000000000000e+02 7.597014617919921875e+01 3.849369430541992188e+01 3.591747581958770752e-02 2.961029052734375000e+00 8.990839123725891113e-01 -3.546145930886268616e-02
4.400000000000000000e+02 7.888961029052734375e+01 3.746538162231445312e+01 2.938718535006046295e-03 2.829706668853759766e+00 8.497936725616455078e-01 -8.717796765267848969e-03
4.410000000000000000e+02 7.114801025390625000e+01 3.790244674682617188e+01 9.473871439695358276e-02 3.116227149963378906e+00 9.632897377014160156e-01 -7.203146815299987793e-02
4.420000000000000000e+02 6.731125640869140625e+01 3.779488754272460938e+01 1.558717340230941772e-01 3.205347299575805664e+00 1.008365750312805176e+00 -4.922160878777503967e-02
4.430000000000000000e+02 7.332830810546875000e+01 3.155353927612304688e+01 1.346664279699325562e-01 3.129490613937377930e+00 9.792470932006835938e-01 -2.084311097860336304e-01
4.440000000000000000e+02 7.218740081787109375e+01 2.412186813354492188e+01 3.073506355285644531e-01 3.258962392807006836e+00 1.069893956184387207e+00 -5.983352661132812500e-01
4.450000000000000000e+02 7.260203552246093750e+01 1.650725364685058594e+01 3.386691808700561523e-01 3.666545867919921875e+00 1.201564431190490723e+00 -1.134539484977722168e+00
4.460000000000000000e+02 7.324585723876953125e+01 9.962186813354492188e+00 1.747615635395050049e-01 4.421934604644775391e+00 1.379008889198303223e+00 -1.488448143005371094e+00
4.470000000000000000e+02 7.319158935546875000e+01 1.874651193618774414e+00 -2.460304349660873413e-01 5.138649463653564453e+00 1.467785716056823730e+00 -1.425287485122680664e+00
4.480000000000000000e+02 6.625698089599609375e+01 -5.157709598541259766e+00 -1.518017768859863281e+00 -8.379123210906982422e-01 -7.067790031433105469e-01 8.153287172317504883e-01
4.490000000000000000e+02 6.622416687011718750e+01 -3.705094337463378906e+00 -1.721101880073547363e+00 -2.933266460895538330e-01 -6.043285727500915527e-01 4.080114960670471191e-01
4.500000000000000000e+02 7.953346252441406250e+01 -5.599794864654541016e+00 -1.791214197874069214e-02 1.141378974914550781e+01 3.418763399124145508e+00 2.352212928235530853e-02
4.510000000000000000e+02 5.250434494018554688e+01 -2.887980043888092041e-01 -4.803433895111083984e+00 -1.956972992047667503e-03 -1.441617250442504883e+00 1.072408795356750488e+00
4.520000000000000000e+02 5.382020568847656250e+01 -5.934073328971862793e-01 -5.164453506469726562e+00 -5.277000740170478821e-02 -1.565167069435119629e+00 7.909702062606811523e-01
4.530000000000000000e+02 6.562912750244140625e+01 -6.926419734954833984e+00 -5.905594229698181152e-01 -2.347686767578125000e+00 -8.814738392829895020e-01 1.121323585510253906e+00
4.540000000000000000e+02 6.610622406005859375e+01 -8.207190513610839844e+00 -4.025637507438659668e-01 -1.917049288749694824e+00 -6.958839297294616699e-01 8.839060068130493164e-01
4.550000000000000000e+02 6.724132537841796875e+01 -1.056007385253906250e+01 -4.028140008449554443e-01 -1.276615023612976074e+00 -5.038287043571472168e-01 7.657716870307922363e-01
4.560000000000000000e+02 7.960739898681640625e+01 -8.323319435119628906e+00 -4.979294538497924805e-02 1.052275466918945312e+01 3.141888380050659180e+00 3.672981262207031250e-01
4.570000000000000000e+02 1.005280303955078125e+01 -1.526284980773925781e+01 1.227260231971740723e+00 5.300236940383911133e-01 5.271852016448974609e-01 4.040904939174652100e-01
4.580000000000000000e+02 1.010315990447998047e+01 -1.408785152435302734e+01 7.148962020874023438e-01 5.359859466552734375e-01 3.752646446228027344e-01 9.050361812114715576e-02
4.590000000000000000e+02 3.795305490493774414e+00 -1.922944664955139160e+00 -1.169234067201614380e-01 -2.002580650150775909e-02 -4.108476638793945312e-02 -1.052946969866752625e-01
4.600000000000000000e+02 5.995504856109619141e-01 -1.080433654785156250e+01 -1.900906907394528389e-03 -9.229126572608947754e-01 -2.774440646171569824e-01 -8.855587244033813477e-02
4.610000000000000000e+02 1.813109636306762695e+00 -1.103272628784179688e+01 9.623568621464073658e-04 -6.915624737739562988e-01 -2.071800231933593750e-01 -2.418037205934524536e-01
4.620000000000000000e+02 6.773336887359619141e+00 -1.948569297790527344e+01 3.780670166015625000e-01 1.541511178016662598e+00 5.758734345436096191e-01 7.410331964492797852e-01
4.630000000000000000e+02 5.740081071853637695e-01 -1.784297752380371094e+01 2.754245698451995850e-02 -1.696624755859375000e+00 -5.007246732711791992e-01 -4.256084561347961426e-03
4.640000000000000000e+02 8.860330581665039062e+00 -1.678884315490722656e+01 1.624743103981018066e+00 8.833141922950744629e-01 7.524172067642211914e-01 8.816404938697814941e-01
4.650000000000000000e+02 1.006990528106689453e+01 -1.643824195861816406e+01 1.775349736213684082e+00 2.548226714134216309e-01 6.090517044067382812e-01 5.770045518875122070e-01
4.660000000000000000e+02 1.682627677917480469e+01 -1.745811843872070312e+01 7.670096755027770996e-01 9.073273837566375732e-02 2.573227286338806152e-01 -2.549575865268707275e-01
4.670000000000000000e+02 2.217522239685058594e+01 -1.739429283142089844e+01 5.348814129829406738e-01 -8.894130587577819824e-02 1.337820440530776978e-01 5.051680654287338257e-02
4.680000000000000000e+02 2.577619934082031250e+01 -1.751024818420410156e+01 2.398298084735870361e-01 -1.912128739058971405e-02 6.621255725622177124e-02 2.500770390033721924e-01
4.690000000000000000e+02 3.031247138977050781e+01 -1.691750907897949219e+01 -1.044332504272460938e+00 -2.624268829822540283e-01 -3.920277953147888184e-01 7.084026336669921875e-01
4.700000000000000000e+02 2.952868080139160156e+01 -1.767628288269042969e+01 -1.184032440185546875e+00 -7.613751292228698730e-02 -3.780509829521179199e-01 2.409858852624893188e-01
4.710000000000000000e+02 3.141047859191894531e+01 -1.755867958068847656e+01 -2.387891292572021484e+00 -3.522667884826660156e-01 -8.220474123954772949e-01 7.453296184539794922e-01
4.720000000000000000e+02 3.629651641845703125e+01 -2.070159530639648438e+01 2.528934478759765625e-01 7.558944225311279297e+00 2.343551158905029297e+00 8.215641379356384277e-01
4.730000000000000000e+02 3.537507629394531250e+01 -2.318499755859375000e+01 2.009417414665222168e-01 9.839769363403320312e+00 3.012213230133056641e+00 8.952967524528503418e-01
4.740000000000000000e+02 3.515602493286132812e+01 -2.445966529846191406e+01 1.271575450897216797e+00 1.115299701690673828e+01 3.727371692657470703e+00 2.010991334915161133e+00
4.750000000000000000e+02 3.483835220336914062e+01 -2.571046638488769531e+01 1.413413643836975098e+00 9.215198516845703125e+00 3.188583850860595703e+00 3.052551746368408203e+00
4.760000000000000000e+02 3.449434661865234375e+01 -2.692121315002441406e+01 1.595170259475708008e+00 6.870100498199462891e+00 2.539581298828125000e+00 2.820032119750976562e+00
4.770000000000000000e+02 2.977770233154296875e+01 -3.100567626953125000e+01 4.882247745990753174e-01 6.640651226043701172e-01 3.456869721412658691e-01 7.150989174842834473e-01
4.780000000000000000e+02 2.413204956054687500e+01 -3.168592643737792969e+01 -7.067822217941284180e-01 5.869328975677490234e-03 -2.102738618850708008e-01 -5.907398462295532227e-02
4.790000000000000000e+02 2.284419059753417969e+01 -3.736510467529296875e+01 -1.005788296461105347e-01 1.569334864616394043e-01 1.690639741718769073e-02 7.181725651025772095e-02
4.800000000000000000e+02 2.350566291809082031e+01 -3.479603195190429688e+01 -2.239831686019897461e-01 9.831494837999343872e-02 -3.770046681165695190e-02 5.179877951741218567e-02
4.810000000000000000e+02 1.881355476379394531e+01 -3.198394966125488281e+01 -6.414935588836669922e-01 -1.205725409090518951e-02 -1.960652470588684082e-01 -2.728700637817382812e-02
4.820000000000000000e+02 1.744300842285156250e+01 -3.213948822021484375e+01 -6.441510319709777832e-01 -3.857864812016487122e-02 -2.048189043998718262e-01 1.705963350832462311e-02
4.830000000000000000e+02 1.701949691772460938e+01 -3.871340942382812500e+01 -4.506625607609748840e-02 -1.406743079423904419e-01 -5.572216957807540894e-02 6.451629567891359329e-03
4.840000000000000000e+02 1.598548603057861328e+01 -3.212106323242187500e+01 -6.293698549270629883e-01 -4.445370659232139587e-02 -2.021470814943313599e-01 6.831230968236923218e-02
4.850000000000000000e+02 8.807149887084960938e+00 -3.179283905029296875e+01 -4.246021211147308350e-01 -3.291234672069549561e-01 -2.261176705360412598e-01 2.095516622066497803e-01
4.860000000000000000e+02 9.318350791931152344e+00 -3.670837783813476562e+01 -6.005019694566726685e-02 -2.161002904176712036e-01 -8.284514397382736206e-02 4.106141626834869385e-02
4.870000000000000000e+02 1.127759265899658203e+01 -3.640069198608398438e+01 -1.050367727875709534e-01 -2.305602729320526123e-01 -1.006791144609451294e-01 6.996367871761322021e-02
4.880000000000000000e+02 9.250838279724121094e+00 -3.017669677734375000e+01 -8.108672499656677246e-01 -4.833138883113861084e-01 -3.882543444633483887e-01 5.055316090583801270e-01
4.890000000000000000e+02 8.182940483093261719e+00 -2.928647613525390625e+01 -6.088232994079589844e-01 -4.800324738025665283e-01 -3.266567289829254150e-01 5.146847367286682129e-01
4.900000000000000000e+02 6.835904121398925781e-01 -2.894830131530761719e+01 -1.600811816751956940e-02 4.325528740882873535e-01 1.249634250998497009e-01 8.153696358203887939e-02
4.910000000000000000e+02 6.094064712524414062e+00 -2.650159263610839844e+01 -2.872148156166076660e-01 -3.607903420925140381e-01 -1.944015473127365112e-01 3.839777708053588867e-01
4.920000000000000000e+02 5.982700347900390625e+00 -2.371903419494628906e+01 2.550981380045413971e-02 6.531869769096374512e-01 2.036090493202209473e-01 1.991813927888870239e-01
4.930000000000000000e+02 5.722529292106628418e-01 -2.475593185424804688e+01 -1.208744710311293602e-03 -4.280815422534942627e-01 -1.287870854139328003e-01 1.590482294559478760e-01
4.940000000000000000e+02 6.217748165130615234e+00 -2.082794380187988281e+01 3.097836673259735107e-01 1.392923593521118164e+00 5.108121633529663086e-01 5.481882095336914062e-01
4.950000000000000000e+02 7.195902824401855469e+00 -2.843882560729980469e+01 -5.258341431617736816e-01 -5.487311482429504395e-01 -3.223696053028106689e-01 4.904600381851196289e-01
4.960000000000000000e+02 1.095976066589355469e+01 -2.060940504074096680e+00 -4.965905547142028809e-01 4.702220112085342407e-02 -1.348704993724822998e-01 -5.922768265008926392e-02
4.970000000000000000e+02 1.171173381805419922e+01 -2.920751571655273438e+00 -4.784472584724426270e-01 5.511231347918510437e-02 -1.270004808902740479e-01 -8.313311636447906494e-02
4.980000000000000000e+02 1.469208812713623047e+01 -2.561535596847534180e+00 -6.395329236984252930e-01 -4.631299059838056564e-03 -1.932492703199386597e-01 -1.238357834517955780e-02
4.990000000000000000e+02 1.241096687316894531e+01 -2.273930788040161133e+00 -5.574824810028076172e-01 2.831853181123733521e-02 -1.587491780519485474e-01 -3.635423630475997925e-02
5.000000000000000000e+02 6.697541475296020508e-01 -3.184210968017578125e+01 -9.011355228722095490e-03 6.070846915245056152e-01 1.794219911098480225e-01 1.354048959910869598e-02
5.010000000000000000e+02 2.954508543014526367e+00 -3.763727569580078125e+01 -7.696575950831174850e-03 2.719463109970092773e-01 7.927492260932922363e-02 -6.043648719787597656e-02
5.020000000000000000e+02 8.320357799530029297e-01 -3.726552963256835938e+01 -9.571757167577743530e-03 4.777999818325042725e-01 1.404684633016586304e-01 -3.493253514170646667e-02
5.030000000000000000e+02 4.232081985473632812e+01 -4.062649154663085938e+01 -9.684653282165527344e-01 2.997067928314208984e+00 6.085807681083679199e-01 -1.396381705999374390e-01
5.040000000000000000e+02 4.180760574340820312e+01 -3.706015777587890625e+01 -8.877942562103271484e-01 3.265455722808837891e+00 7.132984995841979980e-01 -3.268044888973236084e-01
5.050000000000000000e+02 4.525661087036132812e+01 -3.026582527160644531e+01 -2.533583715558052063e-02 2.582365512847900391e+00 7.671089172363281250e-01 -8.170601725578308105e-01
5.060000000000000000e+02 4.764023590087890625e+01 -4.070558929443359375e+01 -5.646325945854187012e-01 2.003853797912597656e+00 4.317663609981536865e-01 -1.782442033290863037e-01
5.070000000000000000e+02 4.914337539672851562e+01 -3.499270248413085938e+01 -3.000606596469879150e-01 1.595917344093322754e+00 3.887569904327392578e-01 -6.383934020996093750e-01
5.080000000000000000e+02 6.029913330078125000e+01 -3.940227890014648438e+01 6.635784506797790527e-01 -7.808715105056762695e-01 -3.518792986869812012e-02 -3.420156836509704590e-01
5.090000000000000000e+02 5.593932723999023438e+01 -3.584055709838867188e+01 -4.260587096214294434e-01 1.483561396598815918e-01 -8.331076800823211670e-02 -5.408701896667480469e-01
5.100000000000000000e+02 5.341988754272460938e+01 -3.444171524047851562e+01 -2.609778642654418945e-01 5.774082541465759277e-01 9.492912888526916504e-02 -4.200296401977539062e-01
5.110000000000000000e+02 6.334013748168945312e+01 -4.101559448242187500e+01 1.113192081451416016e+00 -4.975930154323577881e-01 1.846797019243240356e-01 -9.719277918338775635e-02
5.120000000000000000e+02 6.390046310424804688e+01 -3.552949905395507812e+01 5.971597973257303238e-03 -8.788663744926452637e-01 -2.618684470653533936e-01 -5.428090095520019531e-01
5.130000000000000000e+02 6.772376251220703125e+01 -3.875934982299804688e+01 9.974076747894287109e-01 1.246706366539001465e+00 6.732342243194580078e-01 1.641349941492080688e-01
5.140000000000000000e+02 7.797489929199218750e+01 -4.166663360595703125e+01 4.505925774574279785e-01 9.609466552734375000e+00 3.018017768859863281e+00 1.266463249921798706e-01
5.150000000000000000e+02 7.784191894531250000e+01 -3.693827819824218750e+01 6.571906618773937225e-03 9.755928993225097656e+00 2.928750276565551758e+00 4.618009626865386963e-01
5.160000000000000000e+02 7.934532928466796875e+01 -3.337370681762695312e+01 1.373730041086673737e-02 1.203897190093994141e+01 3.615812778472900391e+00 1.455649882555007935e-01
5.170000000000000000e+02 6.802383422851562500e+01 -2.971636772155761719e+01 -1.448393702507019043e+00 -8.417161107063293457e-01 -6.870329380035400391e-01 -6.825043559074401855e-01
5.180000000000000000e+02 7.193833923339843750e+01 -4.109540939331054688e+01 7.729519605636596680e-01 4.552680492401123047e+00 1.597689628601074219e+00 1.307120472192764282e-01
5.190000000000000000e+02 7.959884643554687500e+01 -1.102570056915283203e+01 -2.099861353635787964e-01 4.823636054992675781e+00 1.384095072746276855e+00 1.307248234748840332e+00
5.200000000000000000e+02 5.823146438598632812e+01 4.049889755249023438e+01 3.211391344666481018e-02 3.532614946365356445e+00 1.069418668746948242e+00 5.603615939617156982e-02
5.210000000000000000e+02 6.274267196655273438e+01 4.079116439819335938e+01 1.299980431795120239e-01 3.354525089263916016e+00 1.045356988906860352e+00 7.638927083462476730e-03
5.220000000000000000e+02 6.475318145751953125e+01 3.007597923278808594e+01 5.044542551040649414e-01 3.032190799713134766e+00 1.060993552207946777e+00 -1.486165970563888550e-01
5.230000000000000000e+02 6.553857421875000000e+01 2.235237503051757812e+01 8.386944532394409180e-01 2.659531831741333008e+00 1.049467921257019043e+00 -6.219063401222229004e-01
5.240000000000000000e+02 6.593856048583984375e+01 1.884016036987304688e+01 8.984754681587219238e-01 2.461998701095581055e+00 1.008142232894897461e+00 -9.418683052062988281e-01
5.250000000000000000e+02 6.191599273681640625e+01 7.903037071228027344e+00 1.094044148921966553e-01 7.331768870353698730e-01 2.527743875980377197e-01 -1.133815169334411621e+00
5.260000000000000000e+02 6.003491210937500000e+01 2.935418188571929932e-01 -3.463118791580200195e+00 -6.044329404830932617e-01 -1.220265507698059082e+00 5.515519976615905762e-01
5.270000000000000000e+02 6.175857543945312500e+01 9.258086681365966797e-01 -2.436435699462890625e+00 -4.243829250335693359e-01 -8.582456111907958984e-01 2.313895523548126221e-02
5.280000000000000000e+02 5.944167327880859375e+01 3.647826004028320312e+01 2.106698453426361084e-01 3.385864496231079102e+00 1.078960299491882324e+00 1.282977014780044556e-01
5.290000000000000000e+02 5.348108673095703125e+01 2.779040718078613281e+01 8.158926963806152344e-01 3.364977359771728516e+00 1.254261016845703125e+00 5.139307975769042969e-01
5.300000000000000000e+02 5.484737777709960938e+01 2.253160667419433594e+01 1.318147063255310059e+00 2.791782617568969727e+00 1.232978820800781250e+00 4.973278641700744629e-01
5.310000000000000000e+02 5.589030075073242188e+01 1.908311271667480469e+01 1.563857913017272949e+00 2.154905557632446289e+00 1.115629076957702637e+00 2.982465922832489014e-01
5.320000000000000000e+02 5.781159973144531250e+01 7.549351215362548828e+00 -1.241342574357986450e-01 2.579143941402435303e-01 4.013404250144958496e-02 -6.137987971305847168e-01
5.330000000000000000e+02 5.570857620239257812e+01 3.183238804340362549e-01 -4.639220714569091797e+00 -2.730911374092102051e-01 -1.473693490028381348e+00 7.891657352447509766e-01
5.340000000000000000e+02 5.752924728393554688e+01 1.107588291168212891e+00 -3.701635599136352539e+00 -4.279920756816864014e-01 -1.238888382911682129e+00 5.412130951881408691e-01
5.350000000000000000e+02 5.202981948852539062e+01 4.125293350219726562e+01 -2.053403407335281372e-01 3.705335378646850586e+00 1.049998521804809570e+00 4.407952725887298584e-02
5.360000000000000000e+02 4.935504531860351562e+01 3.582847595214843750e+01 -1.009226664900779724e-01 3.752159357070922852e+00 1.095371007919311523e+00 3.132648169994354248e-01
5.370000000000000000e+02 4.986836624145507812e+01 3.339893722534179688e+01 1.484773755073547363e-01 3.785942792892456055e+00 1.180326104164123535e+00 4.223389029502868652e-01
5.380000000000000000e+02 5.102966690063476562e+01 2.667873382568359375e+01 8.448051810264587402e-01 3.678553342819213867e+00 1.357007622718811035e+00 6.304461956024169922e-01
5.390000000000000000e+02 4.661629104614257812e+01 1.759009170532226562e+01 1.261250257492065430e+00 5.020081996917724609e+00 1.884399771690368652e+00 1.675453782081604004e+00
5.400000000000000000e+02 4.889078140258789062e+01 1.330414581298828125e+01 1.955608844757080078e+00 2.942839622497558594e+00 1.469534516334533691e+00 1.668053269386291504e+00
5.410000000000000000e+02 4.676882171630859375e+01 1.149370861053466797e+01 1.995128870010375977e+00 3.937818288803100586e+00 1.779884099960327148e+00 2.222942352294921875e+00
5.420000000000000000e+02 3.943841171264648438e+01 3.954094696044921875e+01 -2.237209230661392212e-01 1.948311686515808105e+00 5.173771977424621582e-01 -2.618881464004516602e-01
5.430000000000000000e+02 3.933712387084960938e+01 3.335743713378906250e+01 4.542944431304931641e-01 2.016319990158081055e+00 7.411842942237854004e-01 -9.745967984199523926e-01
5.440000000000000000e+02 4.080802154541015625e+01 3.077427101135253906e+01 6.110337376594543457e-01 4.352066040039062500e+00 1.488929986953735352e+00 -1.376480937004089355e+00
5.450000000000000000e+02 4.127612304687500000e+01 2.936811256408691406e+01 5.502245426177978516e-01 5.613302230834960938e+00 1.849058032035827637e+00 -1.220960378646850586e+00
5.460000000000000000e+02 4.257987976074218750e+01 2.958709526062011719e+01 5.446476936340332031e-01 5.002443313598632812e+00 1.664127349853515625e+00 -3.780114948749542236e-01
5.470000000000000000e+02 3.456055831909179688e+01 3.945162963867187500e+01 9.294532984495162964e-02 3.891730606555938721e-01 1.446355134248733521e-01 -1.294671893119812012e-01
5.480000000000000000e+02 3.573874282836914062e+01 3.593440628051757812e+01 -1.392899453639984131e-01 1.761847287416458130e-01 1.106843352317810059e-02 -9.740781784057617188e-02
5.490000000000000000e+02 4.160358905792236328e+00 3.820163345336914062e+01 2.726833918131887913e-04 1.058528199791908264e-03 3.993634600192308426e-04 6.555677973665297031e-04
5.500000000000000000e+02 2.001522302627563477e+00 4.166279983520507812e+01 6.196270114742219448e-04 7.483251101803034544e-05 2.083378640236333013e-04 1.964447583304718137e-04
5.510000000000000000e+02 1.234642982482910156e+01 4.133309555053710938e+01 -4.514728061622008681e-05 -7.677747053094208241e-04 -2.438765950500965118e-04 1.758886850439012051e-03
5.520000000000000000e+02 9.580139160156250000e+00 3.457775878906250000e+01 -1.157649559900164604e-03 -6.455410039052367210e-05 -3.666610864456743002e-04 2.192126994486898184e-04
5.530000000000000000e+02 1.633873558044433594e+01 2.810972785949707031e+01 -3.321369411423802376e-03 -1.927174253069097176e-06 -9.969889651983976364e-04 9.902099845930933952e-04
5.540000000000000000e+02 1.692867851257324219e+01 2.945463180541992188e+01 3.852053312584757805e-03 4.280270077288150787e-04 1.284024096094071865e-03 -1.508822781033813953e-03
5.550000000000000000e+02 1.670212364196777344e+01 3.350695419311523438e+01 -1.552764559164643288e-03 1.519805635325610638e-03 -9.887692613119725138e-06 -1.335198176093399525e-03
5.560000000000000000e+02 1.932122802734375000e+01 3.297123718261718750e+01 -6.466590333729982376e-03 -4.248674027621746063e-03 -3.214579308405518532e-03 7.411199621856212616e-03
5.570000000000000000e+02 2.119706344604492188e+01 3.517205047607421875e+01 2.332251518964767456e-03 -4.468921571969985962e-03 -6.410009809769690037e-04 7.949816063046455383e-03
5.580000000000000000e+02 2.143879127502441406e+01 3.790475082397460938e+01 2.061467617750167847e-03 -9.790400974452495575e-03 -2.318680053576827049e-03 9.783517569303512573e-03
5.590000000000000000e+02 1.984691238403320312e+01 3.648799514770507812e+01 4.513534717261791229e-03 -1.899567083455622196e-03 7.841903134249150753e-04 -5.591516848653554916e-03
5.600000000000000000e+02 1.802744674682617188e+01 3.761870193481445312e+01 -2.454926259815692902e-03 3.086535725742578506e-03 1.894828455988317728e-04 -5.993527011014521122e-04
5.610000000000000000e+02 7.674431800842285156e-01 3.467695999145507812e+01 -1.065775984898209572e-03 2.664712374098598957e-04 -2.397914358880370855e-04 -1.463364878873107955e-05
5.620000000000000000e+02 2.233688354492187500e+00 3.047887992858886719e+01 -9.730768506415188313e-04 1.077502674888819456e-04 -2.595979603938758373e-04 -1.853247085819020867e-04
5.630000000000000000e+02 1.218605136871337891e+01 2.648755836486816406e+01 -1.442498061805963516e-03 -2.046883600996807218e-04 -4.941559163853526115e-04 9.959884919226169586e-04
5.640000000000000000e+02 1.520618534088134766e+01 2.253691101074218750e+01 -1.787896617315709591e-03 -1.080808942788280547e-06 -5.366932018660008907e-04 -9.733935439726337790e-05
5.650000000000000000e+02 1.544264316558837891e+01 2.537735176086425781e+01 -2.356331096962094307e-03 3.928408477804623544e-05 -6.951140821911394596e-04 3.181415086146444082e-04
5.660000000000000000e+02 1.581266593933105469e+01 2.676487541198730469e+01 2.842184854671359062e-03 6.702956306980922818e-05 8.727643289603292942e-04 -4.939686041325330734e-04
5.670000000000000000e+02 6.958206892013549805e-01 2.763854408264160156e+01 9.866245090961456299e-04 -6.934585144335869700e-06 2.939069818239659071e-04 -1.432969293091446161e-05
5.680000000000000000e+02 2.044238805770874023e+00 2.618267440795898438e+01 1.003790763206779957e-03 -2.960890196845866740e-05 2.922545536421239376e-04 -7.427706805174238980e-06
5.690000000000000000e+02 1.304144287109375000e+01 1.638133239746093750e+01 -7.548304856754839420e-04 1.486979163018986583e-04 -1.818397722672671080e-04 -4.076858167536556721e-04
5.700000000000000000e+02 1.672743988037109375e+01 1.284307956695556641e+01 8.360258652828633785e-04 7.989562436705455184e-05 2.747764519881457090e-04 2.543864829931408167e-04
5.710000000000000000e+02 1.556242656707763672e+01 1.689987373352050781e+01 -1.101600821129977703e-03 -7.012980859144590795e-06 -3.325841389596462250e-04 -1.694981183391064405e-04
5.720000000000000000e+02 1.631716346740722656e+01 1.418416023254394531e+01 -9.283586405217647552e-04 -6.834441592218354344e-05 -2.990109205711632967e-04 -2.600426378194242716e-04
5.730000000000000000e+02 6.381413340568542480e-01 2.056183624267578125e+01 -8.109416230581700802e-04 -1.621387855266220868e-05 -2.481466508470475674e-04 2.558798223617486656e-05
5.740000000000000000e+02 1.842982649803161621e+00 1.631165313720703125e+01 -7.233059732243418694e-04 -3.187997208442538977e-06 -2.179481962230056524e-04 6.882309207867365330e-06
5.750000000000000000e+02 1.932290077209472656e+01 6.416590690612792969e+00 -7.752586971037089825e-04 -8.528229955118149519e-05 -2.581622975412756205e-04 -2.219981397502124310e-04
5.760000000000000000e+02 1.717490386962890625e+01 1.151466274261474609e+01 -7.744263857603073120e-04 -8.740755583858117461e-05 -2.585501933936029673e-04 -2.396472409600391984e-04
5.770000000000000000e+02 6.123619079589843750e-01 1.492247104644775391e+01 -6.518036825582385063e-04 -5.665843218594091013e-06 -1.972408499568700790e-04 1.314024393650470302e-05
5.780000000000000000e+02 1.861010909080505371e+00 9.259996414184570312e+00 5.367748672142624855e-04 -4.719007847597822547e-05 1.468754489906132221e-04 -2.232612132502254099e-05
5.790000000000000000e+02 9.749515533447265625e+00 1.851170063018798828e+00 1.515619806014001369e-04 1.078307323041372001e-04 7.781781459925696254e-05 -1.244711256731534377e-06
5.800000000000000000e+02 1.130825996398925781e+01 1.677153587341308594e+00 1.345819327980279922e-04 1.416137092746794224e-04 8.285869262181222439e-05 -3.792807183344848454e-05
5.810000000000000000e+02 1.428171539306640625e+01 1.210357546806335449e+00 4.950932634528726339e-05 2.806834527291357517e-04 9.905783372232690454e-05 -1.180722483695717528e-05
5.820000000000000000e+02 1.775253295898437500e+01 1.897321343421936035e+00 1.990775344893336296e-04 2.377542841713875532e-04 1.310495426878333092e-04 1.997265353566035628e-04
5.830000000000000000e+02 1.710039520263671875e+01 1.014200091361999512e+00 1.077885463018901646e-04 1.975701015908271074e-04 9.160759509541094303e-05 1.548706059111282229e-04
5.840000000000000000e+02 2.024369049072265625e+01 1.101365447044372559e+00 2.290233678650110960e-04 2.231921462225727737e-05 7.540277147199958563e-05 -6.676876364508643746e-05
5.850000000000000000e+02 2.229456901550292969e+01 1.603373050689697266e+00 -1.339769660262390971e-04 -1.533516478957608342e-04 -8.619858272140845656e-05 -7.352357351919636130e-05
5.860000000000000000e+02 2.845490694046020508e+00 3.757061004638671875e+00 -1.840104232542216778e-04 -2.987140396726317704e-05 -6.416455289581790566e-05 7.041177741484716535e-05
5.870000000000000000e+02 5.988897085189819336e-01 6.350859642028808594e+00 -2.597834973130375147e-04 -1.170617179013788700e-05 -8.144690218614414334e-05 2.123847116308752447e-05
5.880000000000000000e+02 5.805764675140380859e+00 2.673189401626586914e+00 1.319962175330147147e-04 1.303408498642966151e-04 7.870112312957644463e-05 6.903500889166025445e-06
5.890000000000000000e+02 2.402972984313964844e+01 3.671638107299804688e+01 -5.445521324872970581e-03 -2.570684999227523804e-03 -2.404861850664019585e-03 4.317445680499076843e-03
5.900000000000000000e+02 2.985103988647460938e+01 3.743982315063476562e+01 -1.728596836328506470e-01 -1.494534593075513840e-02 -5.634151026606559753e-02 6.766660511493682861e-02
5.910000000000000000e+02 3.038364791870117188e+01 3.910101699829101562e+01 2.803231775760650635e-02 -1.859674416482448578e-02 2.830672077834606171e-03 1.052428036928176880e-01
5.920000000000000000e+02 3.431566238403320312e+01 3.641186141967773438e+01 -2.296578139066696167e-01 7.766811549663543701e-02 -4.559690877795219421e-02 1.068384665995836258e-02
5.930000000000000000e+02 3.837796401977539062e+01 3.647993850708007812e+01 -3.469648212194442749e-02 1.371786117553710938e+00 4.011268913745880127e-01 -3.882318139076232910e-01
5.940000000000000000e+02 4.170211791992187500e+01 2.223392105102539062e+01 2.571386471390724182e-02 6.322514057159423828e+00 1.904468417167663574e+00 1.501459479331970215e-01
5.950000000000000000e+02 4.146612167358398438e+01 1.513813591003417969e+01 4.038034975528717041e-01 1.010669612884521484e+01 3.153149843215942383e+00 1.416233420372009277e+00
5.960000000000000000e+02 3.308620071411132812e+01 -8.903250098228454590e-01 -4.297039031982421875e+00 -1.077152371406555176e+00 -1.612257480621337891e+00 -2.069500684738159180e+00
5.970000000000000000e+02 3.234696960449218750e+01 -2.738268375396728516e+00 -1.846572041511535645e+00 -4.522641301155090332e-01 -6.896508336067199707e-01 -8.139550685882568359e-01
5.980000000000000000e+02 2.654511833190917969e+01 -3.082334518432617188e+00 -1.563497781753540039e+00 -2.386732846498489380e-01 -5.406513214111328125e-01 -5.358868241310119629e-01
5.990000000000000000e+02 2.387378883361816406e+01 -3.129594326019287109e+00 -9.386199712753295898e-01 5.469106137752532959e-02 -2.651786804199218750e-01 -2.053728401660919189e-01
6.000000000000000000e+02 2.365285682678222656e+01 -2.202592372894287109e+00 -9.414513111114501953e-01 1.109214425086975098e-01 -2.491589635610580444e-01 -7.366827130317687988e-02
6.010000000000000000e+02 2.452310562133789062e+01 -2.021393537521362305e+00 -1.035876512527465820e+00 7.572673261165618896e-02 -2.880449295043945312e-01 -5.885939672589302063e-02
6.020000000000000000e+02 2.127188110351562500e+01 -3.375204801559448242e+00 -6.771113872528076172e-01 -1.859637908637523651e-02 -2.087123394012451172e-01 -7.151966542005538940e-02
6.030000000000000000e+02 2.166990089416503906e+01 -1.374195289611816406e+01 6.742499470710754395e-01 -2.845216095447540283e-01 1.169184967875480652e-01 1.311100125312805176e-01
6.040000000000000000e+02 2.455558204650878906e+01 -1.861523246765136719e+01 3.951469659805297852e-01 -1.991981174796819687e-03 1.179464980959892273e-01 9.353828430175781250e-02
6.050000000000000000e+02 2.109764862060546875e+01 -2.631709337234497070e+00 -7.569316625595092773e-01 -2.125602401793003082e-02 -2.334563136100769043e-01 -5.306658521294593811e-02
6.060000000000000000e+02 1.946075820922851562e+01 -2.782115459442138672e+00 -7.230362296104431152e-01 -5.378327146172523499e-02 -2.330458462238311768e-01 -3.922299668192863464e-02
6.070000000000000000e+02 1.625179672241210938e+01 -2.714394330978393555e+00 -6.784029006958007812e-01 -2.481020614504814148e-02 -2.109639346599578857e-01 -8.273033425211906433e-03
6.080000000000000000e+02 1.801054382324218750e+01 -1.443037414550781250e+01 7.652928233146667480e-01 -1.299855560064315796e-01 1.905921846628189087e-01 3.229420632123947144e-02
6.090000000000000000e+02 1.391287231445312500e+01 -1.436910057067871094e+01 1.003146290779113770e+00 2.080061882734298706e-01 3.633457422256469727e-01 7.422707229852676392e-02
6.100000000000000000e+02 2.895174217224121094e+01 -1.387311267852783203e+01 1.036896944046020508e+00 -3.188038170337677002e-01 2.154279500246047974e-01 7.230038046836853027e-01
6.110000000000000000e+02 2.439902305603027344e+01 -1.393634891510009766e+01 7.366890907287597656e-01 -3.525457382202148438e-01 1.152429953217506409e-01 3.211043775081634521e-01
6.120000000000000000e+02 2.778892707824707031e+01 -1.456589221954345703e+01 6.960666775703430176e-01 -2.810553610324859619e-01 1.245033890008926392e-01 7.476342320442199707e-01
6.130000000000000000e+02 4.314929962158203125e+01 -2.062347793579101562e+01 4.543308019638061523e-01 5.060131072998046875e+00 1.654338479042053223e+00 -1.514955043792724609e+00
6.140000000000000000e+02 4.523700714111328125e+01 -2.093578147888183594e+01 8.695706129074096680e-01 1.798304915428161621e+00 8.003626465797424316e-01 -1.256707310676574707e+00
6.150000000000000000e+02 1.283840560913085938e+01 -1.605439567565917969e+01 1.795989871025085449e+00 1.367459148168563843e-01 5.798207521438598633e-01 -7.116913050413131714e-02
6.160000000000000000e+02 1.610095214843750000e+01 -1.587599563598632812e+01 1.011306762695312500e+00 1.817318238317966461e-02 3.088440001010894775e-01 -1.183332055807113647e-01
6.170000000000000000e+02 4.009162902832031250e+01 -1.061885070800781250e+01 7.030088305473327637e-01 1.248072147369384766e+01 3.955119132995605469e+00 2.310476750135421753e-01
6.180000000000000000e+02 3.068891143798828125e+01 -3.062942504882812500e+00 -2.028425693511962891e+00 -8.593883514404296875e-01 -8.663442134857177734e-01 -1.144035577774047852e+00
6.190000000000000000e+02 3.387617492675781250e+01 -1.998438715934753418e+00 -2.061792135238647461e+00 3.613932728767395020e-01 -5.101196765899658203e-01 -4.777297079563140869e-01
6.200000000000000000e+02 7.936382293701171875e+01 2.787126064300537109e+00 3.386239521205425262e-03 9.134193420410156250e+00 2.741273880004882812e+00 -2.182714194059371948e-01
6.210000000000000000e+02 7.310778045654296875e+01 3.127508401870727539e+00 -1.450339704751968384e-01 5.018183231353759766e+00 1.461944818496704102e+00 -1.504629611968994141e+00
6.220000000000000000e+02 7.310003662109375000e+01 1.119460296630859375e+01 2.241097688674926758e-01 4.240366458892822266e+00 1.339342951774597168e+00 -1.437738180160522461e+00
6.230000000000000000e+02 7.936602783203125000e+01 8.365303039550781250e+00 4.155229777097702026e-03 7.151312828063964844e+00 2.146640300750732422e+00 -2.176374793052673340e-01
6.240000000000000000e+02 7.249226379394531250e+01 1.791003036499023438e+01 3.507575690746307373e-01 3.560166120529174805e+00 1.173277139663696289e+00 -1.033928155899047852e+00
6.250000000000000000e+02 7.935699462890625000e+01 1.672343444824218750e+01 7.327293511480093002e-03 4.718417644500732422e+00 1.417723536491394043e+00 -1.463291049003601074e-01
6.260000000000000000e+02 6.641055297851562500e+01 1.149230003356933594e+01 5.975329875946044922e-01 2.125724315643310547e+00 8.169772028923034668e-01 -1.508812069892883301e+00
6.270000000000000000e+02 5.605276107788085938e+01 8.038231849670410156e+00 3.273238614201545715e-02 2.414893805980682373e-01 8.226653188467025757e-02 -3.923134803771972656e-01
6.280000000000000000e+02 7.231678009033203125e+01 2.574797821044921875e+01 2.682409286499023438e-01 3.226043939590454102e+00 1.048285484313964844e+00 -4.968079626560211182e-01
6.290000000000000000e+02 7.933834838867187500e+01 2.368739318847656250e+01 5.490374751389026642e-03 3.536149024963378906e+00 1.062491893768310547e+00 -8.008983731269836426e-02
6.300000000000000000e+02 6.603008270263671875e+01 1.729987525939941406e+01 8.779103755950927734e-01 2.407550334930419922e+00 9.856382012367248535e-01 -1.077761054039001465e+00
6.310000000000000000e+02 5.546990585327148438e+01 1.569846534729003906e+01 1.651844263076782227e+00 1.610030412673950195e+00 9.785624146461486816e-01 2.179026454687118530e-01
6.320000000000000000e+02 4.670354843139648438e+01 1.900380706787109375e+01 1.071238875389099121e+00 4.997619152069091797e+00 1.820657372474670410e+00 1.415355443954467773e+00
6.330000000000000000e+02 7.165471649169921875e+01 3.108075332641601562e+01 2.084677219390869141e-01 3.128263711929321289e+00 1.001019358634948730e+00 -2.390705049037933350e-01
6.340000000000000000e+02 7.938017272949218750e+01 2.920758056640625000e+01 4.741634242236614227e-03 3.051672458648681641e+00 9.169242382049560547e-01 -3.683032840490341187e-02
6.350000000000000000e+02 6.493990325927734375e+01 2.699950218200683594e+01 6.735084652900695801e-01 2.876239061355590820e+00 1.064924240112304688e+00 -2.976954281330108643e-01
6.360000000000000000e+02 5.329077911376953125e+01 2.309534835815429688e+01 1.253695011138916016e+00 3.071622371673583984e+00 1.297595262527465820e+00 6.368230581283569336e-01
6.370000000000000000e+02 4.856909561157226562e+01 2.433976554870605469e+01 8.585419654846191406e-01 4.227906227111816406e+00 1.525934457778930664e+00 7.198156714439392090e-01
6.380000000000000000e+02 6.077825927734375000e+01 3.273485946655273438e+01 4.293729066848754883e-01 3.206989526748657227e+00 1.090908765792846680e+00 9.377349168062210083e-02
6.390000000000000000e+02 5.557220077514648438e+01 3.266706466674804688e+01 3.874174654483795166e-01 3.416219472885131836e+00 1.141091108322143555e+00 3.306124508380889893e-01
6.400000000000000000e+02 4.996987915039062500e+01 3.116129112243652344e+01 3.983606994152069092e-01 3.803061246871948242e+00 1.260426521301269531e+00 4.849327206611633301e-01
6.410000000000000000e+02 1.080643558502197266e+01 2.929197502136230469e+01 1.586950616911053658e-03 4.649356415029615164e-04 6.155658629722893238e-04 -1.243558217538520694e-04
6.420000000000000000e+02 1.408527946472167969e+01 2.403795433044433594e+01 -1.890245475806295872e-03 1.679576089372858405e-04 -5.166863556951284409e-04 -4.563906986732035875e-04
6.430000000000000000e+02 1.434244632720947266e+01 1.668275642395019531e+01 1.000395743176341057e-03 -9.091821266338229179e-05 2.728432591538876295e-04 1.814890711102634668e-04
6.440000000000000000e+02 1.279399871826171875e+01 1.039925479888916016e+01 -5.995601532049477100e-04 -1.383494818583130836e-04 -2.213729021605104208e-04 1.447824615752324462e-04
6.450000000000000000e+02 6.762622833251953125e+01 -2.763846588134765625e+01 -1.307123899459838867e+00 -3.131978273391723633e+00 -1.331730604171752930e+00 -1.777909517288208008e+00
6.460000000000000000e+02 6.940437316894531250e+01 -1.613657188415527344e+01 5.806892365217208862e-02 -5.244262814521789551e-01 -1.399071961641311646e-01 -5.702999830245971680e-01
6.470000000000000000e+02 6.874736785888671875e+01 -2.082851982116699219e+01 7.525594905018806458e-03 -2.042520284652709961e+00 -6.104983687400817871e-01 -2.892855182290077209e-02
6.480000000000000000e+02 6.873746490478515625e+01 -2.217564582824707031e+01 -2.466812543570995331e-02 -2.178759098052978516e+00 -6.610281467437744141e-01 -4.520443081855773926e-02
6.490000000000000000e+02 6.871195983886718750e+01 -2.354843330383300781e+01 -1.055702939629554749e-01 -2.607635498046875000e+00 -8.139617443084716797e-01 -2.216391861438751221e-01
6.500000000000000000e+02 6.688387298583984375e+01 -2.891432762145996094e+01 -2.218553543090820312e+00 -2.913580417633056641e+00 -1.539640188217163086e+00 -2.169158697128295898e+00
6.510000000000000000e+02 6.349580383300781250e+01 -3.177891349792480469e+01 -2.872536659240722656e+00 -1.304839372634887695e+00 -1.253212809562683105e+00 -1.717159509658813477e+00
6.520000000000000000e+02 5.778657531738281250e+01 -3.307728195190429688e+01 -1.130599021911621094e+00 -9.389819204807281494e-02 -3.673491775989532471e-01 -1.311547905206680298e-01
6.530000000000000000e+02 5.128715896606445312e+01 -2.945653533935546875e+01 9.998531639575958252e-02 6.247529983520507812e-01 2.174214869737625122e-01 -3.702727556228637695e-01
6.540000000000000000e+02 5.102330017089843750e+01 -2.677991867065429688e+01 2.517352700233459473e-01 3.663199543952941895e-01 1.854165643453598022e-01 -3.001168668270111084e-01
6.550000000000000000e+02 5.009415435791015625e+01 -2.577984809875488281e+01 2.877918183803558350e-01 4.252060055732727051e-01 2.138993442058563232e-01 -3.528248369693756104e-01
6.560000000000000000e+02 4.617818450927734375e+01 -2.357238578796386719e+01 5.731385946273803711e-01 1.665721893310546875e+00 6.716581583023071289e-01 -9.270982742309570312e-01
6.570000000000000000e+02 4.722151565551757812e+01 -2.287552642822265625e+01 5.182933807373046875e-01 8.352077603340148926e-01 4.060503244400024414e-01 -6.624296903610229492e-01
6.580000000000000000e+02 4.518373489379882812e+01 -2.428416824340820312e+01 4.960913360118865967e-01 2.451665163040161133e+00 8.843269348144531250e-01 -1.052972555160522461e+00
6.590000000000000000e+02 4.331031799316406250e+01 -1.887903976440429688e+01 1.665569186210632324e+00 5.645886898040771484e+00 2.193436861038208008e+00 -2.830277681350708008e+00
6.600000000000000000e+02 4.255250167846679688e+01 -1.767444610595703125e+01 1.934425234794616699e+00 9.576829910278320312e+00 3.453376531600952148e+00 -3.401519775390625000e+00
6.610000000000000000e+02 4.167236328125000000e+01 -1.494625282287597656e+01 6.272755265235900879e-01 1.395372009277343750e+01 4.374298572540283203e+00 -1.903215765953063965e+00
6.620000000000000000e+02 4.135370254516601562e+01 -7.906894683837890625e+00 7.641587257385253906e-01 1.741115188598632812e+01 5.452592849731445312e+00 1.372401475906372070e+00
6.630000000000000000e+02 4.186186981201171875e+01 -5.181975364685058594e+00 6.000633239746093750e-01 1.478844165802001953e+01 4.616551399230957031e+00 3.276147842407226562e+00
6.640000000000000000e+02 4.255837249755859375e+01 -2.493986606597900391e+00 1.420129895210266113e+00 1.406282806396484375e+01 4.644887447357177734e+00 3.723154783248901367e+00
6.650000000000000000e+02 4.410900878906250000e+01 1.134799838066101074e+00 -4.957254409790039062e+00 4.356895446777343750e+00 -1.801076829433441162e-01 7.827869653701782227e-01
6.660000000000000000e+02 4.989404296875000000e+01 8.166952729225158691e-01 -6.915144920349121094e+00 -6.923310160636901855e-01 -2.282242774963378906e+00 1.606408476829528809e+00
6.670000000000000000e+02 5.782989501953125000e+01 -1.349446415901184082e+00 -5.821049690246582031e+00 -3.458527624607086182e-01 -1.850070714950561523e+00 1.239407896995544434e+00
6.680000000000000000e+02 5.649392700195312500e+01 -1.062207341194152832e+00 -5.887625217437744141e+00 -2.858351469039916992e-01 -1.852038145065307617e+00 9.767749309539794922e-01
6.690000000000000000e+02 5.916695785522460938e+01 -1.700316190719604492e+00 -5.708266258239746094e+00 -6.645849347114562988e-01 -1.911855340003967285e+00 1.566284060478210449e+00
6.700000000000000000e+02 6.177043914794921875e+01 -2.733595848083496094e+00 -4.591670989990234375e+00 -1.319738745689392090e+00 -1.773422956466674805e+00 2.156335115432739258e+00
6.710000000000000000e+02 6.299843597412109375e+01 -3.455584287643432617e+00 -3.676555871963500977e+00 -1.814493536949157715e+00 -1.647314786911010742e+00 2.286308288574218750e+00
6.720000000000000000e+02 7.014549255371093750e+01 -1.208776664733886719e+01 -6.462509632110595703e-01 2.212336510419845581e-01 -1.275051832199096680e-01 6.957540512084960938e-01
6.730000000000000000e+02 6.872126007080078125e+01 -1.230793857574462891e+01 -5.151118040084838867e-01 -1.877212226390838623e-01 -2.108499109745025635e-01 6.551303267478942871e-01
6.740000000000000000e+02 6.836540985107421875e+01 -1.180374622344970703e+01 -4.328883290290832520e-01 -3.326212167739868164e-01 -2.296528667211532593e-01 7.035317420959472656e-01
6.750000000000000000e+02 6.812081146240234375e+01 -1.242345428466796875e+01 -3.902191817760467529e-01 -3.157764077186584473e-01 -2.117986828088760376e-01 5.397573709487915039e-01
6.760000000000000000e+02 6.939193725585937500e+01 -1.214339733123779297e+01 -6.131403446197509766e-01 3.641817718744277954e-02 -1.730166375637054443e-01 7.503928542137145996e-01
6.770000000000000000e+02 6.857054138183593750e+01 -1.114276981353759766e+01 -4.972659945487976074e-01 -3.603302538394927979e-01 -2.572788894176483154e-01 7.714946269989013672e-01
6.780000000000000000e+02 7.164624023437500000e+01 -1.197124481201171875e+01 -3.810036182403564453e-01 3.908330202102661133e-01 2.948826178908348083e-03 3.206454813480377197e-01
6.790000000000000000e+02 7.283257293701171875e+01 -1.187892341613769531e+01 4.085861146450042725e-01 7.920308113098144531e-01 3.601850867271423340e-01 -6.536180377006530762e-01
6.800000000000000000e+02 7.374512481689453125e+01 -1.145568656921386719e+01 1.512049794197082520e+00 2.738797426223754883e+00 1.275254130363464355e+00 -2.572022438049316406e+00
6.810000000000000000e+02 7.370358276367187500e+01 -1.182669448852539062e+01 1.314602255821228027e+00 1.812740802764892578e+00 9.382029175758361816e-01 -2.022434711456298828e+00
6.820000000000000000e+02 7.587686157226562500e+01 -1.158559226989746094e+01 -1.040465712547302246e+00 1.651829910278320312e+01 4.643350124359130859e+00 -4.536813259124755859e+00
6.830000000000000000e+02 7.677325439453125000e+01 -1.191820812225341797e+01 -3.248822987079620361e-01 2.053763389587402344e+01 6.063825607299804688e+00 1.425355672836303711e+00
6.840000000000000000e+02 7.656637573242187500e+01 -1.184446430206298828e+01 -1.140502095222473145e+00 2.079439163208007812e+01 5.896166801452636719e+00 -6.155376508831977844e-02
6.850000000000000000e+02 7.716985321044921875e+01 -1.216418838500976562e+01 1.639715194702148438e+00 1.868620872497558594e+01 6.097777366638183594e+00 3.405494689941406250e+00
6.860000000000000000e+02 7.757872772216796875e+01 -1.299801445007324219e+01 6.414038658142089844e+00 1.468348026275634766e+01 6.329255580902099609e+00 2.402751207351684570e+00
6.870000000000000000e+02 7.683145904541015625e+01 -1.487353420257568359e+01 -6.695678234100341797e-01 2.057414817810058594e+01 5.971374034881591797e+00 -2.516276597976684570e+00
6.880000000000000000e+02 7.953665924072265625e+01 -1.800263595581054688e+01 -1.475915014743804932e-01 1.137055969238281250e+01 3.366890668869018555e+00 -7.866762876510620117e-01
6.890000000000000000e+02 7.517505645751953125e+01 -1.514612007141113281e+01 8.113027215003967285e-01 9.744985580444335938e+00 3.166886568069458008e+00 5.079173088073730469e+00
6.900000000000000000e+02 7.599895477294921875e+01 -1.511440753936767578e+01 -1.638109683990478516e+00 1.800912475585937500e+01 4.911304950714111328e+00 3.224531173706054688e+00
6.910000000000000000e+02 7.407856750488281250e+01 -1.536592578887939453e+01 1.336599230766296387e+00 3.590863943099975586e+00 1.478238940238952637e+00 2.649554014205932617e+00
6.920000000000000000e+02 7.344496917724609375e+01 -1.523240375518798828e+01 8.910825848579406738e-01 1.617717385292053223e+00 7.526400089263916016e-01 1.117615461349487305e+00
6.930000000000000000e+02 7.322565460205078125e+01 -1.527561092376708984e+01 7.061833143234252930e-01 1.307994484901428223e+00 6.042533516883850098e-01 8.834552168846130371e-01
6.940000000000000000e+02 7.231983947753906250e+01 -1.542098140716552734e+01 3.013769388198852539e-01 5.661102533340454102e-01 2.602461576461791992e-01 -3.912693634629249573e-02
6.950000000000000000e+02 7.121231079101562500e+01 -1.564057254791259766e+01 9.634198248386383057e-02 6.442065536975860596e-02 4.822879284620285034e-02 -5.041270256042480469e-01
6.960000000000000000e+02 1.427569198608398438e+01 -1.633260917663574219e+01 1.408831357955932617e+00 1.711940169334411621e-01 4.740076363086700439e-01 -2.758224010467529297e-01
6.970000000000000000e+02 1.969221496582031250e+01 -1.704855537414550781e+01 6.468300223350524902e-01 -9.835226088762283325e-02 1.645433157682418823e-01 -5.705367028713226318e-02
6.980000000000000000e+02 1.933244323730468750e+01 -1.830013465881347656e+01 5.778893232345581055e-01 1.123026851564645767e-02 1.767358779907226562e-01 -1.070082783699035645e-01
6.990000000000000000e+02 2.193681526184082031e+01 -1.867626571655273438e+01 4.925077855587005615e-01 -1.207335386425256729e-02 1.441303342580795288e-01 1.289332751184701920e-02
7.000000000000000000e+02 2.461530685424804688e+01 -1.753153038024902344e+01 3.779221177101135254e-01 -2.342621982097625732e-02 1.063487678766250610e-01 1.545012742280960083e-01
7.010000000000000000e+02 2.121141242980957031e+01 -1.601369094848632812e+01 6.358617544174194336e-01 -1.671616584062576294e-01 1.406100243330001831e-01 6.058496609330177307e-02
7.020000000000000000e+02 2.837331771850585938e+01 -1.799142646789550781e+01 -3.500694930553436279e-01 5.575602874159812927e-02 -8.829403668642044067e-02 7.555171102285385132e-02
7.030000000000000000e+02 3.605741500854492188e+01 -2.580942726135253906e+01 1.495875597000122070e+00 7.514988422393798828e+00 2.703259229660034180e+00 1.080189824104309082e+00
7.040000000000000000e+02 2.693906021118164062e+01 -3.151098442077636719e+01 -5.394192934036254883e-01 1.119503006339073181e-01 -1.282407045364379883e-01 1.015713512897491455e-01
7.050000000000000000e+02 2.276373291015625000e+01 -3.170661354064941406e+01 -7.218761444091796875e-01 -1.149480976164340973e-02 -2.200112938880920410e-01 -6.550157815217971802e-02
7.060000000000000000e+02 2.409369468688964844e+01 -3.331046676635742188e+01 -3.810534775257110596e-01 6.127626448869705200e-02 -9.593316912651062012e-02 1.205186825245618820e-02
7.070000000000000000e+02 2.142422485351562500e+01 -3.171823692321777344e+01 -7.019285559654235840e-01 -1.303980778902769089e-02 -2.144905179738998413e-01 -4.678083583712577820e-02
7.080000000000000000e+02 2.038839149475097656e+01 -3.298004150390625000e+01 -5.411471724510192871e-01 4.096381308045238256e-04 -1.622212678194046021e-01 -5.894727259874343872e-02
7.090000000000000000e+02 1.789625167846679688e+01 -3.400802612304687500e+01 -4.223187863826751709e-01 -7.283496111631393433e-02 -1.485461294651031494e-01 9.851015638560056686e-04
7.100000000000000000e+02 1.179158496856689453e+01 -3.112609291076660156e+01 -7.119144797325134277e-01 -8.559987694025039673e-02 -2.392543107271194458e-01 2.203052043914794922e-01
7.110000000000000000e+02 5.659222602844238281e-01 -1.923138427734375000e+01 1.471549179404973984e-02 -1.646456956863403320e+00 -4.895224273204803467e-01 5.052804201841354370e-02
7.120000000000000000e+02 7.346576213836669922e+00 -1.824452018737792969e+01 9.291031956672668457e-01 1.525309681892395020e+00 7.363238334655761719e-01 9.120647907257080078e-01
7.130000000000000000e+02 9.473266601562500000e+00 -1.898442268371582031e+00 -4.188271164894104004e-01 4.412152990698814392e-02 -1.124116778373718262e-01 -7.674647122621536255e-02
7.140000000000000000e+02 8.669156074523925781e+00 -1.880830764770507812e+00 -3.749293088912963867e-01 3.325919434428215027e-02 -1.025010347366333008e-01 -8.966933935880661011e-02
7.150000000000000000e+02 7.857671737670898438e+00 -1.872820615768432617e+00 -3.279761970043182373e-01 2.209240570664405823e-02 -9.176514297723770142e-02 -1.035457849502563477e-01
7.160000000000000000e+02 6.232193470001220703e+00 -1.868617177009582520e+00 -2.412156462669372559e-01 3.951535094529390335e-03 -7.117923349142074585e-02 -1.210312098264694214e-01
7.170000000000000000e+02 4.608787536621093750e+00 -1.888116836547851562e+00 -1.557700037956237793e-01 -1.257585827261209488e-02 -5.050376057624816895e-02 -1.165256425738334656e-01
7.180000000000000000e+02 2.981456518173217773e+00 -1.985240221023559570e+00 -8.066532015800476074e-02 -3.322895988821983337e-02 -3.416828438639640808e-02 -9.082198143005371094e-02
7.190000000000000000e+02 3.239760637283325195e+00 -2.909630775451660156e+00 -9.034505486488342285e-02 -5.108091980218887329e-02 -4.242779314517974854e-02 -1.338552385568618774e-01
7.200000000000000000e+02 2.162785530090332031e+00 -2.074209690093994141e+00 -4.664922505617141724e-02 -4.455087706446647644e-02 -2.736003138124942780e-02 -6.710144877433776855e-02
7.210000000000000000e+02 1.329389333724975586e+00 -2.169238328933715820e+00 -2.170694991946220398e-02 -4.509651288390159607e-02 -2.004103921353816986e-02 -3.796498477458953857e-02
7.220000000000000000e+02 4.538871943950653076e-01 -2.210457563400268555e+00 -7.969195023179054260e-03 -2.373646572232246399e-02 -9.511698037385940552e-03 -1.449483353644609451e-02
7.230000000000000000e+02 2.088629961013793945e+00 -4.160230255126953125e+01 4.811044037342071533e-02 3.533616960048675537e-01 1.204416379332542419e-01 -1.357648428529500961e-02
7.240000000000000000e+02 1.088506579399108887e+00 -3.859169387817382812e+01 -7.251856150105595589e-04 4.201997816562652588e-01 1.258423775434494019e-01 -3.932317346334457397e-02
7.250000000000000000e+02 5.731402039527893066e-01 -3.458816909790039062e+01 -1.093180617317557335e-03 5.828495621681213379e-01 1.745269149541854858e-01 -1.684572547674179077e-02
7.260000000000000000e+02 5.975098013877868652e-01 -3.323354339599609375e+01 -8.615818805992603302e-03 6.142643690109252930e-01 1.816945523023605347e-01 -5.533489398658275604e-03
7.270000000000000000e+02 4.886657238006591797e+00 -3.154694747924804688e+01 -2.108933478593826294e-01 -7.262430619448423386e-03 -6.544673442840576172e-02 1.034589707851409912e-01
7.280000000000000000e+02 1.954317569732666016e+00 -2.725916481018066406e+01 -8.438755571842193604e-02 8.907432109117507935e-02 1.406030030921101570e-03 3.266365528106689453e-01
7.290000000000000000e+02 6.007079482078552246e-01 -2.614263343811035156e+01 -8.923376910388469696e-03 -5.823014676570892334e-02 -2.014605700969696045e-02 1.449808031320571899e-01
7.300000000000000000e+02 5.977113723754882812e+00 -2.511903572082519531e+01 -4.442466795444488525e-02 1.281661838293075562e-01 2.512245625257492065e-02 2.032270431518554688e-01
7.310000000000000000e+02 1.721479177474975586e+00 -2.196685218811035156e+01 6.428432464599609375e-02 -7.234189510345458984e-01 -1.977403908967971802e-01 3.623467981815338135e-01
7.320000000000000000e+02 5.969905853271484375e+00 -2.227756118774414062e+01 1.580073684453964233e-01 1.144045352935791016e+00 3.906158208847045898e-01 3.600461483001708984e-01
7.330000000000000000e+02 5.629985928535461426e-01 -2.199177932739257812e+01 1.111633609980344772e-02 -1.182609081268310547e+00 -3.514478206634521484e-01 1.338377445936203003e-01
7.340000000000000000e+02 5.880717635154724121e-01 -1.644616508483886719e+01 2.169580431655049324e-03 -1.641143083572387695e+00 -4.916920661926269531e-01 -3.591858595609664917e-02
7.350000000000000000e+02 5.960820913314819336e-01 -1.504134368896484375e+01 1.687089353799819946e-02 -1.518385887145996094e+00 -4.504545032978057861e-01 -6.137581169605255127e-02
7.360000000000000000e+02 6.013710498809814453e-01 -1.362946987152099609e+01 4.152792505919933319e-03 -1.340626358985900879e+00 -4.009420573711395264e-01 -8.352284878492355347e-02
7.370000000000000000e+02 1.805541276931762695e+00 -1.385734748840332031e+01 3.865473717451095581e-02 -9.402385950088500977e-01 -2.704751491546630859e-01 -2.043972462415695190e-01
7.380000000000000000e+02 5.873736739158630371e-01 -9.402128219604492188e+00 -1.796343713067471981e-03 -7.164746522903442383e-01 -2.154812961816787720e-01 -8.405747264623641968e-02
7.390000000000000000e+02 5.763400793075561523e-01 -8.006434440612792969e+00 -5.619380623102188110e-03 -5.247330069541931152e-01 -1.591057181358337402e-01 -7.378476113080978394e-02
7.400000000000000000e+02 4.009181499481201172e+00 -2.739901542663574219e+00 -1.231995895504951477e-01 -3.547881171107292175e-02 -4.760352149605751038e-02 -1.463953852653503418e-01
7.410000000000000000e+02 4.266693115234375000e+00 -3.479898452758789062e+00 -1.290230602025985718e-01 -4.123857244849205017e-02 -5.107848718762397766e-02 -1.832764595746994019e-01
7.420000000000000000e+02 7.511083221435546875e+01 -4.041693878173828125e+01 4.640868604183197021e-01 7.443982601165771484e+00 2.372420787811279297e+00 5.371905118227005005e-02
7.430000000000000000e+02 5.699350738525390625e+01 -4.096819686889648438e+01 4.543129503726959229e-01 -3.215805590152740479e-01 3.981972485780715942e-02 -1.595076322555541992e-01
7.440000000000000000e+02 3.249330902099609375e+01 -3.878316879272460938e+01 -8.032253384590148926e-01 2.644212245941162109e+00 5.522960424423217773e-01 3.885861933231353760e-01
7.450000000000000000e+02 9.067076683044433594e+00 -3.882283020019531250e+01 2.277132496237754822e-02 -1.694410294294357300e-01 -4.400090873241424561e-02 1.326063182204961777e-02
7.460000000000000000e+02 7.858296966552734375e+01 4.030744171142578125e+01 5.126606207340955734e-03 2.838614225387573242e+00 8.531222343444824219e-01 1.399766094982624054e-02
7.470000000000000000e+02 7.805071258544921875e+01 4.175427627563476562e+01 -1.910595409572124481e-02 2.848311185836791992e+00 8.487615585327148438e-01 5.338277202099561691e-03
7.480000000000000000e+02 7.867230987548828125e+01 3.888934707641601562e+01 1.672595180571079254e-02 2.828935146331787109e+00 8.536983132362365723e-01 4.244194831699132919e-03
7.490000000000000000e+02 7.683743286132812500e+01 3.697940063476562500e+01 2.158121764659881592e-02 2.952915430068969727e+00 8.923489451408386230e-01 -3.887863829731941223e-02
7.500000000000000000e+02 7.919449615478515625e+01 3.466780853271484375e+01 1.671685837209224701e-03 2.863829374313354492e+00 8.596503138542175293e-01 -1.471711602061986923e-02
7.510000000000000000e+02 7.783121490478515625e+01 3.296745681762695312e+01 1.319657266139984131e-02 2.974420309066772461e+00 8.962850570678710938e-01 -6.005018576979637146e-02
7.520000000000000000e+02 7.927252960205078125e+01 3.329907989501953125e+01 1.654096413403749466e-03 2.892092704772949219e+00 8.681240081787109375e-01 -1.769150421023368835e-02
7.530000000000000000e+02 7.937026214599609375e+01 3.057224082946777344e+01 3.283031983301043510e-03 2.981290102005004883e+00 8.953719139099121094e-01 -2.784267812967300415e-02
7.540000000000000000e+02 7.814618682861328125e+01 2.911805725097656250e+01 1.962127722799777985e-02 3.123165607452392578e+00 9.428360462188720703e-01 -1.078963428735733032e-01
7.550000000000000000e+02 7.935086059570312500e+01 2.646337890625000000e+01 5.068721715360879898e-03 3.252414941787719727e+00 9.772450923919677734e-01 -5.673104897141456604e-02
7.560000000000000000e+02 7.671704864501953125e+01 2.651744079589843750e+01 5.749094113707542419e-02 3.316632986068725586e+00 1.012237191200256348e+00 -2.587510049343109131e-01
7.570000000000000000e+02 7.934099578857421875e+01 2.507629776000976562e+01 5.800307262688875198e-03 3.382651805877685547e+00 1.016535639762878418e+00 -6.815831363201141357e-02
7.580000000000000000e+02 7.934718322753906250e+01 2.090109443664550781e+01 5.890137515962123871e-03 3.920075416564941406e+00 1.177789688110351562e+00 -1.043430268764495850e-01
7.590000000000000000e+02 7.935224914550781250e+01 1.950944137573242188e+01 6.622265093028545380e-03 4.154876232147216797e+00 1.248449563980102539e+00 -1.176052093505859375e-01
7.600000000000000000e+02 7.802429962158203125e+01 2.090651130676269531e+01 3.155571967363357544e-02 3.892948865890502930e+00 1.177351355552673340e+00 -2.999267578125000000e-01
7.610000000000000000e+02 7.935563659667968750e+01 1.811667823791503906e+01 6.381861865520477295e-03 4.420582771301269531e+00 1.328089475631713867e+00 -1.316445916891098022e-01
7.620000000000000000e+02 7.935673522949218750e+01 1.393540096282958984e+01 7.665028795599937439e-03 5.410664081573486328e+00 1.625498771667480469e+00 -1.759078800678253174e-01
7.630000000000000000e+02 7.935735321044921875e+01 1.254234504699707031e+01 5.278328433632850647e-03 5.804391384124755859e+00 1.742900848388671875e+00 -1.899402439594268799e-01
7.640000000000000000e+02 7.935987091064453125e+01 1.115008544921875000e+01 5.748991388827562332e-03 6.228554248809814453e+00 1.870290994644165039e+00 -2.017828077077865601e-01
7.650000000000000000e+02 7.936775207519531250e+01 6.971606731414794922e+00 -2.555346116423606873e-03 7.637599468231201172e+00 2.290513277053833008e+00 -2.195759117603302002e-01
7.660000000000000000e+02 7.936886596679687500e+01 5.579077720642089844e+00 3.458837978541851044e-03 8.132750511169433594e+00 2.440862894058227539e+00 -2.207202464342117310e-01
7.670000000000000000e+02 7.810517120361328125e+01 5.607890129089355469e+00 -4.011688753962516785e-03 7.444705009460449219e+00 2.232208013534545898e+00 -6.281576752662658691e-01
7.680000000000000000e+02 7.936774444580078125e+01 4.185739517211914062e+00 -4.866220988333225250e-03 8.632726669311523438e+00 2.588358163833618164e+00 -2.195260375738143921e-01
7.690000000000000000e+02 7.936889648437500000e+01 -3.276275098323822021e-02 4.619675688445568085e-03 1.007326126098632812e+01 3.023364305496215820e+00 -1.825180202722549438e-01
7.700000000000000000e+02 7.939669799804687500e+01 -1.436721563339233398e+00 -2.285169996321201324e-02 1.050783634185791016e+01 3.145495414733886719e+00 -1.647593826055526733e-01
7.710000000000000000e+02 7.949211883544921875e+01 -4.222418785095214844e+00 -3.888344019651412964e-02 1.124700069427490234e+01 3.362435102462768555e+00 -6.024539843201637268e-02
7.720000000000000000e+02 7.635800933837890625e+01 -1.179510307312011719e+01 -1.431048274040222168e+00 2.048487472534179688e+01 5.716148376464843750e+00 -1.762071371078491211e+00
7.730000000000000000e+02 7.749059295654296875e+01 -1.195369529724121094e+01 1.326254606246948242e+00 1.633468818664550781e+01 5.298282623291015625e+00 3.562206983566284180e+00
7.740000000000000000e+02 7.729306030273437500e+01 -1.443454647064208984e+01 3.057137012481689453e+00 1.808892440795898438e+01 6.343818664550781250e+00 -4.687034606933593750e+00
7.750000000000000000e+02 7.844486236572265625e+01 -1.917190170288085938e+01 -5.004361867904663086e-01 1.170598030090332031e+01 3.361663103103637695e+00 -9.560222625732421875e-01
7.760000000000000000e+02 7.943988800048828125e+01 -2.361112022399902344e+01 -2.670707926154136658e-02 1.371454524993896484e+01 4.106351375579833984e+00 -9.212057292461395264e-02
7.770000000000000000e+02 7.829592895507812500e+01 -2.485487556457519531e+01 -1.003453135490417480e-01 1.201531696319580078e+01 3.574491500854492188e+00 3.564778482541441917e-03
7.780000000000000000e+02 7.942955780029296875e+01 -2.500299835205078125e+01 -8.942629210650920868e-03 1.367975902557373047e+01 4.101244926452636719e+00 -4.981808364391326904e-02
7.790000000000000000e+02 7.938575744628906250e+01 -2.918405532836914062e+01 -3.994698822498321533e-02 1.307367324829101562e+01 3.910117864608764648e+00 8.852332830429077148e-02
7.800000000000000000e+02 7.807706451416015625e+01 -3.184051704406738281e+01 6.600902415812015533e-03 1.090902805328369141e+01 3.274688720703125000e+00 4.031439721584320068e-01
7.810000000000000000e+02 7.935449981689453125e+01 -3.197897720336914062e+01 -3.242425993084907532e-02 1.240270805358886719e+01 3.711085081100463867e+00 1.312198638916015625e-01
7.820000000000000000e+02 7.933453369140625000e+01 -3.610812377929687500e+01 4.491999372839927673e-02 1.125995922088623047e+01 3.391463994979858398e+00 1.525110304355621338e-01
7.830000000000000000e+02 7.923502349853515625e+01 -3.743083190917968750e+01 -1.127438619732856750e-01 1.078971767425537109e+01 3.203092336654663086e+00 2.563192844390869141e-01
7.840000000000000000e+02 7.901268768310546875e+01 -3.874585342407226562e+01 -6.626788061112165451e-03 1.027784156799316406e+01 3.081364393234252930e+00 3.245991170406341553e-01
7.850000000000000000e+02 7.866443634033203125e+01 -4.012127304077148438e+01 -7.044103741645812988e-02 9.807414054870605469e+00 2.921091794967651367e+00 3.895076513290405273e-01
7.860000000000000000e+02 7.981981754302978516e+00 4.134735107421875000e+01 -3.889641375280916691e-04 2.224227646365761757e-04 -4.996241477783769369e-05 -1.437916536815464497e-03
7.870000000000000000e+02 2.383657646179199219e+01 3.876979064941406250e+01 -4.313814453780651093e-03 9.202107787132263184e-03 1.466488000005483627e-03 1.017368491739034653e-02
7.880000000000000000e+02 4.776185607910156250e+01 4.117511749267578125e+01 -4.187701344490051270e-01 3.680910587310791016e+00 9.786421656608581543e-01 6.095525622367858887e-02
7.890000000000000000e+02 3.846373558044433594e-01 2.175606012344360352e+00 1.737652346491813660e-04 2.920330371125601232e-05 6.089056478231213987e-05 -5.679173409589566290e-05
7.900000000000000000e+02 3.495539665222167969e+00 2.792691707611083984e+00 -1.314986729994416237e-04 -9.726308053359389305e-05 -6.862852751510217786e-05 2.422630313958507031e-05
7.910000000000000000e+02 5.025068283081054688e+00 2.701114654541015625e+00 -1.388805685564875603e-04 -1.295516995014622808e-04 -8.052968041738495231e-05 8.944720320869237185e-06
7.920000000000000000e+02 6.283711791038513184e-01 9.252820968627929688e+00 -3.827025066129863262e-04 1.168323342426447198e-05 -1.113057805923745036e-04 5.157241321285255253e-05
7.930000000000000000e+02 6.056925654411315918e-01 1.210065841674804688e+01 -5.466295406222343445e-04 1.956042979145422578e-06 -1.634020591154694557e-04 1.518032331659924239e-05
7.940000000000000000e+02 1.802613377571105957e+00 1.211881446838378906e+01 5.919060204178094864e-04 -1.482912193750962615e-05 1.731230731820687652e-04 -3.439963393248035572e-06
7.950000000000000000e+02 6.196565032005310059e-01 1.633015823364257812e+01 6.947563961148262024e-04 -6.014633072481956333e-06 2.066225279122591019e-04 -1.527559288660995662e-05
7.960000000000000000e+02 1.864033699035644531e+00 1.770699310302734375e+01 7.613054476678371429e-04 -9.060685442818794399e-06 2.256734151160344481e-04 -3.085687239945400506e-06
7.970000000000000000e+02 6.259568929672241211e-01 1.773943138122558594e+01 -7.357320282608270645e-04 -8.943518878368195146e-06 -2.234026615042239428e-04 2.072257302643265575e-05
7.980000000000000000e+02 6.460788846015930176e-01 2.197397232055664062e+01 8.451311732642352581e-04 -2.298410436196718365e-05 2.466441073920577765e-04 -2.399876211711671203e-05
7.990000000000000000e+02 6.546205282211303711e-01 2.338776969909667969e+01 -8.813767926767468452e-04 -1.824999344535171986e-05 -2.698880562093108892e-04 2.528883851482532918e-05
8.000000000000000000e+02 1.957842707633972168e+00 2.333717727661132812e+01 9.202416986227035522e-04 -2.671327092684805393e-05 2.680585312191396952e-04 -5.630401119560701773e-06
8.010000000000000000e+02 6.656581759452819824e-01 2.480332565307617188e+01 9.167676907964050770e-04 -2.682230660866480321e-05 2.669836103450506926e-04 -2.392649184912443161e-05
8.020000000000000000e+02 7.166010737419128418e-01 2.905946731567382812e+01 -9.879599092528223991e-04 5.540863639907911420e-05 -2.797654015012085438e-04 -3.523028135532513261e-05
8.030000000000000000e+02 7.387717366218566895e-01 3.048074913024902344e+01 1.008551684208214283e-03 7.323641330003738403e-05 3.245364059694111347e-04 3.517047161949449219e-06
8.040000000000000000e+02 3.601349830627441406e+00 2.901095962524414062e+01 -1.050221617333590984e-03 1.960687222890555859e-04 -2.562458976171910763e-04 -2.523880102671682835e-04
8.050000000000000000e+02 7.530912160873413086e-01 3.188991737365722656e+01 -1.022466691210865974e-03 1.303695898968726397e-04 -2.676291333045810461e-04 -4.969189831172116101e-05
8.060000000000000000e+02 7.909335494041442871e-01 3.605871200561523438e+01 9.672339656390249729e-04 2.745904203038662672e-04 3.725473070517182350e-04 -1.167882328445557505e-05
8.070000000000000000e+02 2.475911617279052734e+00 3.717195510864257812e+01 8.794536115601658821e-04 3.811235947068780661e-04 3.781731647904962301e-04 1.738073915475979447e-04
8.080000000000000000e+02 9.779142737388610840e-01 3.878575515747070312e+01 8.410856244154274464e-04 3.827731707133352757e-04 3.671576560009270906e-04 -1.607461890671402216e-04
8.090000000000000000e+02 1.283206701278686523e+00 4.014477539062500000e+01 -9.963259799405932426e-04 2.769627608358860016e-04 -2.158089773729443550e-04 2.257879095850512385e-04
8.100000000000000000e+02 1.053327178955078125e+01 1.787582874298095703e+00 -1.439909392502158880e-04 -1.243508741026744246e-04 -8.050254109548404813e-05 2.804004907375201583e-05
8.110000000000000000e+02 8.962060928344726562e+00 1.867078781127929688e+00 -1.479183993069455028e-04 -1.030979983625002205e-04 -7.530491711804643273e-05 -1.498886831541312858e-05
8.120000000000000000e+02 8.988966941833496094e+00 2.610051155090332031e+00 2.138661802746355534e-04 9.185872477246448398e-05 9.171746933134272695e-05 2.163280259992461652e-05
8.130000000000000000e+02 8.177599906921386719e+00 1.875813364982604980e+00 1.314694818574935198e-04 1.080045112757943571e-04 7.184220157796517015e-05 2.864319867512676865e-05
8.140000000000000000e+02 5.823822975158691406e+00 1.891862630844116211e+00 -9.908718493534252048e-05 -1.274354290217161179e-04 -6.795678200433030725e-05 -5.687089469574857503e-06
8.150000000000000000e+02 5.043924331665039062e+00 1.899560809135437012e+00 1.046210309141315520e-04 1.236992247868329287e-04 6.849607598269358277e-05 -5.919879640714498237e-06
8.160000000000000000e+02 4.267653465270996094e+00 1.911601781845092773e+00 -1.027008547680452466e-04 -1.158769009634852409e-04 -6.557332380907610059e-05 1.174813041870947927e-05
8.170000000000000000e+02 3.490652799606323242e+00 1.933956503868103027e+00 8.532456558896228671e-05 1.084620016627013683e-04 5.813597090309485793e-05 -1.845366205088794231e-05
8.180000000000000000e+02 2.710578203201293945e+00 1.974332809448242188e+00 -5.405365300248377025e-05 -1.060565118677914143e-04 -4.803304909728467464e-05 3.579972326406277716e-05
8.190000000000000000e+02 1.157473206520080566e+00 2.108394622802734375e+00 -7.943851960590109229e-05 -6.828860205132514238e-05 -4.431813795235939324e-05 8.277623419417068362e-05
8.200000000000000000e+02 1.283588027954101562e+01 1.436395049095153809e+00 1.132641773438081145e-04 1.964120310731232166e-04 9.290286106988787651e-05 -6.445380131481215358e-05
8.210000000000000000e+02 1.356876468658447266e+01 1.317804098129272461e+00 -8.247901132563129067e-05 -2.497964305803179741e-04 -9.968263475457206368e-05 5.783956657978706062e-05
8.220000000000000000e+02 1.499250125885009766e+01 1.119526505470275879e+00 -4.697144686360843480e-05 -2.852906181942671537e-04 -9.967861842596903443e-05 -4.743080717162229121e-05
8.230000000000000000e+02 1.569916343688964844e+01 1.052448272705078125e+00 6.449449574574828148e-05 2.655389544088393450e-04 9.901003795675933361e-05 1.035758687066845596e-04
8.240000000000000000e+02 1.639880371093750000e+01 1.019199132919311523e+00 -7.932056178105995059e-05 -2.400680241407826543e-04 -9.581657650414854288e-05 -1.388589880662038922e-04
8.250000000000000000e+02 1.781410598754882812e+01 1.018126368522644043e+00 -1.652157225180417299e-04 -1.363388582831248641e-04 -9.046637569554150105e-05 -1.525568513898178935e-04
8.260000000000000000e+02 1.989373397827148438e+01 5.212065696716308594e+00 7.410474936477839947e-04 6.913161632837727666e-05 2.430537278996780515e-04 1.853951835073530674e-04
8.270000000000000000e+02 2.051400756835937500e+01 2.968386650085449219e+00 5.422182148322463036e-04 -4.350249218987300992e-05 1.496147160651162267e-04 -5.955818778602406383e-05
8.280000000000000000e+02 2.114152908325195312e+01 1.783640503883361816e+00 1.770242488419171423e-05 6.789276085328310728e-05 2.567855517554562539e-05 -9.777984814718365669e-05
8.290000000000000000e+02 2.153002929687500000e+01 2.500758886337280273e+00 1.134394260589033365e-04 1.109733639168553054e-04 6.732383917551487684e-05 1.361545437248423696e-04
8.300000000000000000e+02 2.108355903625488281e+01 1.116052627563476562e+00 -1.321782183367758989e-04 -5.571586007135920227e-05 -5.636822606902569532e-05 1.024679295369423926e-04
8.310000000000000000e+02 1.935700988769531250e+01 1.054440975189208984e+00 -2.693945134524255991e-04 -2.646459734023665078e-06 -8.161229197867214680e-05 3.815986019617412239e-06
8.320000000000000000e+02 1.938124465942382812e+01 2.011990308761596680e+00 4.231244092807173729e-04 -2.307504655618686229e-05 1.200148035422898829e-04 6.194414163473993540e-05
8.330000000000000000e+02 1.874579238891601562e+01 7.651818752288818359e+00 7.774210534989833832e-04 7.320680742850527167e-05 2.551883517298847437e-04 2.379937941441312432e-04
8.340000000000000000e+02 1.767046737670898438e+01 1.020707893371582031e+01 7.547584245912730694e-04 8.307425741804763675e-05 2.513498184271156788e-04 2.309514529770240188e-04
8.350000000000000000e+02 1.591611385345458984e+01 1.553311347961425781e+01 1.025040983222424984e-03 1.217798762809252366e-05 3.111656697001308203e-04 2.351437433389946818e-04
8.360000000000000000e+02 1.521835327148437500e+01 1.970764350891113281e+01 -1.245570718310773373e-03 -3.975897925556637347e-05 -3.855989198200404644e-04 -1.125075286836363375e-04
8.370000000000000000e+02 1.518738651275634766e+01 2.112451362609863281e+01 1.458632177673280239e-03 -1.010347091323637869e-06 4.372865369077771902e-04 1.193514763144776225e-04
8.380000000000000000e+02 1.527108192443847656e+01 2.395465087890625000e+01 2.091472037136554718e-03 -1.533917675260454416e-04 5.814240430481731892e-04 -7.055667811073362827e-05
8.390000000000000000e+02 1.628341484069824219e+01 3.161980056762695312e+01 5.858672317117452621e-03 -8.143200539052486420e-04 1.513305585831403732e-03 1.085506635718047619e-03
8.400000000000000000e+02 1.761949729919433594e+01 3.086525154113769531e+01 -4.065253306180238724e-03 -8.856775821186602116e-04 -1.485279295593500137e-03 2.726594218984246254e-03
8.410000000000000000e+02 2.011208343505859375e+01 3.413050842285156250e+01 9.936232119798660278e-03 5.668636877089738846e-03 4.681461025029420853e-03 -3.799335565418004990e-03
8.420000000000000000e+02 2.250704574584960938e+01 3.607768630981445312e+01 4.155195783823728561e-04 7.378246169537305832e-03 2.338129794225096703e-03 1.865289756096899509e-03
8.430000000000000000e+02 2.675241279602050781e+01 3.714345550537109375e+01 -2.239906042814254761e-02 -2.774553187191486359e-02 -1.504337787628173828e-02 1.320145744830369949e-02
8.440000000000000000e+02 2.549510192871093750e+01 3.690829849243164062e+01 -6.158461794257164001e-03 1.684432849287986755e-02 3.205760149285197258e-03 -6.357858423143625259e-03
8.450000000000000000e+02 2.823806762695312500e+01 3.748845672607421875e+01 -9.238405525684356689e-02 -1.269377581775188446e-02 -3.152335062623023987e-02 4.827889427542686462e-02
8.460000000000000000e+02 3.134929084777832031e+01 3.713772964477539062e+01 -2.399258017539978027e-01 -1.794637739658355713e-02 -7.736165821552276611e-02 7.612445950508117676e-02
8.470000000000000000e+02 3.821741485595703125e+01 3.437145996093750000e+01 2.896183431148529053e-01 1.116937994956970215e+00 4.219668805599212646e-01 -5.237097144126892090e-01
8.480000000000000000e+02 4.020749664306640625e+01 3.214154434204101562e+01 7.225760817527770996e-01 3.236412525177001953e+00 1.187696576118469238e+00 -1.269054412841796875e+00
8.490000000000000000e+02 4.303071212768554688e+01 2.655224227905273438e+01 4.040188491344451904e-01 5.622382640838623047e+00 1.807920455932617188e+00 -2.406239062547683716e-01
8.500000000000000000e+02 4.170558547973632812e+01 2.364937019348144531e+01 3.658326342701911926e-02 6.081747531890869141e+00 1.835499286651611328e+00 8.593054860830307007e-02
8.510000000000000000e+02 4.169465255737304688e+01 2.082016181945800781e+01 5.407235771417617798e-02 6.715202331542968750e+00 2.030782461166381836e+00 2.320261150598526001e-01
8.520000000000000000e+02 4.167914199829101562e+01 1.940359497070312500e+01 2.720447257161140442e-02 7.274357318878173828e+00 2.190468549728393555e+00 3.174498379230499268e-01
8.530000000000000000e+02 4.282297897338867188e+01 1.646580123901367188e+01 6.592284440994262695e-01 8.011478424072265625e+00 2.601212024688720703e+00 1.513086915016174316e+00
8.540000000000000000e+02 4.158584976196289062e+01 1.656123542785644531e+01 2.162334769964218140e-01 9.106219291687011719e+00 2.796735763549804688e+00 9.206920266151428223e-01
8.550000000000000000e+02 4.077502059936523438e+01 1.089003467559814453e+01 8.633943796157836914e-01 1.278879261016845703e+01 4.095655918121337891e+00 3.022986650466918945e+00
8.560000000000000000e+02 4.058143234252929688e+01 6.462038516998291016e+00 1.668931603431701660e+00 1.158572387695312500e+01 3.976396560668945312e+00 3.940277814865112305e+00
8.570000000000000000e+02 3.740586471557617188e+01 2.954817533493041992e+00 1.109675765037536621e+00 6.372156143188476562e+00 2.244549512863159180e+00 2.833123207092285156e+00
8.580000000000000000e+02 3.643725967407226562e+01 1.870404720306396484e+00 -3.288755118846893311e-01 2.783263444900512695e+00 7.363163828849792480e-01 8.820434808731079102e-01
8.590000000000000000e+02 3.542298889160156250e+01 8.457348942756652832e-01 -2.069897651672363281e+00 3.198430240154266357e-01 -5.250163674354553223e-01 -8.259477615356445312e-01
8.600000000000000000e+02 3.030532264709472656e+01 -1.872505903244018555e+00 -4.276259899139404297e+00 -5.159207582473754883e-01 -1.437654256820678711e+00 -1.232204198837280273e+00
8.610000000000000000e+02 2.745700645446777344e+01 -2.061950683593750000e+00 -2.793856859207153320e+00 -1.274376213550567627e-01 -8.763883113861083984e-01 -1.801086962223052979e-01
8.620000000000000000e+02 2.277579307556152344e+01 -2.399375438690185547e+00 -8.529387116432189941e-01 8.186189830303192139e-02 -2.313230335712432861e-01 -6.578679382801055908e-02
8.630000000000000000e+02 2.192129516601562500e+01 -2.545416116714477539e+00 -7.879934906959533691e-01 3.003475815057754517e-02 -2.273876219987869263e-01 -4.912972077727317810e-02
8.640000000000000000e+02 1.864823150634765625e+01 -2.806908845901489258e+00 -7.126974463462829590e-01 -4.794423282146453857e-02 -2.281925082206726074e-01 -2.836126647889614105e-02
8.650000000000000000e+02 2.028007507324218750e+01 -2.710914134979248047e+00 -7.389822602272033691e-01 -3.463310003280639648e-02 -2.320846170186996460e-01 -4.379536956548690796e-02
8.660000000000000000e+02 1.704975318908691406e+01 -2.752674102783203125e+00 -6.979968547821044922e-01 -3.007746674120426178e-02 -2.184222936630249023e-01 -1.467391196638345718e-02
8.670000000000000000e+02 1.546503543853759766e+01 -2.650624036788940430e+00 -6.604945063591003418e-01 -1.208634674549102783e-02 -2.017742693424224854e-01 -8.327425457537174225e-03
8.680000000000000000e+02 1.315734004974365234e+01 -2.374892950057983398e+00 -5.878320932388305664e-01 1.797834411263465881e-02 -1.709561198949813843e-01 -2.544172666966915131e-02
8.690000000000000000e+02 1.168431663513183594e+01 -2.166358947753906250e+00 -5.244268774986267090e-01 3.535858914256095886e-02 -1.467204838991165161e-01 -5.015760660171508789e-02
8.700000000000000000e+02 5.536016464233398438e+01 -3.192089843750000000e+01 -4.439350366592407227e-01 9.023473411798477173e-02 -1.061100959777832031e-01 4.982434620615094900e-05
8.710000000000000000e+02 7.558383178710937500e+01 -1.508809089660644531e+01 -3.914147615432739258e-01 1.445180797576904297e+01 4.218117713928222656e+00 5.162539482116699219e+00
8.720000000000000000e+02 7.833980560302734375e+01 -2.063038825988769531e+01 -2.404425442218780518e-01 1.183413600921630859e+01 3.478107929229736328e+00 -5.208174586296081543e-01
8.730000000000000000e+02 7.615189361572265625e+01 -1.177560901641845703e+01 -1.352063894271850586e+00 1.963575172424316406e+01 5.485106468200683594e+00 -3.372292041778564453e+00
8.740000000000000000e+02 7.963322448730468750e+01 -9.666837692260742188e+00 -9.665749222040176392e-02 8.707144737243652344e+00 2.583146095275878906e+00 6.595653891563415527e-01
8.750000000000000000e+02 7.728566741943359375e+01 -1.557965373992919922e+01 -1.634659886360168457e+00 1.617386627197265625e+01 4.361762046813964844e+00 -2.966976165771484375e+00
8.760000000000000000e+02 7.663699340820312500e+01 -1.497699069976806641e+01 -1.502543807029724121e+00 2.078374290466308594e+01 5.784359455108642578e+00 -1.100622653961181641e+00
8.770000000000000000e+02 7.739418029785156250e+01 -1.425193881988525391e+01 4.479598999023437500e+00 1.706789016723632812e+01 6.464246749877929688e+00 -4.687473773956298828e+00
8.780000000000000000e+02 7.758202362060546875e+01 -1.388049411773681641e+01 6.146228313446044922e+00 1.488708972930908203e+01 6.309995174407958984e+00 -3.004795074462890625e+00
8.790000000000000000e+02 7.756978607177734375e+01 -1.278120803833007812e+01 5.735351562500000000e+00 1.524879646301269531e+01 6.295244216918945312e+00 3.274196624755859375e+00
8.800000000000000000e+02 7.803516387939453125e+01 -1.278219795227050781e+01 3.841105461120605469e+00 1.205622863769531250e+01 4.769200325012207031e+00 2.609747886657714844e+00
8.810000000000000000e+02 7.814553833007812500e+01 -1.333372688293457031e+01 5.057840347290039062e+00 1.062717819213867188e+01 4.705505371093750000e+00 -6.079937219619750977e-01
8.820000000000000000e+02 7.826429748535156250e+01 -1.438873481750488281e+01 1.735994935035705566e+00 1.069728374481201172e+01 3.729983568191528320e+00 -3.489000320434570312e+00
8.830000000000000000e+02 7.710140991210937500e+01 -1.161911296844482422e+01 -6.800165176391601562e-01 1.792720031738281250e+01 5.174155235290527344e+00 2.198532819747924805e+00
8.840000000000000000e+02 7.750782775878906250e+01 -1.251771545410156250e+01 4.337979316711425781e+00 1.598574447631835938e+01 6.097117424011230469e+00 3.821673154830932617e+00
8.850000000000000000e+02 7.699030303955078125e+01 -1.201137924194335938e+01 5.993607640266418457e-01 1.963769340515136719e+01 6.071116447448730469e+00 2.681192159652709961e+00
8.860000000000000000e+02 7.759968566894531250e+01 -1.466171360015869141e+01 1.817053794860839844e+00 1.590773963928222656e+01 5.317438125610351562e+00 -4.612062931060791016e+00
8.870000000000000000e+02 7.636823272705078125e+01 -1.557217216491699219e+01 -2.218638896942138672e+00 1.707693672180175781e+01 4.457489490509033203e+00 7.595427632331848145e-01
8.880000000000000000e+02 7.958853912353515625e+01 -1.661595916748046875e+01 -8.020307123661041260e-02 8.592150688171386719e+00 2.553584337234497070e+00 -1.198162317276000977e+00
8.890000000000000000e+02 7.870064544677734375e+01 -1.428078842163085938e+01 8.015318512916564941e-01 7.239207744598388672e+00 2.412221908569335938e+00 -2.733192443847656250e+00
8.900000000000000000e+02 7.881112670898437500e+01 -8.278738021850585938e+00 -3.626999557018280029e-01 1.036913108825683594e+01 3.001929521560668945e+00 8.369573950767517090e-01
8.910000000000000000e+02 7.717127227783203125e+01 -1.460349750518798828e+01 1.772958040237426758e+00 1.913222503662109375e+01 6.271554946899414062e+00 -4.343323230743408203e+00
8.920000000000000000e+02 7.764466857910156250e+01 -1.443303489685058594e+01 3.303065538406372070e+00 1.562320804595947266e+01 5.677881717681884766e+00 -4.688344478607177734e+00
8.930000000000000000e+02 7.729315185546875000e+01 -1.507869529724121094e+01 -5.376388430595397949e-01 1.699532127380371094e+01 4.937304973602294922e+00 -3.655787467956542969e+00
8.940000000000000000e+02 7.961092376708984375e+01 -1.521788787841796875e+01 -2.408944070339202881e-02 4.102816104888916016e+00 1.223618030548095703e+00 -1.438616991043090820e+00
8.950000000000000000e+02 7.884850311279296875e+01 -1.066483688354492188e+01 -5.591697692871093750e-01 8.695501327514648438e+00 2.440899372100830078e+00 2.855496883392333984e+00
8.960000000000000000e+02 7.578453826904296875e+01 -1.179594421386718750e+01 -4.952736496925354004e-01 1.664868354797363281e+01 4.846023082733154297e+00 -5.674682140350341797e+00
8.970000000000000000e+02 7.285060119628906250e+01 -1.533468437194824219e+01 4.938682019710540771e-01 9.879161119461059570e-01 4.445352852344512939e-01 4.591920673847198486e-01
8.980000000000000000e+02 7.455002593994140625e+01 -1.514889526367187500e+01 1.445097923278808594e+00 5.352971076965332031e+00 2.039420604705810547e+00 3.845407724380493164e+00
8.990000000000000000e+02 7.474897003173828125e+01 -1.517408561706542969e+01 1.335775017738342285e+00 6.481945991516113281e+00 2.345316410064697266e+00 4.305669307708740234e+00
9.000000000000000000e+02 7.496140289306640625e+01 -1.516995716094970703e+01 1.114195346832275391e+00 8.019898414611816406e+00 2.740228176116943359e+00 4.731047630310058594e+00
9.010000000000000000e+02 7.364154815673828125e+01 -1.519086933135986328e+01 1.026676654815673828e+00 1.999387502670288086e+00 9.078192114830017090e-01 1.470100164413452148e+00
9.020000000000000000e+02 7.376490783691406250e+01 -1.580731201171875000e+01 9.604231715202331543e-01 3.407788515090942383e+00 1.310463428497314453e+00 2.028976440429687500e+00
9.030000000000000000e+02 7.560858917236328125e+01 -1.538035774230957031e+01 -8.188956379890441895e-01 1.359001636505126953e+01 3.831336021423339844e+00 4.132113456726074219e+00
9.040000000000000000e+02 7.350012969970703125e+01 -1.185647106170654297e+01 1.103508710861206055e+00 1.523700475692749023e+00 7.881627678871154785e-01 -1.695853829383850098e+00
9.050000000000000000e+02 7.482228851318359375e+01 -1.158787536621093750e+01 1.717275857925415039e+00 7.570842266082763672e+00 2.786435365676879883e+00 -5.313728332519531250e+00
9.060000000000000000e+02 7.515756225585937500e+01 -1.172916507720947266e+01 1.572188377380371094e+00 9.641747474670410156e+00 3.364180803298950195e+00 -6.240878582000732422e+00
9.070000000000000000e+02 7.546242523193359375e+01 -1.134557819366455078e+01 -3.696954250335693359e-01 1.252263545989990234e+01 3.645882129669189453e+00 -4.975709438323974609e+00
9.080000000000000000e+02 7.596219635009765625e+01 -1.179413604736328125e+01 -1.097911953926086426e+00 1.848575401306152344e+01 5.216352462768554688e+00 -4.443940162658691406e+00
9.090000000000000000e+02 7.413933563232421875e+01 -1.177659797668457031e+01 1.900100827217102051e+00 3.174751996994018555e+00 1.522455811500549316e+00 -3.230941534042358398e+00
9.100000000000000000e+02 7.436232757568359375e+01 -1.182068824768066406e+01 2.161494731903076172e+00 4.026807308197021484e+00 1.856490612030029297e+00 -3.894792795181274414e+00
9.110000000000000000e+02 7.147165679931640625e+01 -1.617802047729492188e+01 4.101027548313140869e-01 4.254163205623626709e-01 2.506557106971740723e-01 -2.908403575420379639e-01
9.120000000000000000e+02 7.005725097656250000e+01 -1.593580150604248047e+01 6.078011170029640198e-02 -2.883129119873046875e-01 -6.825983524322509766e-02 -6.117740869522094727e-01
9.130000000000000000e+02 7.044824981689453125e+01 -1.666884994506835938e+01 2.992251813411712646e-01 -8.437038958072662354e-02 6.445644050836563110e-02 -4.947791993618011475e-01
9.140000000000000000e+02 7.197357177734375000e+01 -1.600047111511230469e+01 4.993079304695129395e-01 7.200638055801391602e-01 3.658115267753601074e-01 -4.546952247619628906e-02
9.150000000000000000e+02 7.330275726318359375e+01 -1.566651630401611328e+01 8.920266628265380859e-01 1.952663779258728027e+00 8.534071445465087891e-01 1.220288753509521484e+00
9.160000000000000000e+02 7.294294738769531250e+01 -1.576795196533203125e+01 7.668682932853698730e-01 1.622351169586181641e+00 7.167658209800720215e-01 7.695331573486328125e-01
9.170000000000000000e+02 6.988151550292968750e+01 -1.701180076599121094e+01 2.112697660923004150e-01 -3.574991524219512939e-01 -4.386882111430168152e-02 -4.609718918800354004e-01
9.180000000000000000e+02 6.923419952392578125e+01 -1.745535850524902344e+01 6.098254397511482239e-02 -1.031222343444824219e+00 -2.910719513893127441e-01 -2.635351717472076416e-01
9.190000000000000000e+02 6.883009338378906250e+01 -1.828432846069335938e+01 5.387010425329208374e-02 -1.549454331398010254e+00 -4.486752748489379883e-01 -1.452995985746383667e-01
9.200000000000000000e+02 1.854325294494628906e+01 1.022707700729370117e+00 2.471372717991471291e-04 5.344206510926596820e-05 9.017380216391757131e-05 8.640546730021014810e-05
9.210000000000000000e+02 1.773240852355957031e+01 7.294176101684570312e+00 -5.967299803160130978e-04 -4.970532972947694361e-05 -1.939305802807211876e-04 -1.742947933962568641e-04
9.220000000000000000e+02 1.852393913269042969e+01 1.964891552925109863e+00 -3.490855160634964705e-04 -1.179150494863279164e-04 -1.401001791236922145e-04 -1.787407236406579614e-04
9.230000000000000000e+02 1.737777519226074219e+01 3.609926939010620117e+00 1.744571782182902098e-04 3.278157382737845182e-04 1.506818662164732814e-04 2.491762279532849789e-04
9.240000000000000000e+02 1.392311763763427734e+01 -2.468574285507202148e+00 -6.190840601921081543e-01 1.085988152772188187e-02 -1.824672520160675049e-01 -1.763327978551387787e-02
9.250000000000000000e+02 1.023502159118652344e+01 -1.959757089614868164e+00 -4.586080014705657959e-01 4.605337977409362793e-02 -1.237663850188255310e-01 -6.563527137041091919e-02
9.260000000000000000e+02 1.097532749176025391e+01 -2.830199241638183594e+00 -4.501529335975646973e-01 5.854666605591773987e-02 -1.174818798899650574e-01 -9.577880054712295532e-02
9.270000000000000000e+02 1.025900650024414062e+01 -3.517796039581298828e+00 -3.831664025783538818e-01 7.669494301080703735e-02 -9.194143861532211304e-02 -1.387837082147598267e-01
9.280000000000000000e+02 9.488492965698242188e+00 -2.685490131378173828e+00 -3.900576829910278320e-01 5.754516646265983582e-02 -9.975375235080718994e-02 -1.179822534322738647e-01
9.290000000000000000e+02 1.434342956542968750e+01 1.875449299812316895e+00 -2.728035906329751015e-05 -3.276279603596776724e-04 -1.064725001924671233e-04 3.724810085259377956e-05
9.300000000000000000e+02 1.532727146148681641e+01 3.329893350601196289e+00 -1.406501833116635680e-04 -2.031684562098234892e-04 -1.031455904012545943e-04 -8.922289998736232519e-05
9.310000000000000000e+02 1.500913810729980469e+01 1.786104321479797363e+00 2.020279680436942726e-05 3.375808300916105509e-04 1.073350867955014110e-04 6.316000508377328515e-05
9.320000000000000000e+02 1.207721614837646484e+01 1.559797525405883789e+00 -1.294597750529646873e-04 -1.621523551875725389e-04 -8.748364052735269070e-05 5.036177390138618648e-05
9.330000000000000000e+02 2.174457359313964844e+01 1.274002909660339355e+00 2.227727236459031701e-05 1.112884419853799045e-04 4.006971357739530504e-05 -8.414865442318841815e-05
9.340000000000000000e+02 7.235424041748046875e+01 -1.191153144836425781e+01 -1.442853361368179321e-02 6.407119631767272949e-01 1.878850311040878296e-01 -1.399355381727218628e-01
9.350000000000000000e+02 7.090443420410156250e+01 -1.135823154449462891e+01 -1.423834562301635742e-01 5.160979628562927246e-01 1.121143475174903870e-01 4.272046685218811035e-01
9.360000000000000000e+02 7.224383544921875000e+01 -1.138950538635253906e+01 3.946214616298675537e-01 1.017935633659362793e+00 4.237671494483947754e-01 -3.505195379257202148e-01
9.370000000000000000e+02 7.160887908935546875e+01 -1.136722660064697266e+01 1.195091605186462402e-01 7.350023984909057617e-01 2.563534677028656006e-01 7.943326234817504883e-02
9.380000000000000000e+02 1.475142192840576172e+01 -3.287006378173828125e+00 -5.558561086654663086e-01 6.810058373957872391e-03 -1.647138148546218872e-01 -3.691158443689346313e-02
9.390000000000000000e+02 1.320791244506835938e+01 -3.111645698547363281e+00 -5.225852727890014648e-01 3.442419692873954773e-02 -1.464483141899108887e-01 -5.760830640792846680e-02
9.400000000000000000e+02 1.633564186096191406e+01 -3.427986383438110352e+00 -5.797472596168518066e-01 -2.194719202816486359e-02 -1.805083304643630981e-01 -2.819187752902507782e-02
9.410000000000000000e+02 1.139319896697998047e+01 2.409058094024658203e+00 -1.822940976126119494e-04 -1.421356137143447995e-04 -9.732891339808702469e-05 5.116045940667390823e-05
9.420000000000000000e+02 1.366039276123046875e+01 2.028583526611328125e+00 1.047364712576381862e-04 2.600226725917309523e-04 1.094277467927895486e-04 -1.006711172522045672e-04
9.430000000000000000e+02 1.294154548645019531e+01 2.178453922271728516e+00 -1.790526875993236899e-04 -1.839090109569951892e-04 -1.088885110220871866e-04 8.833233005134388804e-05
9.440000000000000000e+02 6.608529090881347656e+00 1.886173844337463379e+00 1.030793064273893833e-04 1.232260983670130372e-04 6.789161852793768048e-05 2.027425034611951560e-05
9.450000000000000000e+02 1.951719045639038086e+00 7.722209930419921875e+00 -4.734698159154504538e-04 5.984978088235948235e-06 -1.402454508934170008e-04 7.351500244112685323e-05
9.460000000000000000e+02 5.032542228698730469e+00 3.516580343246459961e+00 1.858167670434340835e-04 1.285191683564335108e-04 9.430077625438570976e-05 -2.006808426813222468e-05
9.470000000000000000e+02 1.205914974212646484e+00 3.337296724319458008e+00 1.207664754474535584e-04 5.981811409583315253e-05 5.417537613539025187e-05 -1.069384234142489731e-04
9.480000000000000000e+02 2.730410575866699219e+00 2.903119325637817383e+00 8.414243347942829132e-05 9.415333624929189682e-05 5.348872946342453361e-05 -2.422969555482268333e-05
9.490000000000000000e+02 1.974021792411804199e+00 3.099374532699584961e+00 -3.610030034906230867e-05 -1.076272092177532613e-04 -4.311825250624679029e-05 7.274226663867011666e-05
9.500000000000000000e+02 1.932700991630554199e+00 2.036245346069335938e+00 4.889317642664536834e-05 9.446798503631725907e-05 4.300834552850574255e-05 -6.312384357443079352e-05
9.510000000000000000e+02 8.191615104675292969e+00 2.628707408905029297e+00 -1.905644894577562809e-04 -1.025454985210672021e-04 -8.793299639364704490e-05 -4.149586675339378417e-05
9.520000000000000000e+02 7.393854141235351562e+00 1.881376147270202637e+00 -1.146999929915182292e-04 -1.164911664091050625e-04 -6.935734563739970326e-05 -2.768396370811387897e-05
9.530000000000000000e+02 8.206212043762207031e+00 3.389081239700317383e+00 2.494984946679323912e-04 8.958542457548901439e-05 1.017251779558137059e-04 6.755168578820303082e-05
9.540000000000000000e+02 7.397490024566650391e+00 2.639766693115234375e+00 1.579635281814262271e-04 1.197535748360678554e-04 8.331512799486517906e-05 4.686592365032993257e-05
9.550000000000000000e+02 1.059599018096923828e+01 2.506014823913574219e+00 1.955281768459826708e-04 1.212601418956182897e-04 9.503649926045909524e-05 -4.526423072093166411e-05
9.560000000000000000e+02 1.784754180908203125e+01 -2.784424781799316406e+00 -7.044599652290344238e-01 -4.766479879617691040e-02 -2.256374210119247437e-01 -2.351938188076019287e-02
9.570000000000000000e+02 1.553662490844726562e+01 -3.366264343261718750e+00 -5.665827393531799316e-01 -1.145167276263237000e-02 -1.734103113412857056e-01 -3.065893985331058502e-02
9.580000000000000000e+02 1.795406532287597656e+01 -3.501901626586914062e+00 -5.950052142143249512e-01 -4.802933707833290100e-02 -1.929103583097457886e-01 -3.164827451109886169e-02
9.590000000000000000e+02 1.714381027221679688e+01 -3.471964836120605469e+00 -5.859742164611816406e-01 -4.115436598658561707e-02 -1.881385892629623413e-01 -2.979941852390766144e-02
9.600000000000000000e+02 2.043832969665527344e+01 -3.440150737762451172e+00 -6.418482661247253418e-01 -4.915992170572280884e-02 -2.073024660348892212e-01 -6.091193109750747681e-02
9.610000000000000000e+02 2.298818206787109375e+01 -3.213533401489257812e+00 -8.201920986175537109e-01 4.927451163530349731e-02 -2.312752902507781982e-01 -1.453782320022583008e-01
9.620000000000000000e+02 1.877107429504394531e+01 -3.511597156524658203e+00 -6.035755276679992676e-01 -6.129173934459686279e-02 -1.994601786136627197e-01 -4.006624221801757812e-02
9.630000000000000000e+02 8.713630676269531250e+00 -2.646368741989135742e+00 -3.526096343994140625e-01 4.867655783891677856e-02 -9.117992222309112549e-02 -1.299877166748046875e-01
9.640000000000000000e+02 6.348194599151611328e+00 -2.610462427139282227e+00 -2.353481352329254150e-01 8.484591729938983917e-03 -6.805906444787979126e-02 -1.594961881637573242e-01
9.650000000000000000e+02 7.044595241546630859e+00 -1.869308829307556152e+00 -2.856277823448181152e-01 1.196115277707576752e-02 -8.209998905658721924e-02 -1.161297336220741272e-01
9.660000000000000000e+02 7.926584243774414062e+00 -2.624939918518066406e+00 -3.139532208442687988e-01 3.551571816205978394e-02 -8.353125303983688354e-02 -1.429950743913650513e-01
9.670000000000000000e+02 7.136271476745605469e+00 -2.614392042160034180e+00 -2.730001211166381836e-01 2.166335657238960266e-02 -7.540103048086166382e-02 -1.521802693605422974e-01
9.680000000000000000e+02 5.420826911926269531e+00 -1.872927784919738770e+00 -1.988643556833267212e-01 -3.010553540661931038e-03 -6.056246906518936157e-02 -1.215741038322448730e-01
9.690000000000000000e+02 4.785113334655761719e+00 -2.652440786361694336e+00 -1.605543494224548340e-01 -1.699764467775821686e-02 -5.326560139656066895e-02 -1.549798995256423950e-01
9.700000000000000000e+02 1.777307152748107910e+00 -9.653498649597167969e+00 -1.394404750317335129e-02 -5.681818127632141113e-01 -1.746377497911453247e-01 -2.265355437994003296e-01
9.710000000000000000e+02 5.815203785896301270e-01 -6.605861186981201172e+00 -7.625645375810563564e-04 -3.513434827327728271e-01 -1.056318134069442749e-01 -6.710451841354370117e-02
9.720000000000000000e+02 2.966362953186035156e+00 -4.101897716522216797e+00 -6.837169080972671509e-02 -9.645153582096099854e-02 -4.944697022438049316e-02 -1.672625541687011719e-01
9.730000000000000000e+02 5.893393754959106445e-01 -3.680031061172485352e+00 -1.044626627117395401e-02 -1.025634855031967163e-01 -3.390292450785636902e-02 -4.096610099077224731e-02
9.740000000000000000e+02 2.526728630065917969e+01 -1.860963821411132812e+00 -1.268410205841064453e+00 -5.237647518515586853e-02 -3.962360024452209473e-01 7.269420474767684937e-02
9.750000000000000000e+02 2.041639518737792969e+01 4.055676460266113281e+00 -7.022403879091143608e-04 -6.844534800620749593e-05 -2.312057185918092728e-04 -8.827558485791087151e-05
9.760000000000000000e+02 1.842163467407226562e+01 2.881493806838989258e+00 3.956699802074581385e-04 2.278762112837284803e-04 1.870638516265898943e-04 2.512343926355242729e-04
9.770000000000000000e+02 6.032189846038818359e+00 -2.809563827514648438e+01 -4.449974894523620605e-01 -3.563788235187530518e-01 -2.404129058122634888e-01 3.879708647727966309e-01
9.780000000000000000e+02 3.372840118408203125e+01 -1.757557296752929688e+01 -1.480530261993408203e+00 9.365695714950561523e-01 -1.631882041692733765e-01 2.650976181030273438e-01
9.790000000000000000e+02 4.141718673706054688e+01 -1.807866096496582031e+01 6.299703121185302734e-01 9.155681610107421875e+00 2.935695648193359375e+00 -8.629562854766845703e-01
9.800000000000000000e+02 3.832952880859375000e+01 -1.484162139892578125e+01 6.609047651290893555e-01 8.547450065612792969e+00 2.762506484985351562e+00 -1.481040120124816895e-01
9.810000000000000000e+02 7.756960868835449219e+00 -1.522249984741210938e+01 6.585421562194824219e-01 6.082090139389038086e-01 3.800253570079803467e-01 1.077560558915138245e-01
9.820000000000000000e+02 3.434685897827148438e+01 -1.877044486999511719e+01 -1.889070749282836914e+00 1.846887707710266113e+00 -1.265490707010030746e-02 1.694014072418212891e-01
9.830000000000000000e+02 3.844981002807617188e+01 -2.338935279846191406e+01 8.160659670829772949e-01 6.659330368041992188e+00 2.242618799209594727e+00 9.669268727302551270e-01
9.840000000000000000e+02 2.974019289016723633e+00 -1.549476814270019531e+01 1.505444943904876709e-01 -6.043542027473449707e-01 -1.361429095268249512e-01 -1.702974736690521240e-01
9.850000000000000000e+02 1.558851337432861328e+01 -1.689968490600585938e+01 1.009278059005737305e+00 1.093956679105758667e-01 3.356021344661712646e-01 -3.439674973487854004e-01
9.860000000000000000e+02 1.271708583831787109e+01 -1.492592811584472656e+01 1.192369699478149414e+00 3.181686103343963623e-01 4.531615078449249268e-01 6.252855062484741211e-02
9.870000000000000000e+02 2.837737655639648438e+01 -3.137889099121093750e+01 -1.901160627603530884e-01 2.112514674663543701e-01 6.340621039271354675e-03 3.222309052944183350e-01
9.880000000000000000e+02 3.036643600463867188e+01 -3.249911117553710938e+01 7.873275130987167358e-02 1.676726341247558594e+00 5.266377329826354980e-01 1.188749551773071289e+00
9.890000000000000000e+02 1.313463783264160156e+01 -3.146280288696289062e+01 -6.253142356872558594e-01 -6.984108686447143555e-02 -2.085465937852859497e-01 1.454721838235855103e-01
9.900000000000000000e+02 1.046690940856933594e+01 -3.080085945129394531e+01 -8.683803081512451172e-01 -2.669859826564788818e-01 -3.406099081039428711e-01 3.710535466670989990e-01
9.910000000000000000e+02 4.906994342803955078e+00 -2.010295104980468750e+01 3.540008068084716797e-01 5.112879872322082520e-01 2.595866322517395020e-01 4.390953183174133301e-01
9.920000000000000000e+02 3.554405212402343750e+01 -3.024119758605957031e+01 2.378407865762710571e-02 4.801511764526367188e+00 1.447588682174682617e+00 6.426942944526672363e-01
9.930000000000000000e+02 3.623590469360351562e+01 -2.697415161132812500e+01 1.001824498176574707e+00 6.762949943542480469e+00 2.329432487487792969e+00 8.680834770202636719e-01
9.940000000000000000e+02 1.140672397613525391e+01 -1.617758178710937500e+01 1.854673624038696289e+00 2.035970389842987061e-01 6.174812316894531250e-01 2.944579124450683594e-01
9.950000000000000000e+02 1.134213542938232422e+01 -1.513169002532958984e+01 1.360046386718750000e+00 3.165084123611450195e-01 5.029664635658264160e-01 1.671567708253860474e-01
9.960000000000000000e+02 1.729221916198730469e+01 -1.637819099426269531e+01 8.413367867469787598e-01 -5.383484065532684326e-02 2.362505942583084106e-01 -1.452052295207977295e-01
9.970000000000000000e+02 3.326019287109375000e+01 -2.882244491577148438e+01 1.815176486968994141e+00 4.500919342041015625e+00 1.894828677177429199e+00 2.394428491592407227e+00
9.980000000000000000e+02 6.468574404716491699e-01 -2.753347396850585938e+01 -1.591536775231361389e-02 2.319003492593765259e-01 6.479549407958984375e-02 1.156059280037879944e-01
9.990000000000000000e+02 8.872294425964355469e+00 -1.531774997711181641e+01 7.896878719329833984e-01 7.061060070991516113e-01 4.487381577491760254e-01 2.810915410518646240e-01
1.000000000000000000e+03 5.638666749000549316e-01 -2.061273002624511719e+01 2.051390893757343292e-02 -1.469720363616943359e+00 -4.347619116306304932e-01 9.366017580032348633e-02
1.001000000000000000e+03 1.806421852111816406e+01 -1.793722915649414062e+01 6.326805949211120605e-01 6.700955796986818314e-03 1.918144673109054565e-01 -1.888727843761444092e-01
1.002000000000000000e+03 3.413250732421875000e+01 -3.053919792175292969e+01 -6.960583478212356567e-02 4.633852005004882812e+00 1.369273900985717773e+00 1.165360689163208008e+00
1.003000000000000000e+03 3.292889404296875000e+01 -3.109009361267089844e+01 2.571398615837097168e-01 3.765185594558715820e+00 1.206697702407836914e+00 1.534938931465148926e+00
1.004000000000000000e+03 3.780971527099609375e+01 -2.152499961853027344e+01 2.167694717645645142e-01 7.368575572967529297e+00 2.275603532791137695e+00 1.280297160148620605e+00
1.005000000000000000e+03 1.312889766693115234e+01 -3.548197555541992188e+01 -2.317346930503845215e-01 -1.984794586896896362e-01 -1.290642470121383667e-01 9.286455810070037842e-02
1.006000000000000000e+03 1.848208427429199219e+01 -1.676165771484375000e+01 7.393800616264343262e-01 -5.628335848450660706e-02 2.049290090799331665e-01 -1.004448980093002319e-01
1.007000000000000000e+03 2.062669944763183594e+01 -1.855483245849609375e+01 5.193191766738891602e-01 -4.027568548917770386e-02 1.437130421400070190e-01 -5.411986261606216431e-02
1.008000000000000000e+03 2.011812210083007812e+01 -3.179632186889648438e+01 -6.485134959220886230e-01 1.687211683019995689e-03 -1.940478831529617310e-01 -3.743320703506469727e-02
1.009000000000000000e+03 2.266874694824218750e+01 -3.302316284179687500e+01 -4.944090247154235840e-01 -1.291918847709894180e-02 -1.521984636783599854e-01 -5.128137022256851196e-02
1.010000000000000000e+03 2.092759704589843750e+01 -1.725620651245117188e+01 5.988109707832336426e-01 -8.326871693134307861e-02 1.546626687049865723e-01 9.746748022735118866e-03
1.011000000000000000e+03 2.584762001037597656e+01 -1.846041679382324219e+01 2.768548130989074707e-01 2.705719694495201111e-02 9.117360413074493408e-02 1.025368049740791321e-01
1.012000000000000000e+03 2.365986061096191406e+01 -1.628363800048828125e+01 5.107489824295043945e-01 -1.308001577854156494e-01 1.139846518635749817e-01 1.926231980323791504e-01
1.013000000000000000e+03 2.792080879211425781e+01 -1.702039718627929688e+01 -3.235551118850708008e-01 4.615163430571556091e-02 -8.322104066610336304e-02 4.987904727458953857e-01
1.014000000000000000e+03 2.872180938720703125e+01 -3.305765151977539062e+01 7.018914446234703064e-03 8.314447999000549316e-01 2.515391111373901367e-01 7.664282917976379395e-01
1.015000000000000000e+03 2.707632255554199219e+01 -3.314830398559570312e+01 -1.528810411691665649e-01 4.069096446037292480e-01 7.620858401060104370e-02 3.477981090545654297e-01
1.016000000000000000e+03 2.552334022521972656e+01 -3.160060882568359375e+01 -6.681926250457763672e-01 3.813416510820388794e-02 -1.890175491571426392e-01 -1.812621764838695526e-02
1.017000000000000000e+03 1.488440799713134766e+01 -1.523869609832763672e+01 1.093597054481506348e+00 9.892632812261581421e-02 3.577570319175720215e-01 -3.737094998359680176e-02
1.018000000000000000e+03 3.165358543395996094e+01 -1.636318016052246094e+01 2.762333862483501434e-02 -4.619809687137603760e-01 -1.303072869777679443e-01 8.050238490104675293e-01
1.019000000000000000e+03 2.879537200927734375e+01 -1.663941955566406250e+01 -1.891487091779708862e-01 -2.128096111118793488e-02 -6.312889605760574341e-02 8.478387594223022461e-01
1.020000000000000000e+03 2.057862281799316406e+00 -3.182202339172363281e+01 -5.110954865813255310e-02 3.625724017620086670e-01 9.343884885311126709e-02 3.420310094952583313e-02
1.021000000000000000e+03 6.699039936065673828e+00 -3.000258445739746094e+01 -3.869783580303192139e-01 -2.655428349971771240e-01 -1.957563608884811401e-01 2.545589804649353027e-01
1.022000000000000000e+03 2.712587928771972656e+01 -1.823833274841308594e+01 1.432691700756549835e-03 1.207394059747457504e-03 7.920257048681378365e-04 1.303471475839614868e-01
1.023000000000000000e+03 3.341786956787109375e+01 -1.612293243408203125e+01 4.107380285859107971e-02 1.345901131629943848e+00 4.160924851894378662e-01 -6.908841431140899658e-02
1.024000000000000000e+03 2.325104713439941406e+01 -1.868433952331542969e+01 4.636746048927307129e-01 -1.903597824275493622e-02 1.333915889263153076e-01 4.867397993803024292e-02
1.025000000000000000e+03 1.715618729591369629e+00 -1.935476684570312500e+01 9.717517346143722534e-02 -1.019725561141967773e+00 -2.767651379108428955e-01 1.432476192712783813e-01
1.026000000000000000e+03 1.718247413635253906e+00 -2.066469383239746094e+01 8.436401933431625366e-02 -9.063694477081298828e-01 -2.466016262769699097e-01 2.659693658351898193e-01
1.027000000000000000e+03 1.452473831176757812e+01 -3.186172676086425781e+01 -6.169081330299377441e-01 -3.717612475156784058e-02 -1.962252706289291382e-01 1.039146408438682556e-01
1.028000000000000000e+03 1.605342483520507812e+01 -3.427055358886718750e+01 -3.894905149936676025e-01 -1.033981814980506897e-01 -1.478666067123413086e-01 2.973157539963722229e-02
1.029000000000000000e+03 1.419450569152832031e+01 -3.383463287353515625e+01 -4.115401208400726318e-01 -1.264387667179107666e-01 -1.613936722278594971e-01 9.461224079132080078e-02
1.030000000000000000e+03 1.157650756835937500e+01 -3.256177902221679688e+01 -5.111013650894165039e-01 -2.071806788444519043e-01 -2.154846191406250000e-01 2.399838715791702271e-01
1.031000000000000000e+03 1.277134990692138672e+01 -3.296447372436523438e+01 -4.937228560447692871e-01 -1.255612075328826904e-01 -1.857852190732955933e-01 1.700552850961685181e-01
1.032000000000000000e+03 3.714799118041992188e+01 -2.262694740295410156e+01 6.664732694625854492e-01 7.506165981292724609e+00 2.451791763305664062e+00 1.286233067512512207e+00
1.033000000000000000e+03 3.665770721435546875e+01 -2.372889137268066406e+01 1.293706536293029785e+00 7.953250885009765625e+00 2.774087190628051758e+00 1.434737086296081543e+00
1.034000000000000000e+03 2.144237136840820312e+01 -3.284009552001953125e+01 -5.444281697273254395e-01 -2.681621536612510681e-02 -1.713733077049255371e-01 -5.714606493711471558e-02
1.035000000000000000e+03 2.886271858215332031e+01 -2.043416976928710938e+00 -3.521043539047241211e+00 -2.904885709285736084e-01 -1.143459558486938477e+00 -6.416752934455871582e-01
1.036000000000000000e+03 3.899440383911132812e+01 5.435048103332519531e+00 2.256472110748291016e+00 1.285832118988037109e+01 4.534437656402587891e+00 5.212178707122802734e+00
1.037000000000000000e+03 7.081524658203125000e+01 -2.269631195068359375e+01 -2.853814363479614258e-01 1.019204378128051758e+00 2.201468944549560547e-01 -2.445188611745834351e-01
1.038000000000000000e+03 6.222860336303710938e+01 -1.786697864532470703e+00 -3.585556745529174805e+00 -1.055211782455444336e+00 -1.392230629920959473e+00 1.260618209838867188e+00
1.039000000000000000e+03 6.768260955810546875e+01 -6.249192714691162109e+00 -9.456430077552795410e-01 3.579375892877578735e-02 -2.729547619819641113e-01 4.947260320186614990e-01
1.040000000000000000e+03 5.958110046386718750e+01 -7.417046427726745605e-01 -4.436257839202880859e+00 -6.728132367134094238e-01 -1.532721400260925293e+00 1.049118280410766602e+00
1.041000000000000000e+03 6.916783905029296875e+01 -2.663987922668457031e+01 -9.118636250495910645e-01 -1.129169344902038574e+00 -6.123098731040954590e-01 -7.797587513923645020e-01
1.042000000000000000e+03 4.225569152832031250e+01 1.105074658989906311e-01 -3.489547014236450195e+00 1.052257347106933594e+01 2.109907865524291992e+00 6.001904010772705078e-01
1.043000000000000000e+03 4.218522262573242188e+01 -3.836041927337646484e+00 8.368972539901733398e-01 1.462957382202148438e+01 4.639941215515136719e+00 3.218502044677734375e+00
1.044000000000000000e+03 4.308283996582031250e+01 -1.225406527519226074e+00 1.576315522193908691e+00 9.918117523193359375e+00 3.448329925537109375e+00 3.376654624938964844e+00
1.045000000000000000e+03 4.098127746582031250e+01 -1.663229179382324219e+01 1.121991395950317383e+00 1.062409496307373047e+01 3.523825883865356445e+00 -1.186344504356384277e+00
1.046000000000000000e+03 5.783614730834960938e+01 -3.533981323242187500e+01 -5.344107151031494141e-01 -2.254486978054046631e-01 -2.279578298330307007e-01 -6.173804402351379395e-01
1.047000000000000000e+03 4.094720840454101562e+01 -2.028251838684082031e+01 -2.393548144027590752e-03 7.455432891845703125e+00 2.235911846160888672e+00 1.153773721307516098e-02
1.048000000000000000e+03 1.272237491607666016e+01 2.265432167053222656e+01 -1.185560482554137707e-03 -2.029232127824798226e-04 -4.165451100561767817e-04 -2.140291471732780337e-04
1.049000000000000000e+03 5.927105712890625000e+01 -3.316438293457031250e+01 -1.767686605453491211e+00 -2.745967805385589600e-01 -6.126850247383117676e-01 -4.078387916088104248e-01
1.050000000000000000e+03 6.588249969482421875e+01 -3.001774406433105469e+01 -2.629160165786743164e+00 -2.220703125000000000e+00 -1.454959034919738770e+00 -2.201714277267456055e+00
1.051000000000000000e+03 6.777364349365234375e+01 -3.247246551513671875e+01 -6.664618849754333496e-01 1.011618971824645996e-01 -1.695899963378906250e-01 -7.028584927320480347e-02
1.052000000000000000e+03 4.044041442871093750e+01 -1.518690776824951172e+01 9.681010246276855469e-01 1.112702941894531250e+01 3.628539323806762695e+00 -1.006492376327514648e+00
1.053000000000000000e+03 5.097344970703125000e+01 4.427731513977050781e+00 -2.450884580612182617e+00 6.427196413278579712e-02 -7.159838080406188965e-01 -1.538661271333694458e-01
1.054000000000000000e+03 4.417667388916015625e+01 -2.164902496337890625e+01 6.012353897094726562e-01 3.421791791915893555e+00 1.206908106803894043e+00 -1.395625472068786621e+00
1.055000000000000000e+03 6.287786483764648438e+01 -3.409521484375000000e+01 -8.736847043037414551e-01 -1.054769277572631836e+00 -5.785361528396606445e-01 -8.922506570816040039e-01
1.056000000000000000e+03 6.429287719726562500e+01 -3.315078735351562500e+01 -1.279244661331176758e+00 -1.168215155601501465e+00 -7.342379093170166016e-01 -9.524788260459899902e-01
1.057000000000000000e+03 1.533016967773437500e+01 1.829445266723632812e+01 1.149210846051573753e-03 -3.093994791925069876e-06 3.438350686337798834e-04 1.201225968543440104e-04
1.058000000000000000e+03 1.407603549957275391e+01 1.814425659179687500e+01 -1.087297918274998665e-03 -7.861589256208389997e-05 -3.497741708997637033e-04 -1.396495645167306066e-04
1.059000000000000000e+03 4.024242019653320312e+01 -7.798394680023193359e+00 1.503599047660827637e+00 1.316764450073242188e+01 4.401372909545898438e+00 1.551773071289062500e+00
1.060000000000000000e+03 6.485572814941406250e+01 -3.225944519042968750e+00 -2.286066770553588867e+00 -9.940783381462097168e-01 -9.840435385704040527e-01 8.734025955200195312e-01
1.061000000000000000e+03 5.321506118774414062e+01 1.077818512916564941e+00 -4.857421875000000000e+00 2.069065123796463013e-01 -1.395154595375061035e+00 8.892439007759094238e-01
1.062000000000000000e+03 5.284798431396484375e+01 2.843236446380615234e+00 -3.762473106384277344e+00 1.714424043893814087e-01 -1.077309250831604004e+00 8.117350935935974121e-02
1.063000000000000000e+03 3.876649856567382812e+01 -1.348298263549804688e+01 8.934533596038818359e-01 9.424301147460937500e+00 3.095326423645019531e+00 -2.469308525323867798e-01
1.064000000000000000e+03 4.013162994384765625e+01 -1.363283157348632812e+01 6.472548246383666992e-01 1.147485160827636719e+01 3.636631727218627930e+00 -8.222339153289794922e-01
1.065000000000000000e+03 6.353628158569335938e+01 -2.462567090988159180e+00 -2.980173349380493164e+00 -1.186000347137451172e+00 -1.249852061271667480e+00 1.170471191406250000e+00
1.066000000000000000e+03 6.090527725219726562e+01 -1.217655181884765625e+00 -4.151026248931884766e+00 -8.518646955490112305e-01 -1.500867247581481934e+00 1.190582633018493652e+00
1.067000000000000000e+03 6.693349456787109375e+01 -3.110340118408203125e+01 -1.367054939270019531e+00 -9.961252212524414062e-01 -7.089540362358093262e-01 -7.995710372924804688e-01
1.068000000000000000e+03 5.698587417602539062e+01 -3.078892827033996582e-03 -4.700135231018066406e+00 -3.657844364643096924e-01 -1.519775867462158203e+00 7.880966663360595703e-01
1.069000000000000000e+03 5.827161026000976562e+01 -3.441044688224792480e-01 -4.680093765258789062e+00 -5.540750026702880859e-01 -1.570250630378723145e+00 9.359952211380004883e-01
1.070000000000000000e+03 4.129856872558593750e+01 -9.300720214843750000e+00 1.850013285875320435e-01 1.585350418090820312e+01 4.811551570892333984e+00 2.474853694438934326e-01
1.071000000000000000e+03 4.980714797973632812e+01 3.433393478393554688e+00 -3.840497255325317383e+00 -2.431394308805465698e-01 -1.225090980529785156e+00 -1.285861283540725708e-01
1.072000000000000000e+03 6.876881408691406250e+01 -9.068180084228515625e+00 -2.649282515048980713e-01 5.188503861427307129e-02 -6.391296535730361938e-02 5.294597744941711426e-01
1.073000000000000000e+03 2.771878242492675781e+01 4.142881393432617188e+01 5.665072798728942871e-02 -4.887354373931884766e-02 2.333155600354075432e-03 1.270977873355150223e-02
1.074000000000000000e+03 6.749655151367187500e+01 -8.819253921508789062e+00 -3.782913982868194580e-01 -8.973183035850524902e-01 -3.826829195022583008e-01 6.991078853607177734e-01
1.075000000000000000e+03 6.664039611816406250e+01 -9.417431831359863281e+00 -3.791750073432922363e-01 -1.642280459403991699e+00 -6.064366102218627930e-01 8.546219468116760254e-01
1.076000000000000000e+03 5.370201492309570312e+01 -2.982518768310546875e+01 2.655686996877193451e-02 1.902613937854766846e-01 6.504547595977783203e-02 -1.216849088668823242e-01
1.077000000000000000e+03 5.297757720947265625e+01 -3.295169067382812500e+01 -3.098762631416320801e-01 6.825767755508422852e-01 1.118101552128791809e-01 -3.784245252609252930e-01
1.078000000000000000e+03 6.974403381347656250e+01 -2.242714881896972656e+01 -9.931804984807968140e-02 -7.565025091171264648e-01 -2.567461729049682617e-01 -2.010401338338851929e-01
1.079000000000000000e+03 3.629735565185546875e+01 -3.871229887008666992e+00 -4.506270959973335266e-02 4.803396224975585938e+00 1.427500009536743164e+00 6.962872743606567383e-01
1.080000000000000000e+03 6.560369873046875000e+01 -3.218394088745117188e+01 -1.437595129013061523e+00 -1.139040231704711914e+00 -7.729905843734741211e-01 -9.934211373329162598e-01
1.081000000000000000e+03 4.915698242187500000e+01 -2.479991149902343750e+01 3.465917408466339111e-01 4.957775771617889404e-01 2.527107894420623779e-01 -4.182973504066467285e-01
1.082000000000000000e+03 3.509336090087890625e+01 -9.230044484138488770e-01 -2.399074077606201172e+00 1.623763322830200195e+00 -2.325932234525680542e-01 -2.323142737150192261e-01
1.083000000000000000e+03 1.850214958190917969e+01 3.199280738830566406e+01 7.861101999878883362e-03 3.924324177205562592e-03 3.535627853125333786e-03 -5.536546465009450912e-03
1.084000000000000000e+03 1.569118881225585938e+01 3.001177597045898438e+01 -4.569877870380878448e-03 9.009919594973325729e-04 -1.100665656849741936e-03 4.522285598795861006e-04
1.085000000000000000e+03 4.819773483276367188e+01 -2.383778953552246094e+01 4.313282370567321777e-01 6.385076045989990234e-01 3.209507465362548828e-01 -5.058386921882629395e-01
1.086000000000000000e+03 4.802414321899414062e+01 -2.544836044311523438e+01 4.274969995021820068e-01 1.019643783569335938e+00 4.341422021389007568e-01 -6.601178646087646484e-01
1.087000000000000000e+03 5.194790649414062500e+01 -2.778477668762207031e+01 1.746410578489303589e-01 2.997393012046813965e-01 1.423141062259674072e-01 -2.464191764593124390e-01
1.088000000000000000e+03 4.929422760009765625e+01 -2.886695289611816406e+01 1.953866481781005859e-01 1.027535319328308105e+00 3.668766021728515625e-01 -5.779725909233093262e-01
1.089000000000000000e+03 5.012018585205078125e+01 -3.102464675903320312e+01 -3.671771287918090820e-02 1.073055863380432129e+00 3.109014332294464111e-01 -5.234906077384948730e-01
1.090000000000000000e+03 6.876342773437500000e+01 -1.951187133789062500e+01 5.884205456823110580e-03 -1.890403985977172852e+00 -5.653559565544128418e-01 -4.579043760895729065e-02
1.091000000000000000e+03 4.519074630737304688e+01 -2.262251663208007812e+01 6.096227765083312988e-01 2.273829460144042969e+00 8.650356531143188477e-01 -1.164611935615539551e+00
1.092000000000000000e+03 4.623125076293945312e+01 -2.191029357910156250e+01 6.868003606796264648e-01 1.218472838401794434e+00 5.715819597244262695e-01 -8.569165468215942383e-01
1.093000000000000000e+03 7.096055603027343750e+01 -1.727214431762695312e+01 4.122481942176818848e-01 4.617564678192138672e-01 2.622013986110687256e-01 -2.723903059959411621e-01
1.094000000000000000e+03 4.891295242309570312e+01 -2.638965225219726562e+01 3.686290085315704346e-01 8.300113081932067871e-01 3.595920801162719727e-01 -5.667020678520202637e-01
1.095000000000000000e+03 5.028916168212890625e+01 -3.233543777465820312e+01 -1.476133316755294800e-01 1.189120292663574219e+00 3.124520778656005859e-01 -5.608673691749572754e-01
1.096000000000000000e+03 6.976425933837890625e+01 -2.114306068420410156e+01 -3.200088813900947571e-02 -6.083218455314636230e-01 -1.920968145132064819e-01 -1.025454327464103699e-01
1.097000000000000000e+03 6.977593231201171875e+01 -1.994355773925781250e+01 5.078998580574989319e-02 -5.019236803054809570e-01 -1.353401094675064087e-01 -1.212317347526550293e-01
1.098000000000000000e+03 1.609089851379394531e+01 1.117723464965820312e+01 6.615788443014025688e-04 1.198285535792820156e-04 2.344222157262265682e-04 1.944780233316123486e-04
1.099000000000000000e+03 1.563257408142089844e+01 1.252986907958984375e+01 -7.035256712697446346e-04 -1.316489215241745114e-04 -2.505523734726011753e-04 -2.517252869438380003e-04
1.100000000000000000e+03 1.820413589477539062e+01 3.331744384765625000e+01 2.693692455068230629e-03 -8.563283481635153294e-04 5.512092611752450466e-04 2.658769953995943069e-03
1.101000000000000000e+03 1.396968269348144531e+01 1.963562393188476562e+01 1.220605568960309029e-03 6.326413858914747834e-05 3.851609071716666222e-04 1.995853817788884044e-04
1.102000000000000000e+03 1.518940925598144531e+01 1.388682746887207031e+01 7.712771766819059849e-04 8.471545152133330703e-05 2.567977935541421175e-04 2.928325266111642122e-04
1.103000000000000000e+03 1.882401466369628906e+01 4.997934818267822266e+00 -5.494559300132095814e-04 -1.180675899377092719e-04 -2.002570545300841331e-04 -1.917531189974397421e-04
1.104000000000000000e+03 1.447033405303955078e+01 2.711700820922851562e+01 -2.979755168780684471e-03 2.936935925390571356e-04 -8.058184757828712463e-04 8.500237163389101624e-05
1.105000000000000000e+03 1.919543647766113281e+01 3.951221704483032227e+00 5.679923924617469311e-04 1.843009376898407936e-04 2.256879961350932717e-04 1.829564862418919802e-04
1.106000000000000000e+03 1.394733524322509766e+01 2.112146949768066406e+01 -1.362752518616616726e-03 -6.072192263673059642e-05 -4.270423378329724073e-04 -2.289444819325581193e-04
1.107000000000000000e+03 1.819298934936523438e+01 8.917174339294433594e+00 -7.643660064786672592e-04 -8.129395428113639355e-05 -2.536980027798563242e-04 -2.279692271258682013e-04
1.108000000000000000e+03 1.670021820068359375e+01 3.400707483291625977e+00 4.471974534681066871e-05 -4.258974513504654169e-04 -1.143533154390752316e-04 -1.018137991195544600e-04
1.109000000000000000e+03 1.415749263763427734e+01 2.556395912170410156e+01 2.348626265302300453e-03 -3.983272763434797525e-04 5.850897287018597126e-04 3.757550148293375969e-04
1.110000000000000000e+03 1.714004325866699219e+01 8.537058830261230469e+00 6.256597698666155338e-04 5.693845014320686460e-05 2.047794696409255266e-04 1.596621732460334897e-04
1.111000000000000000e+03 1.658710098266601562e+01 9.837645530700683594e+00 -6.456255796365439892e-04 -8.792112203082069755e-05 -2.200640010414645076e-04 -1.591207546880468726e-04
1.112000000000000000e+03 1.508787727355957031e+01 2.857368278503417969e+01 4.010385368019342422e-03 -4.642689600586891174e-04 1.063834875822067261e-03 -1.804945204639807343e-04
1.113000000000000000e+03 1.474834823608398438e+01 1.526645278930664062e+01 -8.685055072419345379e-04 3.926284261979162693e-05 -2.487727906554937363e-04 -2.884701825678348541e-04
1.114000000000000000e+03 1.702717208862304688e+01 1.833496451377868652e+00 -1.178234306280501187e-04 -2.811352314893156290e-04 -1.196875964524224401e-04 -1.635281369090080261e-04
1.115000000000000000e+03 7.940227508544921875e+01 -2.778991699218750000e+01 -4.496415494941174984e-04 1.334864902496337891e+01 4.004459857940673828e+00 3.679921478033065796e-02
1.116000000000000000e+03 7.907433319091796875e+01 3.605723571777343750e+01 1.567487721331417561e-03 2.843165874481201172e+00 8.534200191497802734e-01 -1.201704703271389008e-02
1.117000000000000000e+03 7.723617553710937500e+01 -3.800589370727539062e+01 -1.131649240851402283e-01 9.322968482971191406e+00 2.762941122055053711e+00 5.408118367195129395e-01
1.118000000000000000e+03 7.934410095214843750e+01 -3.475357437133789062e+01 -3.624681755900382996e-02 1.164674282073974609e+01 3.483148813247680664e+00 1.742690503597259521e-01
1.119000000000000000e+03 7.944697570800781250e+01 -2.081045341491699219e+01 -6.752018630504608154e-02 1.338490676879882812e+01 3.995215892791748047e+00 -2.620966732501983643e-01
1.120000000000000000e+03 7.826360321044921875e+01 -2.624626541137695312e+01 -5.932979285717010498e-02 1.189521694183349609e+01 3.550765991210937500e+00 9.525346755981445312e-02
1.121000000000000000e+03 7.936946868896484375e+01 -3.058153533935546875e+01 1.567908748984336853e-02 1.274740219116210938e+01 3.828924417495727539e+00 1.079805493354797363e-01
1.122000000000000000e+03 7.803523254394531250e+01 -3.324460601806640625e+01 -6.374587118625640869e-02 1.062490844726562500e+01 3.168348789215087891e+00 4.391641914844512939e-01
1.123000000000000000e+03 7.652116394042968750e+01 -3.925939559936523438e+01 9.871280938386917114e-02 9.463564872741699219e+00 2.868683338165283203e+00 3.247910737991333008e-01
1.124000000000000000e+03 7.806938171386718750e+01 1.533357715606689453e+01 3.305569663643836975e-02 4.869584560394287109e+00 1.470792174339294434e+00 -4.568839669227600098e-01
1.125000000000000000e+03 7.935718536376953125e+01 1.532931518554687500e+01 6.226482801139354706e-03 5.048342227935791016e+00 1.516370534896850586e+00 -1.610170900821685791e-01
1.126000000000000000e+03 7.934136962890625000e+01 2.229472351074218750e+01 5.821921397000551224e-03 3.714604377746582031e+00 1.116127848625183105e+00 -9.187739342451095581e-02
1.127000000000000000e+03 7.799716186523437500e+01 3.168401718139648438e+01 1.537468843162059784e-02 3.007511377334594727e+00 9.068658351898193359e-01 -7.087580114603042603e-02
1.128000000000000000e+03 7.808834838867187500e+01 2.781715011596679688e+01 1.962308213114738464e-02 3.202352523803710938e+00 9.665926694869995117e-01 -1.337255239486694336e-01
1.129000000000000000e+03 7.936714935302734375e+01 2.784181976318359375e+01 4.142977297306060791e-03 3.142552375793457031e+00 9.440086483955383301e-01 -4.669721797108650208e-02
1.130000000000000000e+03 7.801396942138671875e+01 2.508553886413574219e+01 2.572347037494182587e-02 3.418532848358154297e+00 1.033276915550231934e+00 -1.963064819574356079e-01
1.131000000000000000e+03 7.800220489501953125e+01 2.369846725463867188e+01 2.787713706493377686e-02 3.554066181182861328e+00 1.074583053588867188e+00 -2.289698272943496704e-01
1.132000000000000000e+03 7.805672454833984375e+01 1.812074279785156250e+01 3.323108330368995667e-02 4.329352855682373047e+00 1.308775067329406738e+00 -3.757086098194122314e-01
1.133000000000000000e+03 7.806508636474609375e+01 1.672736358642578125e+01 3.250393271446228027e-02 4.585335254669189453e+00 1.385351777076721191e+00 -4.157476723194122314e-01
1.134000000000000000e+03 7.807085418701171875e+01 1.394033527374267578e+01 3.071466833353042603e-02 5.176142215728759766e+00 1.562057018280029297e+00 -4.964364767074584961e-01
1.135000000000000000e+03 7.680246734619140625e+01 1.255709266662597656e+01 6.992457062005996704e-02 5.178228378295898438e+00 1.574445843696594238e+00 -8.174350857734680176e-01
1.136000000000000000e+03 7.809519195556640625e+01 9.772245407104492188e+00 2.040166221559047699e-02 6.241243362426757812e+00 1.878493547439575195e+00 -5.957230329513549805e-01
1.137000000000000000e+03 7.936336517333984375e+01 9.758583068847656250e+00 2.273885766044259071e-03 6.678699016571044922e+00 2.004291772842407227e+00 -2.106078416109085083e-01
1.138000000000000000e+03 7.947970581054687500e+01 -1.940290641784667969e+01 -8.223616331815719604e-02 1.277268314361572266e+01 3.807134151458740234e+00 -4.583717286586761475e-01
1.139000000000000000e+03 7.956925201416015625e+01 -6.967580318450927734e+00 -7.023829966783523560e-02 1.126501274108886719e+01 3.358432531356811523e+00 1.603309512138366699e-01
1.140000000000000000e+03 7.809536743164062500e+01 -9.521196782588958740e-02 -4.057314991950988770e-02 9.035030364990234375e+00 2.698337078094482422e+00 -5.385563373565673828e-01
1.141000000000000000e+03 7.936192321777343750e+01 1.377869129180908203e+00 -2.042545750737190247e-02 9.618166923522949219e+00 2.879322528839111328e+00 -2.004617601633071899e-01
1.142000000000000000e+03 7.810293579101562500e+01 8.383030891418457031e+00 9.938836097717285156e-03 6.633225440979003906e+00 1.992949247360229492e+00 -6.118850111961364746e-01
1.143000000000000000e+03 7.959281158447265625e+01 -1.382569885253906250e+01 6.830186843872070312e-01 4.224518835544586182e-01 3.316411674022674561e-01 -5.102664828300476074e-01
1.144000000000000000e+03 7.389667510986328125e+01 3.718984985351562500e+01 5.526029318571090698e-02 3.046033382415771484e+00 9.303880929946899414e-01 -7.564674317836761475e-02
1.145000000000000000e+03 7.530384826660156250e+01 3.612906265258789062e+01 3.837738186120986938e-02 3.005114078521728516e+00 9.130474328994750977e-01 -6.844884902238845825e-02
1.146000000000000000e+03 7.683020782470703125e+01 1.411195635795593262e+00 -7.870452851057052612e-02 7.674650192260742188e+00 2.278783559799194336e+00 -8.890355229377746582e-01
1.147000000000000000e+03 7.808787536621093750e+01 1.366520047187805176e+00 -3.453019261360168457e-02 8.629179954528808594e+00 2.578394889831542969e+00 -5.939009189605712891e-01
1.148000000000000000e+03 7.848951721191406250e+01 -4.332883358001708984e+00 -8.346197009086608887e-02 1.024724006652832031e+01 3.049133539199829102e+00 -2.146873027086257935e-01
1.149000000000000000e+03 7.944394683837890625e+01 -2.834608316421508789e+00 -1.135867740958929062e-02 1.091805648803710938e+01 3.272009134292602539e+00 -1.231244653463363647e-01
1.150000000000000000e+03 7.860163116455078125e+01 -5.674481868743896484e+00 -1.772841960191726685e-01 1.052496623992919922e+01 3.104304790496826172e+00 -2.851525088772177696e-03
1.151000000000000000e+03 7.684513854980468750e+01 -1.154997253417968750e+01 -1.505559563636779785e+00 1.848883819580078125e+01 5.094984054565429688e+00 1.044073462486267090e+00
1.152000000000000000e+03 7.794664001464843750e+01 -1.179528617858886719e+01 6.600727438926696777e-01 1.297741603851318359e+01 4.091246604919433594e+00 3.518479824066162109e+00
1.153000000000000000e+03 7.956859588623046875e+01 -1.242894744873046875e+01 2.495904862880706787e-01 1.065354943275451660e+00 3.944836258888244629e-01 1.119520068168640137e+00
1.154000000000000000e+03 4.180723953247070312e+01 3.280022811889648438e+01 1.018498465418815613e-01 3.621426105499267578e+00 1.116982817649841309e+00 -4.576756656169891357e-01
1.155000000000000000e+03 4.097359085083007812e+01 3.443177413940429688e+01 -1.323809325695037842e-01 3.101323604583740234e+00 8.906828165054321289e-01 -5.583071708679199219e-01
1.156000000000000000e+03 4.289284515380859375e+01 2.807141113281250000e+01 6.559038758277893066e-01 5.201769351959228516e+00 1.757302045822143555e+00 -3.225484490394592285e-01
1.157000000000000000e+03 3.430668258666992188e+01 -7.932441681623458862e-02 -3.454540252685546875e+00 -8.403611779212951660e-01 -1.288470387458801270e+00 -1.752226591110229492e+00
1.158000000000000000e+03 3.174217414855957031e+01 -1.508368134498596191e+00 -4.699193954467773438e+00 -9.864440560340881348e-01 -1.705691456794738770e+00 -1.796319127082824707e+00
1.159000000000000000e+03 3.701490020751953125e+01 3.522580337524414062e+01 5.711967870593070984e-02 4.309563934803009033e-01 1.464228183031082153e-01 -2.490527629852294922e-01
1.160000000000000000e+03 3.283684921264648438e+01 3.678376007080078125e+01 -2.575162947177886963e-01 7.977913133800029755e-03 -7.486151903867721558e-02 6.480062752962112427e-02
1.161000000000000000e+03 4.128318405151367188e+01 1.371710300445556641e+01 6.144794225692749023e-01 1.094686508178710938e+01 3.468403339385986328e+00 2.043220281600952148e+00
1.162000000000000000e+03 4.292543411254882812e+01 1.790842819213867188e+01 4.424932003021240234e-01 7.365046024322509766e+00 2.342261791229248047e+00 1.183163523674011230e+00
1.163000000000000000e+03 4.215494537353515625e+01 3.112184333801269531e+01 4.215536415576934814e-01 4.436246871948242188e+00 1.457340121269226074e+00 -5.494933128356933594e-01
1.164000000000000000e+03 3.992911148071289062e+01 1.523380994796752930e+00 -2.788011550903320312e+00 1.016843795776367188e+01 2.214127779006958008e+00 7.864187359809875488e-01
1.165000000000000000e+03 2.915789985656738281e+01 -3.185452699661254883e+00 -2.084255933761596680e+00 -6.162447333335876465e-01 -8.101502060890197754e-01 -9.867631196975708008e-01
1.166000000000000000e+03 4.045085144042968750e+01 9.491722106933593750e+00 1.381106615066528320e+00 1.413829421997070312e+01 4.655820369720458984e+00 3.860849142074584961e+00
1.167000000000000000e+03 3.904156112670898438e+01 -7.631909370422363281e+00 1.584019184112548828e+00 1.035110378265380859e+01 3.580536842346191406e+00 1.046375989913940430e+00
1.168000000000000000e+03 4.340769195556640625e+01 1.188693332672119141e+01 1.656763195991516113e+00 7.840106964111328125e+00 2.849061012268066406e+00 2.901268005371093750e+00
1.169000000000000000e+03 3.192439270019531250e+01 3.855421447753906250e+01 -3.615198284387588501e-02 4.013716802000999451e-02 1.195555785670876503e-03 3.902447968721389771e-02
1.170000000000000000e+03 3.823170089721679688e+01 2.268569946289062500e+00 -1.433905839920043945e+00 8.517655372619628906e+00 2.125124931335449219e+00 1.569219946861267090e+00
1.171000000000000000e+03 3.525604629516601562e+01 3.807652282714843750e+01 8.192289620637893677e-03 4.103321731090545654e-01 1.255573332309722900e-01 -1.502829343080520630e-01
1.172000000000000000e+03 3.209799194335937500e+01 3.993250656127929688e+01 1.270068287849426270e-01 8.884125947952270508e-02 6.475442647933959961e-02 3.120400942862033844e-02
1.173000000000000000e+03 2.489176940917968750e+01 -4.092434883117675781e+00 -8.898041844367980957e-01 -1.364830285310745239e-01 -3.078861534595489502e-01 -4.842500686645507812e-01
1.174000000000000000e+03 3.841605377197265625e+01 -4.709092617034912109e+00 6.556280851364135742e-01 8.316020965576171875e+00 2.691494703292846680e+00 1.083069205284118652e+00
1.175000000000000000e+03 3.614205169677734375e+01 1.722927689552307129e-01 -2.321705102920532227e+00 3.276974678039550781e+00 2.865809202194213867e-01 3.018604815006256104e-01
1.176000000000000000e+03 3.712832641601562500e+01 1.242174744606018066e+00 -1.739791154861450195e+00 5.472960948944091797e+00 1.119950890541076660e+00 8.928005099296569824e-01
1.177000000000000000e+03 4.157876586914062500e+01 9.166665077209472656e+00 1.962710380554199219e+00 1.088346099853515625e+01 3.853851556777954102e+00 3.802073478698730469e+00
1.178000000000000000e+03 4.299282836914062500e+01 1.934432411193847656e+01 2.846385240554809570e-01 6.946361064910888672e+00 2.169299840927124023e+00 9.059974551200866699e-01
1.179000000000000000e+03 4.033660507202148438e+01 3.715918731689453125e+01 -2.803600132465362549e-01 2.519249677658081055e+00 6.716669201850891113e-01 -4.194699525833129883e-01
1.180000000000000000e+03 3.953295516967773438e+01 3.554216766357421875e+01 -1.267260164022445679e-01 2.200502157211303711e+00 6.221328973770141602e-01 -5.942025184631347656e-01
1.181000000000000000e+03 4.170185852050781250e+01 2.507275199890136719e+01 4.899439960718154907e-02 5.994012355804443359e+00 1.812902092933654785e+00 -1.588825951330363750e-03
1.182000000000000000e+03 4.103947067260742188e+01 1.230217075347900391e+01 6.073994636535644531e-01 1.147619152069091797e+01 3.625077486038208008e+00 2.508483886718750000e+00
1.183000000000000000e+03 4.247858047485351562e+01 1.355723094940185547e+01 1.048288464546203613e+00 9.080453872680664062e+00 3.038622856140136719e+00 2.277946710586547852e+00
1.184000000000000000e+03 4.551592636108398438e+01 2.602284431457519531e+00 -4.518239498138427734e+00 1.550951957702636719e+00 -8.901861906051635742e-01 2.424055099487304688e+00
1.185000000000000000e+03 4.195587539672851562e+01 1.061943340301513672e+01 1.516341924667358398e+00 1.020946502685546875e+01 3.517741918563842773e+00 3.467705249786376953e+00
1.186000000000000000e+03 4.307544326782226562e+01 2.506562232971191406e+01 1.950444281101226807e-01 5.771989822387695312e+00 1.790110349655151367e+00 6.412399560213088989e-02
1.187000000000000000e+03 4.306462860107421875e+01 2.219180870056152344e+01 1.631608158349990845e-01 6.146570682525634766e+00 1.892919421195983887e+00 4.463075399398803711e-01
1.188000000000000000e+03 4.440102767944335938e+01 2.210703849792480469e+01 3.488124608993530273e-01 5.784413337707519531e+00 1.839967727661132812e+00 6.623147726058959961e-01
1.189000000000000000e+03 1.458203911781311035e+00 -3.998144912719726562e+01 -4.768424201756715775e-03 3.710868656635284424e-01 1.098955348134040833e-01 -4.400653019547462463e-02
1.190000000000000000e+03 8.507767915725708008e-01 3.742821121215820312e+01 -8.613822865299880505e-04 2.641255850903689861e-04 -1.791770046111196280e-04 3.473990727798081934e-05
1.191000000000000000e+03 7.601087093353271484e-01 3.328819274902343750e+01 1.052868203260004520e-03 2.005558635573834181e-04 3.760272229555994272e-04 -4.113561226404272020e-05
1.192000000000000000e+03 2.685057878494262695e+00 3.835944747924804688e+01 -6.857445114292204380e-04 -1.418989995727315545e-04 -2.482930431142449379e-04 1.452636643080040812e-04
1.193000000000000000e+03 6.796868443489074707e-01 2.622158432006835938e+01 -9.491200908087193966e-04 -1.996152604988310486e-06 -2.853348851203918457e-04 8.936231097322888672e-06
1.194000000000000000e+03 2.158611536026000977e+00 2.903996849060058594e+01 1.012779190205037594e-03 -1.310081006522523239e-05 2.999035059474408627e-04 3.520392056088894606e-05
1.195000000000000000e+03 6.602746844291687012e-01 -3.593670272827148438e+01 -2.228706842288374901e-03 5.369080305099487305e-01 1.604037880897521973e-01 -2.076769061386585236e-02
1.196000000000000000e+03 6.251820087432861328e+00 -3.537014770507812500e+01 -4.069411754608154297e-02 -6.992629170417785645e-02 -3.318612277507781982e-02 5.215444834902882576e-04
1.197000000000000000e+03 3.503644227981567383e+00 2.756712150573730469e+01 1.152459764853119850e-03 -1.300852309213951230e-04 3.067123761866241693e-04 3.540392208378762007e-05
1.198000000000000000e+03 3.321454524993896484e+00 2.470543289184570312e+01 1.046308665536344051e-03 -5.378245623433031142e-05 2.977578842546790838e-04 -1.027666075970046222e-05
1.199000000000000000e+03 2.288018226623535156e+00 3.188438224792480469e+01 9.730152669362723827e-04 1.256303366972133517e-04 3.295936621725559235e-04 3.298593219369649887e-05
1.200000000000000000e+03 2.309669256210327148e+00 3.459949111938476562e+01 8.871753816492855549e-04 1.771728566382080317e-04 3.193044685758650303e-04 2.079922678532852842e-09
1.201000000000000000e+03 2.308945894241333008e+00 3.325759124755859375e+01 -9.003105224110186100e-04 1.527818094473332167e-04 -2.242586197098717093e-04 -1.998802472371608019e-04
1.202000000000000000e+03 3.300426959991455078e+00 3.940715026855468750e+01 3.766328445635735989e-04 1.633485662750899792e-04 1.619944232515990734e-04 -3.483161854092031717e-04
1.203000000000000000e+03 6.965842247009277344e-01 -3.039521026611328125e+01 -2.104995585978031158e-02 5.527296662330627441e-01 1.595039218664169312e-01 4.328724741935729980e-02
1.204000000000000000e+03 3.303565740585327148e+00 -2.689127731323242188e+01 -1.681725084781646729e-01 3.517977893352508545e-02 -3.989781811833381653e-02 4.570822417736053467e-01
1.205000000000000000e+03 1.773536920547485352e+00 -1.666762161254882812e+01 6.792872399091720581e-02 -1.092968106269836426e+00 -3.075118362903594971e-01 -6.881206482648849487e-02
1.206000000000000000e+03 5.657222867012023926e-01 -2.337120628356933594e+01 5.710936617106199265e-03 -8.204116821289062500e-01 -2.444102168083190918e-01 1.541164219379425049e-01
1.207000000000000000e+03 2.308542251586914062e+00 -3.656518936157226562e+01 -5.144822876900434494e-03 3.414047062397003174e-01 1.008779630064964294e-01 -5.170093476772308350e-02
1.208000000000000000e+03 6.313277482986450195e-01 1.915056037902832031e+01 7.720841676928102970e-04 -1.402872385369846597e-05 2.274166472489014268e-04 -1.956389860424678773e-05
1.209000000000000000e+03 6.066677570343017578e-01 1.351277256011962891e+01 6.001243018545210361e-04 -5.026814051234396175e-06 1.785292552085593343e-04 -1.055288521456532180e-05
1.210000000000000000e+03 6.446530818939208984e-01 7.805950641632080078e+00 2.940114354714751244e-04 2.344428503420203924e-05 9.523671906208619475e-05 -4.600618194672279060e-05
1.211000000000000000e+03 5.222588539123535156e+00 -4.029111862182617188e+01 4.864699393510818481e-02 7.699631154537200928e-02 3.769299015402793884e-02 9.550933726131916046e-03
1.212000000000000000e+03 3.845792055130004883e+00 -3.882071685791015625e+01 1.264725998044013977e-02 2.465446293354034424e-01 7.775756716728210449e-02 -2.901344560086727142e-02
1.213000000000000000e+03 2.905060291290283203e+00 -3.488369369506835938e+01 -2.711163274943828583e-02 2.720078229904174805e-01 7.346885651350021362e-02 -3.485816344618797302e-02
1.214000000000000000e+03 1.795444488525390625e+00 -3.320216751098632812e+01 -3.026379831135272980e-02 4.173471927642822266e-01 1.161250174045562744e-01 -1.314942166209220886e-02
1.215000000000000000e+03 4.686352729797363281e+00 -2.987547874450683594e+01 -3.018586635589599609e-01 -5.542630329728126526e-02 -1.071854904294013977e-01 2.244064062833786011e-01
1.216000000000000000e+03 2.805232763290405273e+00 -2.450478363037109375e+01 1.087036728858947754e-02 -1.532486975193023682e-01 -4.271350055932998657e-02 5.676123499870300293e-01
1.217000000000000000e+03 2.990835905075073242e+00 -1.693449783325195312e+01 1.523557156324386597e-01 -5.791110396385192871e-01 -1.280265897512435913e-01 -3.429537266492843628e-02
1.218000000000000000e+03 3.048449277877807617e+00 -1.267205238342285156e+01 4.705852642655372620e-02 -4.985704421997070312e-01 -1.354535818099975586e-01 -3.098013997077941895e-01
1.219000000000000000e+03 6.039407849311828613e-01 -1.221522903442382812e+01 1.673764199949800968e-03 -1.133810997009277344e+00 -3.396411538124084473e-01 -8.981940895318984985e-02
1.220000000000000000e+03 1.818807125091552734e+00 -1.244064807891845703e+01 5.600627977401018143e-03 -8.245550990104675293e-01 -2.456863373517990112e-01 -2.365875840187072754e-01
1.221000000000000000e+03 1.739313602447509766e+00 -6.966060161590576172e+00 -2.166273631155490875e-02 -3.255224823951721191e-01 -1.041555628180503845e-01 -1.819669306278228760e-01
1.222000000000000000e+03 1.623954653739929199e+00 -3.534524440765380859e+00 -2.831661887466907501e-02 -1.040071770548820496e-01 -3.969713672995567322e-02 -9.149605780839920044e-02
1.223000000000000000e+03 6.363644599914550781e-01 -5.170812606811523438e+00 -5.369603168219327927e-03 -2.029427587985992432e-01 -6.249370798468589783e-02 -5.822686851024627686e-02
1.224000000000000000e+03 4.894392192363739014e-01 4.922407150268554688e+00 2.650732058100402355e-04 -2.523114017094485462e-05 7.195262151071801782e-05 -4.229310798109509051e-05
1.225000000000000000e+03 5.864231109619140625e+00 4.193174362182617188e+00 1.475063763791695237e-04 1.717434352030977607e-04 9.577494347468018532e-05 1.588544000696856529e-05
1.226000000000000000e+03 1.813917517662048340e+00 1.070724487304687500e+01 -5.521529819816350937e-04 3.067739453399553895e-05 -1.564426784170791507e-04 1.026556947181234136e-05
1.227000000000000000e+03 6.117274165153503418e-01 1.068359947204589844e+01 4.749275103677064180e-04 -1.404014255967922509e-05 1.382662157993763685e-04 -2.814987783494871110e-05
1.228000000000000000e+03 1.808892369270324707e+00 1.351929378509521484e+01 -6.279280642047524452e-04 2.242150003439746797e-06 -1.877057657111436129e-04 3.928179921786068007e-06
1.229000000000000000e+03 1.900590062141418457e+00 2.051557922363281250e+01 8.416353957727551460e-04 -1.412245273968437687e-05 2.482538984622806311e-04 -5.741252152802189812e-06
1.230000000000000000e+03 1.880623102188110352e+00 1.911004638671875000e+01 -7.975488551892340183e-04 -5.096310360386269167e-07 -2.394175389781594276e-04 1.250002696906449273e-05
1.231000000000000000e+03 1.996675252914428711e+00 2.475742721557617188e+01 -9.456230909563601017e-04 1.881596472230739892e-05 -2.780421345960348845e-04 -6.504272278107237071e-06
1.232000000000000000e+03 7.437523651123046875e+01 -1.511043739318847656e+01 1.543298006057739258e+00 4.171223163604736328e+00 1.714356303215026855e+00 3.223589897155761719e+00
1.233000000000000000e+03 7.538272857666015625e+01 -1.511511993408203125e+01 3.456459343433380127e-01 1.182927036285400391e+01 3.652474880218505859e+00 5.374636650085449219e+00
1.234000000000000000e+03 7.541304779052734375e+01 -1.545354747772216797e+01 -4.907887279987335205e-01 1.217957687377929688e+01 3.506636619567871094e+00 4.362946510314941406e+00
1.235000000000000000e+03 7.383380889892578125e+01 -1.516282749176025391e+01 1.232213258743286133e+00 2.409430027008056641e+00 1.092493057250976562e+00 1.905355691909790039e+00
1.236000000000000000e+03 7.388436126708984375e+01 -1.538662624359130859e+01 1.212486863136291504e+00 3.141216754913330078e+00 1.306111097335815430e+00 2.191358804702758789e+00
1.237000000000000000e+03 7.494599151611328125e+01 -1.178862667083740234e+01 1.865684151649475098e+00 7.809789180755615234e+00 2.902642011642456055e+00 -5.752119064331054688e+00
1.238000000000000000e+03 7.456747436523437500e+01 -1.183755302429199219e+01 2.282767057418823242e+00 5.070669651031494141e+00 2.206031084060668945e+00 -4.657783508300781250e+00
1.239000000000000000e+03 7.305308532714843750e+01 -1.149864578247070312e+01 9.198703169822692871e-01 1.688976526260375977e+00 7.826540470123291016e-01 -1.355835795402526855e+00
1.240000000000000000e+03 7.475920867919921875e+01 -1.184224414825439453e+01 2.162373781204223633e+00 6.028728008270263672e+00 2.457330465316772461e+00 -5.205845832824707031e+00
1.241000000000000000e+03 7.442711639404296875e+01 -1.150404453277587891e+01 1.688286423683166504e+00 5.115997791290283203e+00 2.041285276412963867e+00 -4.203137874603271484e+00
1.242000000000000000e+03 7.568394470214843750e+01 -1.146315670013427734e+01 -7.768438458442687988e-01 1.484305191040039062e+01 4.219862461090087891e+00 -4.874831199645996094e+00
1.243000000000000000e+03 7.622196197509765625e+01 -1.511636924743652344e+01 -1.942311048507690430e+00 1.917044639587402344e+01 5.168440341949462891e+00 1.863937854766845703e+00
1.244000000000000000e+03 7.761804199218750000e+01 -1.319094085693359375e+01 6.658655643463134766e+00 1.384971904754638672e+01 6.152512550354003906e+00 3.987570106983184814e-01
1.245000000000000000e+03 7.770249938964843750e+01 -1.342563915252685547e+01 7.614848136901855469e+00 1.314798164367675781e+01 6.228848934173583984e+00 -7.991083264350891113e-01
1.246000000000000000e+03 7.660711669921875000e+01 -1.547846984863281250e+01 -2.268936395645141602e+00 1.784934234619140625e+01 4.674121856689453125e+00 -4.737321138381958008e-01
1.247000000000000000e+03 7.701424407958984375e+01 -1.474898910522460938e+01 6.349484920501708984e-01 2.005543518066406250e+01 6.207115173339843750e+00 -3.647680997848510742e+00
1.248000000000000000e+03 7.773783874511718750e+01 -1.132496738433837891e+01 -1.386085271835327148e+00 1.384745025634765625e+01 3.738409280776977539e+00 3.219593524932861328e+00
1.249000000000000000e+03 7.780342864990234375e+01 -7.076088428497314453e+00 -5.982568264007568359e-01 1.018730735778808594e+01 2.876715183258056641e+00 2.868819236755371094e-01
1.250000000000000000e+03 7.705799102783203125e+01 -9.661664962768554688e+00 -1.949415922164916992e+00 1.233908462524414062e+01 3.116900682449340820e+00 6.672329902648925781e-01
1.251000000000000000e+03 7.183393859863281250e+01 -1.852756309509277344e+01 2.495259046554565430e-01 1.983860015869140625e+00 6.700158119201660156e-01 1.393162608146667480e-01
1.252000000000000000e+03 7.179372406005859375e+01 -1.666807174682617188e+01 5.584307312965393066e-01 9.734856486320495605e-01 4.595749080181121826e-01 -4.297459381632506847e-04
1.253000000000000000e+03 7.247628021240234375e+01 -1.586691284179687500e+01 6.044754981994628906e-01 1.165178060531616211e+00 5.308960676193237305e-01 3.405133485794067383e-01
1.254000000000000000e+03 6.988745880126953125e+01 -1.893242835998535156e+01 1.117907688021659851e-01 -3.279496133327484131e-01 -6.484765559434890747e-02 -1.916544586420059204e-01
1.255000000000000000e+03 7.072860717773437500e+01 -2.027514457702636719e+01 3.982815891504287720e-02 8.070925474166870117e-01 2.540762126445770264e-01 -9.533314406871795654e-02
1.256000000000000000e+03 1.566802787780761719e+01 1.772661209106445312e+00 -7.807011570548638701e-05 -3.127515374217182398e-04 -1.172464981209486723e-04 -1.201106933876872063e-04
1.257000000000000000e+03 1.633485412597656250e+01 1.792396068572998047e+00 1.052591396728530526e-04 2.915744844358414412e-04 1.190500915981829166e-04 1.351440150756388903e-04
1.258000000000000000e+03 7.271994781494140625e+01 -1.143616676330566406e+01 6.736684441566467285e-01 1.268710374832153320e+00 5.827136635780334473e-01 -7.784328460693359375e-01
1.259000000000000000e+03 1.023952293395996094e+01 -2.748825073242187500e+00 -4.231794178485870361e-01 6.280986964702606201e-02 -1.081108674407005310e-01 -1.076384484767913818e-01
1.260000000000000000e+03 7.053637695312500000e+01 -1.768802833557128906e+01 2.386142760515213013e-01 1.175230741500854492e-01 1.068412065505981445e-01 -2.793085575103759766e-01
1.261000000000000000e+03 7.016504669189453125e+01 -1.134374713897705078e+01 -3.060090541839599609e-01 3.278041779994964600e-01 6.538533605635166168e-03 6.269819736480712891e-01
1.262000000000000000e+03 6.938629150390625000e+01 -1.130144691467285156e+01 -4.199770987033843994e-01 1.046290546655654907e-01 -9.460441768169403076e-02 7.309024333953857422e-01
1.263000000000000000e+03 6.781208801269531250e+01 -1.139629840850830078e+01 -4.457295238971710205e-01 -8.163455128669738770e-01 -3.786225020885467529e-01 6.716818809509277344e-01
1.264000000000000000e+03 1.831484031677246094e+01 6.115965366363525391e+00 5.666262004524469376e-04 7.846517837606370449e-05 1.935274049174040556e-04 1.874971349025145173e-04
1.265000000000000000e+03 1.099981784820556641e+01 -3.591485261917114258e+00 -4.069369733333587646e-01 7.756121456623077393e-02 -9.881272912025451660e-02 -1.247718855738639832e-01
1.266000000000000000e+03 1.174364662170410156e+01 -3.676385879516601562e+00 -4.236298501491546631e-01 6.950377672910690308e-02 -1.062378212809562683e-01 -1.104385107755661011e-01
1.267000000000000000e+03 1.245300102233886719e+01 -3.017355918884277344e+00 -4.991782009601593018e-01 4.302048683166503906e-02 -1.368473172187805176e-01 -7.090726494789123535e-02
1.268000000000000000e+03 9.511989593505859375e+00 -3.459251880645751953e+00 -3.578051924705505371e-01 7.387412339448928833e-02 -8.517931401729583740e-02 -1.525995284318923950e-01
1.269000000000000000e+03 1.444632339477539062e+01 2.502633571624755859e+00 -2.513609433663077652e-05 3.605688107199966908e-04 1.006298116408288479e-04 -6.295768980635330081e-05
1.270000000000000000e+03 1.382667160034179688e+01 2.758102178573608398e+00 -1.317019050475209951e-04 -2.501267590560019016e-04 -1.145485948654823005e-04 1.418106112396344543e-04
1.271000000000000000e+03 1.218013191223144531e+01 2.301870107650756836e+00 1.846917584771290421e-04 1.517409109510481358e-04 1.009297993732616305e-04 -5.573680027737282217e-05
1.272000000000000000e+03 6.952761840820312500e+01 -1.052717018127441406e+01 -2.426422387361526489e-01 2.395732402801513672e-01 -9.207017719745635986e-04 5.762026906013488770e-01
1.273000000000000000e+03 7.024916076660156250e+01 -1.062253570556640625e+01 -8.677654713392257690e-02 5.375272631645202637e-01 1.352252215147018433e-01 4.433741569519042969e-01
1.274000000000000000e+03 1.397588443756103516e+01 -3.200656890869140625e+00 -5.384305715560913086e-01 1.796851120889186859e-02 -1.561386138200759888e-01 -4.656061902642250061e-02
1.275000000000000000e+03 1.481830501556396484e+01 -4.030238151550292969e+00 -4.689778685569763184e-01 1.263528130948543549e-02 -1.369027793407440186e-01 -5.426613986492156982e-02
1.276000000000000000e+03 1.249451160430908203e+01 -3.769600391387939453e+00 -4.412502348423004150e-01 6.224918365478515625e-02 -1.137003228068351746e-01 -9.485061466693878174e-02
1.277000000000000000e+03 1.325839710235595703e+01 -3.861732244491577148e+00 -4.511976838111877441e-01 4.664505645632743835e-02 -1.213657930493354797e-01 -8.043126016855239868e-02
1.278000000000000000e+03 1.229168128967285156e+01 3.060155153274536133e+00 -2.232044935226440430e-04 -1.650774502195417881e-04 -1.164845816674642265e-04 3.979863686254248023e-05
1.279000000000000000e+03 1.065879726409912109e+01 3.262365341186523438e+00 -2.501195122022181749e-04 -1.204543950734660029e-04 -1.111721721827052534e-04 8.248702215496450663e-05
1.280000000000000000e+03 1.309036827087402344e+01 2.954467535018920898e+00 2.586231566965579987e-04 1.586899015819653869e-04 1.251939247595146298e-04 -7.948771235533058643e-05
1.281000000000000000e+03 6.600742340087890625e+00 2.652302742004394531e+00 -1.337787834927439690e-04 -1.309147337451577187e-04 -7.940805517137050629e-05 -2.749685336311813444e-05
1.282000000000000000e+03 4.278489589691162109e+00 3.564779996871948242e+00 -1.749203511280938983e-04 -1.432723802281543612e-04 -9.545782086206600070e-05 4.471812644624151289e-06
1.283000000000000000e+03 4.295285224914550781e+00 4.421645641326904297e+00 2.151898370357230306e-04 1.801374746719375253e-04 1.185981964226812124e-04 5.929496910539455712e-05
1.284000000000000000e+03 4.258556842803955078e+00 2.735710382461547852e+00 1.434226578567177057e-04 1.173068012576550245e-04 7.821883627912029624e-05 -2.134303576895035803e-05
1.285000000000000000e+03 5.812348842620849609e+00 3.446828603744506836e+00 -1.467277324991300702e-04 -1.496343902545049787e-04 -8.890863682609051466e-05 3.105468977082637139e-06
1.286000000000000000e+03 9.792256355285644531e+00 2.574569463729858398e+00 -2.175215777242556214e-04 -9.632374712964519858e-05 -9.415359818376600742e-05 1.357548535452224314e-05
1.287000000000000000e+03 6.608212947845458984e+00 3.399297475814819336e+00 1.592334592714905739e-04 1.445625675842165947e-04 9.113881242228671908e-05 4.767432619701139629e-05
1.288000000000000000e+03 1.450150728225708008e+00 4.624617576599121094e+00 -2.095998352160677314e-04 -2.313376899110153317e-05 -6.982008198974654078e-05 1.478277845308184624e-04
1.289000000000000000e+03 4.054643809795379639e-01 3.536343812942504883e+00 -2.390855079283937812e-04 -9.779800166143104434e-06 -7.465959788532927632e-05 6.769636092940345407e-05
1.290000000000000000e+03 8.192230224609375000e+00 4.163281917572021484e+00 -3.072051622439175844e-04 -7.223878492368385196e-05 -1.138331790571101010e-04 -9.062633762368932366e-05
1.291000000000000000e+03 9.839214324951171875e+00 3.342615365982055664e+00 2.926649467553943396e-04 7.454289152519777417e-05 1.101623493013903499e-04 -3.307592851342633367e-05
1.292000000000000000e+03 7.095326232910156250e+01 -1.066727352142333984e+01 1.218781992793083191e-01 8.381399512290954590e-01 2.880054414272308350e-01 1.740525066852569580e-01
1.293000000000000000e+03 1.642214202880859375e+01 -4.162385940551757812e+00 -4.785233736038208008e-01 -2.526923641562461853e-02 -1.511377841234207153e-01 -4.065829142928123474e-02
1.294000000000000000e+03 1.806338691711425781e+01 -4.231769561767578125e+00 -4.877937436103820801e-01 -5.871595814824104309e-02 -1.639529168605804443e-01 -4.297514632344245911e-02
1.295000000000000000e+03 1.733930397033691406e+01 -4.955277442932128906e+00 -3.802814781665802002e-01 -4.542828351259231567e-02 -1.277129352092742920e-01 -4.566796496510505676e-02
1.296000000000000000e+03 1.960200500488281250e+01 -3.490183353424072266e+00 -6.189752817153930664e-01 -5.420716479420661926e-02 -2.019547373056411743e-01 -4.567109793424606323e-02
1.297000000000000000e+03 2.058092117309570312e+01 -4.182818889617919922e+00 -5.405845046043395996e-01 -5.863396823406219482e-02 -1.797655522823333740e-01 -8.032755553722381592e-02
1.298000000000000000e+03 2.226774978637695312e+01 -4.090440750122070312e+00 -6.376768946647644043e-01 -2.517833001911640167e-02 -1.988565623760223389e-01 -1.609345376491546631e-01
1.299000000000000000e+03 2.211643028259277344e+01 -3.301605701446533203e+00 -7.355363368988037109e-01 1.309034880250692368e-02 -2.167337834835052490e-01 -1.025969833135604858e-01
1.300000000000000000e+03 6.459666728973388672e+00 -3.359536409378051758e+00 -2.249591201543807983e-01 1.324364636093378067e-02 -6.351464241743087769e-02 -1.927909702062606812e-01
1.301000000000000000e+03 2.463223218917846680e+00 -3.174107551574707031e+00 -5.962011218070983887e-02 -7.909751683473587036e-02 -4.161528870463371277e-02 -1.202593222260475159e-01
1.302000000000000000e+03 3.859196901321411133e+00 -7.622586727142333984e+00 -7.220204174518585205e-02 -1.804070770740509033e-01 -7.578273117542266846e-02 -3.189081251621246338e-01
1.303000000000000000e+03 7.988390922546386719e+00 -3.389076471328735352e+00 -2.944487035274505615e-01 4.939785599708557129e-02 -7.351525127887725830e-02 -1.777250021696090698e-01
1.304000000000000000e+03 5.564750671386718750e+00 -2.617942333221435547e+00 -1.959997862577438354e-01 -5.393262952566146851e-03 -6.041791662573814392e-02 -1.586930453777313232e-01
1.305000000000000000e+03 5.707216739654541016e+00 -3.357255458831787109e+00 -1.927985548973083496e-01 -4.499222151935100555e-03 -5.918933451175689697e-02 -1.946912705898284912e-01
1.306000000000000000e+03 1.864932656288146973e+00 -5.651165485382080078e+00 -2.364225313067436218e-02 -2.196645289659500122e-01 -7.299203425645828247e-02 -1.592411994934082031e-01
1.307000000000000000e+03 8.753294944763183594e+00 -3.417518377304077148e+00 -3.274801373481750488e-01 6.311348080635070801e-02 -7.930999994277954102e-02 -1.662143915891647339e-01
1.308000000000000000e+03 1.561378097534179688e+01 -4.104741096496582031e+00 -4.762583374977111816e-01 -2.954358235001564026e-03 -1.437638103961944580e-01 -4.550185054540634155e-02
1.309000000000000000e+03 1.147590255737304688e+01 3.155267477035522461e+00 2.069996116915717721e-04 1.636318775126710534e-04 1.111894453060813248e-04 -7.299107528524473310e-05
1.310000000000000000e+03 9.018819808959960938e+00 3.379270315170288086e+00 -2.883597917389124632e-04 -6.389407644746825099e-05 -1.056761539075523615e-04 -2.740651143540162593e-05
1.311000000000000000e+03 1.889454841613769531e+01 -4.238064765930175781e+00 -4.969519078731536865e-01 -6.439199298620223999e-02 -1.684031635522842407e-01 -4.765667766332626343e-02
1.312000000000000000e+03 2.560077667236328125e+01 -3.055374860763549805e+00 -1.385272383689880371e+00 -9.733071923255920410e-02 -4.447809457778930664e-01 -4.025053977966308594e-01
1.313000000000000000e+03 2.475235176086425781e+01 -3.079148769378662109e+00 -1.134405016899108887e+00 1.663330197334289551e-02 -3.353315293788909912e-01 -2.725901305675506592e-01
1.314000000000000000e+03 2.030266761779785156e+01 1.986947417259216309e+00 -3.176292811986058950e-04 3.391002246644347906e-05 -8.511577470926567912e-05 1.261899305973201990e-04
1.315000000000000000e+03 2.142129516601562500e+01 -4.135232925415039062e+00 -5.823660492897033691e-01 -4.714599996805191040e-02 -1.888536214828491211e-01 -1.152692735195159912e-01
1.316000000000000000e+03 2.070393943786621094e+01 -4.942687988281250000e+00 -4.264968633651733398e-01 -9.022046625614166260e-02 -1.550152003765106201e-01 -1.111297532916069031e-01
1.317000000000000000e+03 3.885198593139648438e+01 -1.195553779602050781e+01 9.961180090904235840e-01 9.850171089172363281e+00 3.253886699676513672e+00 1.056130044162273407e-02
1.318000000000000000e+03 1.999470520019531250e+01 -1.584630775451660156e+01 7.001547813415527344e-01 -1.459609419107437134e-01 1.662581413984298706e-01 1.785977929830551147e-02
1.319000000000000000e+03 2.341332244873046875e+01 -1.748144912719726562e+01 4.599861204624176025e-01 -5.523863434791564941e-02 1.214242428541183472e-01 1.309433132410049438e-01
1.320000000000000000e+03 6.662457275390625000e+01 -6.526463031768798828e+00 -9.750521183013916016e-01 -1.171205282211303711e+00 -6.438772082328796387e-01 9.872402548789978027e-01
1.321000000000000000e+03 6.702856445312500000e+01 -7.736655712127685547e+00 -4.607386291027069092e-01 -1.129441618919372559e+00 -4.770540893077850342e-01 8.176787495613098145e-01
1.322000000000000000e+03 5.876752090454101562e+01 7.346529960632324219e-01 -3.594562292098999023e+00 -5.160010457038879395e-01 -1.233168959617614746e+00 5.179734826087951660e-01
1.323000000000000000e+03 5.369773101806640625e+01 3.955180406570434570e+00 -2.641043424606323242e+00 8.532118797302246094e-02 -7.667166590690612793e-01 -3.862380608916282654e-02
1.324000000000000000e+03 1.882068634033203125e+01 -1.563761615753173828e+01 7.497766613960266113e-01 -1.388377994298934937e-01 1.832816600799560547e-01 -2.345367521047592163e-02
1.325000000000000000e+03 2.837038803100585938e+01 -1.567823314666748047e+01 3.008025884628295898e-01 -1.938173770904541016e-01 3.209556266665458679e-02 7.175907492637634277e-01
1.326000000000000000e+03 2.688912010192871094e+01 -1.733818817138671875e+01 8.510886877775192261e-02 3.973444551229476929e-02 3.745299577713012695e-02 3.008073568344116211e-01
1.327000000000000000e+03 1.770032310485839844e+01 -1.536002731323242188e+01 8.363586664199829102e-01 -9.054241329431533813e-02 2.237448692321777344e-01 -3.016339801251888275e-02
1.328000000000000000e+03 2.146344757080078125e+01 -1.483444595336914062e+01 6.633446812629699707e-01 -2.248586416244506836e-01 1.315458118915557861e-01 1.228426173329353333e-01
1.329000000000000000e+03 1.128121852874755859e+01 1.803885841369628906e+01 -1.148303272202610970e-03 -2.084750594804063439e-04 -4.070335126016288996e-04 1.860952324932441115e-04
1.330000000000000000e+03 2.558934974670410156e+01 -3.324898147583007812e+01 -3.067110180854797363e-01 1.447859853506088257e-01 -4.857750609517097473e-02 8.679290115833282471e-02
1.331000000000000000e+03 2.637058448791503906e+01 -3.460662841796875000e+01 -1.319062113761901855e-01 4.696030914783477783e-01 1.013090610504150391e-01 3.359423875808715820e-01
1.332000000000000000e+03 2.399703216552734375e+01 -1.511211872100830078e+01 5.752009749412536621e-01 -2.151714861392974854e-01 1.080088466405868530e-01 3.153766989707946777e-01
1.333000000000000000e+03 1.930482482910156250e+01 -3.349900054931640625e+01 -4.824222326278686523e-01 -3.899598494172096252e-02 -1.564254611730575562e-01 -2.476245164871215820e-02
1.334000000000000000e+03 4.107205581665039062e+01 -3.711449146270751953e+00 6.078740954399108887e-01 1.235270977020263672e+01 3.888175010681152344e+00 2.470263242721557617e+00
1.335000000000000000e+03 3.753860092163085938e+01 -2.105662345886230469e+00 -1.362252354621887207e+00 6.587959766387939453e+00 1.567712306976318359e+00 6.210210323333740234e-01
1.336000000000000000e+03 5.188781356811523438e+01 -3.056464004516601562e+01 -1.318221166729927063e-02 6.217258572578430176e-01 1.825630962848663330e-01 -3.070526421070098877e-01
1.337000000000000000e+03 2.230077934265136719e+01 -3.424468231201171875e+01 -3.587761819362640381e-01 -1.681455038487911224e-02 -1.126772239804267883e-01 -2.599954418838024139e-02
1.338000000000000000e+03 1.410895919799804688e+01 1.356944656372070312e+01 -5.492838099598884583e-04 -1.523809041827917099e-04 -2.104994200635701418e-04 -2.711804991122335196e-04
1.339000000000000000e+03 1.664682769775390625e+01 -1.492480468750000000e+01 8.821784853935241699e-01 -4.304755106568336487e-02 2.517392635345458984e-01 -2.844596514478325844e-03
1.340000000000000000e+03 2.478947639465332031e+01 -1.644597434997558594e+01 4.072864055633544922e-01 -9.666112810373306274e-02 9.318757802248001099e-02 3.101498186588287354e-01
1.341000000000000000e+03 4.254317855834960938e+01 -2.504954719543457031e+01 3.278856277465820312e-01 4.215457916259765625e+00 1.363003015518188477e+00 -7.342824339866638184e-01
1.342000000000000000e+03 4.687437057495117188e+01 -2.612967872619628906e+01 4.187425971031188965e-01 1.578207135200500488e+00 5.990849137306213379e-01 -8.496524691581726074e-01
1.343000000000000000e+03 6.966284942626953125e+01 -2.377928352355957031e+01 -3.716365098953247070e-01 -8.682055473327636719e-01 -3.719526231288909912e-01 -3.953475952148437500e-01
1.344000000000000000e+03 7.081119537353515625e+01 -2.141487312316894531e+01 -7.950040698051452637e-02 9.725254178047180176e-01 2.679075002670288086e-01 -1.377653777599334717e-01
1.345000000000000000e+03 1.193342304229736328e+01 -3.395022583007812500e+01 -3.450364768505096436e-01 -2.258850187063217163e-01 -1.712764501571655273e-01 1.713715195655822754e-01
1.346000000000000000e+03 5.059055328369140625e+01 -2.839079475402832031e+01 2.008316963911056519e-01 6.506255865097045898e-01 2.554371654987335205e-01 -4.242205917835235596e-01
1.347000000000000000e+03 4.855733871459960938e+01 -3.116869544982910156e+01 -4.454445093870162964e-02 1.430639863014221191e+00 4.158286452293395996e-01 -6.660612225532531738e-01
1.348000000000000000e+03 4.185849380493164062e+01 -1.092770218849182129e+00 -1.100744128227233887e+00 1.049664783477783203e+01 2.818771123886108398e+00 4.154290556907653809e-01
1.349000000000000000e+03 4.144735336303710938e+01 -2.379945039749145508e+00 7.148473262786865234e-01 1.137572860717773438e+01 3.627172946929931641e+00 1.780727148056030273e+00
1.350000000000000000e+03 6.123020935058593750e+01 -3.508794403076171875e+01 -4.745680987834930420e-01 -9.693357348442077637e-01 -4.331711530685424805e-01 -7.711424827575683594e-01
1.351000000000000000e+03 4.712022781372070312e+01 -2.451325607299804688e+01 5.015203356742858887e-01 1.237979173660278320e+00 5.218498706817626953e-01 -7.937569618225097656e-01
1.352000000000000000e+03 4.776224899291992188e+01 -2.701895332336425781e+01 3.708282709121704102e-01 1.357562899589538574e+00 5.185173749923706055e-01 -7.337864041328430176e-01
1.353000000000000000e+03 7.221770477294921875e+01 -1.645300292968750000e+01 6.352828145027160645e-01 1.309168934822082520e+00 5.833355188369750977e-01 2.571958005428314209e-01
1.354000000000000000e+03 4.604527664184570312e+01 -2.520867919921875000e+01 4.679115414619445801e-01 1.938789963722229004e+00 7.220104336738586426e-01 -9.227941036224365234e-01
1.355000000000000000e+03 4.421340942382812500e+01 -2.336379432678222656e+01 4.540304243564605713e-01 3.262259483337402344e+00 1.114886999130249023e+00 -1.158499121665954590e+00
1.356000000000000000e+03 7.530403900146484375e+01 -3.435152053833007812e+01 1.880133338272571564e-02 7.759870529174804688e+00 2.333601474761962891e+00 7.055043578147888184e-01
1.357000000000000000e+03 7.687583160400390625e+01 -3.601397323608398438e+01 1.832306198775768280e-02 8.955980300903320312e+00 2.692291021347045898e+00 6.191005110740661621e-01
1.358000000000000000e+03 7.373604583740234375e+01 -2.741349220275878906e+01 -5.066708326339721680e-01 5.777130603790283203e+00 1.581137895584106445e+00 2.753349244594573975e-01
1.359000000000000000e+03 7.818289947509765625e+01 -2.903164100646972656e+01 -5.546552687883377075e-02 1.149747848510742188e+01 3.432603836059570312e+00 2.686534523963928223e-01
1.360000000000000000e+03 7.545315551757812500e+01 1.530337524414062500e+01 1.457830369472503662e-01 4.391700744628906250e+00 1.361245036125183105e+00 -9.197101593017578125e-01
1.361000000000000000e+03 7.675447082519531250e+01 1.672097969055175781e+01 8.227300643920898438e-02 4.409965038299560547e+00 1.347671508789062500e+00 -6.484297513961791992e-01
1.362000000000000000e+03 7.475771331787109375e+01 -3.845273971557617188e+01 2.491243034601211548e-01 6.667572021484375000e+00 2.075008869171142578e+00 1.931091547012329102e-01
1.363000000000000000e+03 7.764207458496093750e+01 3.427673339843750000e+01 1.204269845038652420e-02 2.952572822570800781e+00 8.893846869468688965e-01 -5.155907943844795227e-02
1.364000000000000000e+03 7.616530609130859375e+01 3.384040451049804688e+01 3.346193954348564148e-02 3.016885757446289062e+00 9.151042699813842773e-01 -9.234708547592163086e-02
1.365000000000000000e+03 7.835447692871093750e+01 -2.207643508911132812e+01 -1.426091939210891724e-01 1.201406002044677734e+01 3.561435222625732422e+00 -2.482119053602218628e-01
1.366000000000000000e+03 7.723388671875000000e+01 -2.334572410583496094e+01 -2.152402848005294800e-01 1.052040672302246094e+01 3.091549873352050781e+00 -1.254899650812149048e-01
1.367000000000000000e+03 7.694969940185546875e+01 -3.028658103942871094e+01 -1.081706658005714417e-01 9.787428855895996094e+00 2.903777599334716797e+00 4.911439716815948486e-01
1.368000000000000000e+03 7.822742462158203125e+01 -2.763880157470703125e+01 -8.093111217021942139e-02 1.171518707275390625e+01 3.490276813507080078e+00 1.979506164789199829e-01
1.369000000000000000e+03 7.703656005859375000e+01 -2.888742828369140625e+01 -1.599933803081512451e-01 1.002861499786376953e+01 2.960586547851562500e+00 4.067579507827758789e-01
1.370000000000000000e+03 7.801577758789062500e+01 -3.461788940429687500e+01 2.531835995614528656e-02 1.044187927246093750e+01 3.140159130096435547e+00 4.278793036937713623e-01
1.371000000000000000e+03 7.577210998535156250e+01 -3.693092727661132812e+01 3.519362956285476685e-02 8.119499206542968750e+00 2.446408033370971680e+00 5.131227970123291016e-01
1.372000000000000000e+03 7.713821411132812500e+01 -2.612353706359863281e+01 -1.752415001392364502e-01 1.032739353179931641e+01 3.045645713806152344e+00 1.580309122800827026e-01
1.373000000000000000e+03 7.709410095214843750e+01 -2.750666236877441406e+01 -1.360521018505096436e-01 1.022076034545898438e+01 3.025412321090698242e+00 2.694445252418518066e-01
1.374000000000000000e+03 7.663164520263671875e+01 -3.461738967895507812e+01 -4.279604554176330566e-02 8.896481513977050781e+00 2.656105756759643555e+00 6.709702610969543457e-01
1.375000000000000000e+03 7.675293731689453125e+01 -3.312994384765625000e+01 -2.213611453771591187e-02 9.252812385559082031e+00 2.769202947616577148e+00 6.276957988739013672e-01
1.376000000000000000e+03 7.800900268554687500e+01 2.230323982238769531e+01 2.990054152905941010e-02 3.710700035095214844e+00 1.122180104255676270e+00 -2.638385295867919922e-01
1.377000000000000000e+03 7.665940856933593750e+01 2.091988182067871094e+01 8.025830984115600586e-02 3.816857814788818359e+00 1.169134855270385742e+00 -4.726302027702331543e-01
1.378000000000000000e+03 7.521968078613281250e+01 2.382741165161132812e+01 1.337482035160064697e-01 3.466493844985961914e+00 1.080072641372680664e+00 -4.680439233779907227e-01
1.379000000000000000e+03 7.663825225830078125e+01 2.233040428161621094e+01 7.687602937221527100e-02 3.663460254669189453e+00 1.122100830078125000e+00 -4.154863953590393066e-01
1.380000000000000000e+03 7.678503417968750000e+01 1.394266033172607422e+01 7.762869447469711304e-02 4.903444766998291016e+00 1.494322061538696289e+00 -7.667144536972045898e-01
1.381000000000000000e+03 7.807553863525390625e+01 1.254864597320556641e+01 3.156510367989540100e-02 5.507194042205810547e+00 1.661627650260925293e+00 -5.350078344345092773e-01
1.382000000000000000e+03 7.560657501220703125e+01 9.845230102539062500e+00 9.753235429525375366e-02 5.305822372436523438e+00 1.621006488800048828e+00 -1.150542259216308594e+00
1.383000000000000000e+03 7.677238464355468750e+01 1.533114433288574219e+01 7.960131019353866577e-02 4.645436286926269531e+00 1.417511343955993652e+00 -7.073292732238769531e-01
1.384000000000000000e+03 7.666326141357421875e+01 2.514076423645019531e+01 6.381746381521224976e-02 3.413947105407714844e+00 1.043329358100891113e+00 -3.061593174934387207e-01
1.385000000000000000e+03 7.804183197021484375e+01 2.646439552307128906e+01 2.368246018886566162e-02 3.300226211547851562e+00 9.971725940704345703e-01 -1.639925986528396606e-01
1.386000000000000000e+03 7.729872894287109375e+01 -2.198625373840332031e+01 -2.301718741655349731e-01 1.062749385833740234e+01 3.119196653366088867e+00 -2.924295663833618164e-01
1.387000000000000000e+03 7.812691497802734375e+01 3.039912414550781250e+01 1.768252067267894745e-02 3.055726051330566406e+00 9.220225811004638672e-01 -8.660119771957397461e-02
1.388000000000000000e+03 7.693505096435546875e+01 2.913072204589843750e+01 4.922030121088027954e-02 3.159193038940429688e+00 9.625239968299865723e-01 -1.739363223314285278e-01
1.389000000000000000e+03 7.684765625000000000e+01 8.419805526733398438e+00 3.091323003172874451e-02 6.103310585021972656e+00 1.840267181396484375e+00 -9.402923583984375000e-01
1.390000000000000000e+03 7.729523468017578125e+01 -3.157125949859619141e+00 -1.559076160192489624e-01 8.966101646423339844e+00 2.643058061599731445e+00 -5.430728197097778320e-01
1.391000000000000000e+03 7.869541168212890625e+01 -6.995867252349853516e+00 -2.486307621002197266e-01 1.058722019195556641e+01 3.101576805114746094e+00 3.457695245742797852e-01
1.392000000000000000e+03 7.683269500732421875e+01 4.290032386779785156e+00 -2.187464758753776550e-02 7.061882495880126953e+00 2.112002372741699219e+00 -9.550734758377075195e-01
1.393000000000000000e+03 7.736105346679687500e+01 3.561758041381835938e+01 1.091928500682115555e-02 2.939596414566040039e+00 8.851547241210937500e-01 -4.876744747161865234e-02
1.394000000000000000e+03 7.810555267333984375e+01 6.994732856750488281e+00 8.632204495370388031e-03 7.038163661956787109e+00 2.114038705825805664e+00 -6.264665722846984863e-01
1.395000000000000000e+03 7.684042358398437500e+01 7.048505306243896484e+00 1.354260928928852081e-02 6.422564506530761719e+00 1.930832147598266602e+00 -9.528293609619140625e-01
1.396000000000000000e+03 7.818545532226562500e+01 -1.544775605201721191e+00 -3.896636143326759338e-02 9.430903434753417969e+00 2.817581176757812500e+00 -4.635458588600158691e-01
1.397000000000000000e+03 7.695146179199218750e+01 -1.717953920364379883e+00 -1.307479739189147949e-01 8.368231773376464844e+00 2.471245050430297852e+00 -7.119243144989013672e-01
1.398000000000000000e+03 7.863080596923828125e+01 -1.775517272949218750e+01 -6.230763196945190430e-01 1.132019233703613281e+01 3.209134817123413086e+00 -1.793251752853393555e+00
1.399000000000000000e+03 7.728794860839843750e+01 -2.065045166015625000e+01 -5.069231390953063965e-01 1.065836048126220703e+01 3.045431137084960938e+00 -5.340716838836669922e-01
1.400000000000000000e+03 7.693360137939453125e+01 -1.079303073883056641e+01 -2.291756629943847656e+00 1.526664543151855469e+01 3.892466783523559570e+00 9.106621742248535156e-01
1.401000000000000000e+03 7.486879730224609375e+01 -1.122240638732910156e+01 6.964654326438903809e-01 8.320228576660156250e+00 2.705008029937744141e+00 -4.677737712860107422e+00
1.402000000000000000e+03 7.767987060546875000e+01 -1.022472095489501953e+01 -1.754167437553405762e+00 1.268184947967529297e+01 3.278304576873779297e+00 2.018809795379638672e+00
1.403000000000000000e+03 7.890386962890625000e+01 -9.500576019287109375e+00 -4.868751168251037598e-01 9.413876533508300781e+00 2.678100347518920898e+00 1.716223001480102539e+00
1.404000000000000000e+03 7.594250488281250000e+01 3.508091735839843750e+01 3.051078319549560547e-02 3.009505033493041992e+00 9.120047688484191895e-01 -7.266847044229507446e-02
1.405000000000000000e+03 7.301462554931640625e+01 3.516825866699218750e+01 8.958420157432556152e-02 3.097745418548583984e+00 9.561989307403564453e-01 -1.157846674323081970e-01
1.406000000000000000e+03 7.638746643066406250e+01 3.256603240966796875e+01 3.862898051738739014e-02 3.044876098632812500e+00 9.250515103340148926e-01 -1.087888628244400024e-01
1.407000000000000000e+03 7.669195556640625000e+01 1.951634597778320312e+01 8.293190598487854004e-02 3.993070125579833984e+00 1.222800612449645996e+00 -5.305222272872924805e-01
1.408000000000000000e+03 7.682271575927734375e+01 1.117662525177001953e+01 6.689693778753280640e-02 5.468523025512695312e+00 1.660625934600830078e+00 -8.664432168006896973e-01
1.409000000000000000e+03 7.678266143798828125e+01 -1.478789150714874268e-01 -9.160615503787994385e-02 7.960758686065673828e+00 2.360745906829833984e+00 -8.310700654983520508e-01
1.410000000000000000e+03 7.809614562988281250e+01 2.809794187545776367e+00 -2.060838043689727783e-02 8.230134963989257812e+00 2.462858200073242188e+00 -6.160986423492431641e-01
1.411000000000000000e+03 7.682987976074218750e+01 5.676587104797363281e+00 7.318788208067417145e-03 6.741425991058349609e+00 2.024623394012451172e+00 -9.694352149963378906e-01
1.412000000000000000e+03 7.752957916259765625e+01 -4.486911296844482422e+00 -2.214170992374420166e-01 9.416092872619628906e+00 2.758402824401855469e+00 -3.506923019886016846e-01
1.413000000000000000e+03 7.768920135498046875e+01 -5.777551651000976562e+00 -3.471008241176605225e-01 9.790644645690917969e+00 2.833063125610351562e+00 -1.153473481535911560e-01
1.414000000000000000e+03 1.334451675415039062e+01 6.172250270843505859e+00 7.124116382328793406e-05 -2.041009574895724654e-04 -3.985793955507688224e-05 2.536679676268249750e-04
1.415000000000000000e+03 1.936579132080078125e+01 2.971250772476196289e+00 -5.468193558044731617e-04 -9.239828796125948429e-05 -1.917652843985706568e-04 -1.747614587657153606e-04
1.416000000000000000e+03 4.267565155029296875e+01 1.501721286773681641e+01 8.839469552040100098e-01 8.540505409240722656e+00 2.827335596084594727e+00 1.942962169647216797e+00
1.417000000000000000e+03 4.405307388305664062e+01 1.634282112121582031e+01 1.000054359436035156e+00 6.890260696411132812e+00 2.367094516754150391e+00 1.847109079360961914e+00
1.418000000000000000e+03 1.446834564208984375e+01 3.042920684814453125e+01 3.558343742042779922e-03 -3.776701341848820448e-04 9.542020852677524090e-04 1.319006201811134815e-03
1.419000000000000000e+03 4.427103805541992188e+01 1.924747657775878906e+01 5.556104779243469238e-01 6.271149158477783203e+00 2.048027992248535156e+00 1.205750584602355957e+00
1.420000000000000000e+03 3.714241027832031250e+01 -1.435626411437988281e+01 7.589127421379089355e-01 6.953741550445556641e+00 2.313796281814575195e+00 -1.679359003901481628e-02
1.421000000000000000e+03 3.917094802856445312e+01 -1.757041358947753906e+01 1.320904940366744995e-01 8.347899436950683594e+00 2.543997049331665039e+00 4.297179877758026123e-01
1.422000000000000000e+03 4.445444488525390625e+01 2.501080513000488281e+01 4.065439701080322266e-01 5.374101638793945312e+00 1.734193682670593262e+00 2.048640400171279907e-01
1.423000000000000000e+03 1.500353717803955078e+01 1.085461235046386719e+01 -5.356551846489310265e-04 -1.840006880229339004e-04 -2.158967545256018639e-04 -1.392973499605432153e-04
1.424000000000000000e+03 4.303732681274414062e+01 2.077201080322265625e+01 1.679099947214126587e-01 6.465062618255615234e+00 1.989891767501831055e+00 6.195692420005798340e-01
1.425000000000000000e+03 4.443428039550781250e+01 2.353457641601562500e+01 3.453892767429351807e-01 5.579119682312011719e+00 1.777352690696716309e+00 4.596229195594787598e-01
1.426000000000000000e+03 4.578985595703125000e+01 2.339426803588867188e+01 5.499607324600219727e-01 5.166555404663085938e+00 1.714954853057861328e+00 6.173252463340759277e-01
1.427000000000000000e+03 4.307759475708007812e+01 2.361493301391601562e+01 1.505738645792007446e-01 5.916300773620605469e+00 1.820062279701232910e+00 2.512957155704498291e-01
1.428000000000000000e+03 3.770719528198242188e+00 3.583213424682617188e+01 6.978038582019507885e-04 1.840743498178198934e-04 2.645634522195905447e-04 5.925401273998431861e-05
1.429000000000000000e+03 3.755734443664550781e+00 3.046712875366210938e+01 1.042972668074071407e-03 -1.198498466692399234e-05 3.092963015660643578e-04 1.637473033042624593e-04
1.430000000000000000e+03 2.094451665878295898e+00 2.760456085205078125e+01 -1.006950275041162968e-03 8.446479478152468801e-05 -2.767456462606787682e-04 -7.818464655429124832e-05
1.431000000000000000e+03 2.339936494827270508e+00 3.590966033935546875e+01 -1.010652747936546803e-03 3.821295103989541531e-04 -1.885569799924269319e-04 -2.115507813869044185e-04
1.432000000000000000e+03 5.977390289306640625e+00 3.865412521362304688e+01 -5.476393853314220905e-04 2.004847483476623893e-04 -1.041463983710855246e-04 -1.341477385722100735e-03
1.433000000000000000e+03 4.005656242370605469e+00 3.694467926025390625e+01 -1.371933962218463421e-03 5.773580633103847504e-04 -2.383727696724236012e-04 -4.415124421939253807e-04
1.434000000000000000e+03 3.895375728607177734e+00 3.189572143554687500e+01 -8.401686791330575943e-04 5.298984979162923992e-05 -2.361536608077585697e-04 -3.962753107771277428e-04
1.435000000000000000e+03 3.860105037689208984e+00 3.461974334716796875e+01 -6.722829421050846577e-04 1.904869859572499990e-04 -1.445387897547334433e-04 -4.822317278012633324e-04
1.436000000000000000e+03 6.191739559173583984e+00 2.886904907226562500e+01 -1.090847305022180080e-03 5.527444591280072927e-05 -3.106718650087714195e-04 -4.695497918874025345e-04
1.437000000000000000e+03 3.366849184036254883e+00 -3.569538497924804688e+01 -2.041515335440635681e-02 2.158025503158569336e-01 5.861621722579002380e-02 -5.048548430204391479e-02
1.438000000000000000e+03 2.044768333435058594e+00 -2.870147895812988281e+01 -9.185437113046646118e-02 2.168480902910232544e-01 3.749811649322509766e-02 2.281836718320846558e-01
1.439000000000000000e+03 3.425577640533447266e+00 -3.006675148010253906e+01 -1.897947490215301514e-01 1.417437195777893066e-01 -1.441530790179967880e-02 1.727971732616424561e-01
1.440000000000000000e+03 1.652732014656066895e+00 -3.433108139038085938e+01 -2.476518740877509117e-03 4.539172649383544922e-01 1.354322284460067749e-01 -2.755459770560264587e-02
1.441000000000000000e+03 3.818679571151733398e+00 -3.464935302734375000e+01 -5.159051716327667236e-02 1.689230501651763916e-01 3.519975766539573669e-02 -2.868694625794887543e-02
1.442000000000000000e+03 2.078728914260864258e+00 -3.023585510253906250e+01 -8.686510473489761353e-02 3.022451102733612061e-01 6.461399793624877930e-02 1.180992051959037781e-01
1.443000000000000000e+03 1.927029848098754883e+00 2.192333793640136719e+01 -8.764928206801414490e-04 3.829979959846241400e-06 -2.617988502606749535e-04 1.299561427003936842e-05
1.444000000000000000e+03 3.239393472671508789e+00 2.327887153625488281e+01 -9.760396205820143223e-04 3.910747545887716115e-05 -2.810796431731432676e-04 1.930765938595868647e-05
1.445000000000000000e+03 3.064062595367431641e+00 -1.125599861145019531e+01 -7.183495443314313889e-03 -4.436559379100799561e-01 -1.352518349885940552e-01 -3.307645320892333984e-01
1.446000000000000000e+03 3.069920539855957031e+00 1.768575859069824219e+01 -7.963175303302705288e-04 8.817667549010366201e-06 -2.362499508308246732e-04 3.125344846921507269e-06
1.447000000000000000e+03 2.979720115661621094e+00 1.218214988708496094e+01 -6.157533498480916023e-04 8.812757187115494162e-06 -1.820821780711412430e-04 -2.030726864177267998e-05
1.448000000000000000e+03 1.731790304183959961e+00 -2.328182411193847656e+01 1.526281889528036118e-02 -5.170418620109558105e-01 -1.505337059497833252e-01 4.115823209285736084e-01
1.449000000000000000e+03 2.971065044403076172e+00 -2.320879364013671875e+01 4.124027490615844727e-02 -2.239078730344772339e-01 -5.480027943849563599e-02 5.275624990463256836e-01
1.450000000000000000e+03 1.791016936302185059e+00 -1.526946353912353516e+01 4.619459435343742371e-02 -1.033862829208374023e+00 -2.963004708290100098e-01 -1.532527804374694824e-01
1.451000000000000000e+03 1.734975814819335938e+00 -8.303238868713378906e+00 -1.217313017696142197e-02 -4.442453086376190186e-01 -1.369255334138870239e-01 -2.089630514383316040e-01
1.452000000000000000e+03 5.126970291137695312e+00 -4.086722373962402344e+00 -1.562577337026596069e-01 -2.776215597987174988e-02 -5.520596727728843689e-02 -2.218660116195678711e-01
1.453000000000000000e+03 3.264524698257446289e+00 7.959519863128662109e+00 4.288295458536595106e-04 -7.882091267674695700e-06 1.262842415599152446e-04 9.615220187697559595e-05
1.454000000000000000e+03 1.821717143058776855e+00 6.104635238647460938e+00 3.303916309960186481e-04 2.126392610080074519e-05 1.054966705851256847e-04 -1.249355700565502048e-04
1.455000000000000000e+03 1.823071479797363281e+00 1.491872596740722656e+01 6.763045093975961208e-04 -3.586599177651805803e-06 2.018153609242290258e-04 -1.546090970805380493e-06
1.456000000000000000e+03 3.040241956710815430e+00 1.630940437316894531e+01 7.524933898821473122e-04 -5.759267423854907975e-06 2.240202447865158319e-04 4.799467660632217303e-06
1.457000000000000000e+03 3.071451425552368164e+00 9.406691551208496094e+00 -5.142998998053371906e-04 2.473272434144746512e-05 -1.468701520934700966e-04 -6.980084435781463981e-05
1.458000000000000000e+03 2.851766109466552734e+00 -7.342269897460937500e+00 -4.304541274905204773e-02 -2.594180703163146973e-01 -9.073904901742935181e-02 -2.660176455974578857e-01
1.459000000000000000e+03 2.310973167419433594e+00 -4.669585227966308594e+00 -4.418612271547317505e-02 -1.495221257209777832e-01 -5.811247602105140686e-02 -1.540490388870239258e-01
1.460000000000000000e+03 4.120228290557861328e+00 -1.569235706329345703e+01 2.026232182979583740e-01 -2.062187641859054565e-01 -1.078664558008313179e-03 -1.723846495151519775e-01
1.461000000000000000e+03 1.728035688400268555e+00 -1.802795028686523438e+01 8.315369486808776855e-02 -1.086033701896667480e+00 -3.008639812469482422e-01 3.355104476213455200e-02
1.462000000000000000e+03 2.928574323654174805e+00 -2.191003608703613281e+01 1.395427286624908447e-01 -2.853568196296691895e-01 -4.374422505497932434e-02 4.899272322654724121e-01
1.463000000000000000e+03 5.078119754791259766e+00 -1.716619491577148438e+01 4.497937262058258057e-01 2.992818951606750488e-01 2.247226983308792114e-01 9.143286198377609253e-02
1.464000000000000000e+03 1.722070217132568359e+00 -2.461041259765625000e+01 -6.250960286706686020e-03 -3.012987375259399414e-01 -9.226490557193756104e-02 4.137331843376159668e-01
1.465000000000000000e+03 2.991852045059204102e+00 -2.561210823059082031e+01 -1.163959428668022156e-01 -1.816925033926963806e-02 -4.036955907940864563e-02 5.290937423706054688e-01
1.466000000000000000e+03 1.807457804679870605e+00 -2.592081832885742188e+01 -4.885222390294075012e-02 -8.242321014404296875e-02 -3.938263282179832458e-02 3.915154039859771729e-01
1.467000000000000000e+03 2.997698307037353516e+00 -9.880996704101562500e+00 -1.436485070735216141e-02 -3.808985650539398193e-01 -1.185790225863456726e-01 -3.251578509807586670e-01
1.468000000000000000e+03 2.886136531829833984e+00 -8.575173377990722656e+00 -3.867815807461738586e-02 -3.201929330825805664e-01 -1.076613217592239380e-01 -2.988787889480590820e-01
1.469000000000000000e+03 4.213869571685791016e+00 -3.636738967895507812e+01 -1.825599558651447296e-02 1.686803847551345825e-01 4.512731730937957764e-02 -3.367392346262931824e-02
1.470000000000000000e+03 3.179374456405639648e+00 2.186774826049804688e+01 9.320300305262207985e-04 -1.763118780218064785e-05 2.743196382652968168e-04 -1.447378144803224131e-05
1.471000000000000000e+03 1.891861796379089355e+00 -3.545753479003906250e+01 -1.350807305425405502e-02 4.035659432411193848e-01 1.170173585414886475e-01 -5.122598260641098022e-02
1.472000000000000000e+03 5.081921577453613281e+00 -3.326353836059570312e+01 -1.128636822104454041e-01 -8.877724409103393555e-03 -3.652242198586463928e-02 2.789856120944023132e-02
1.473000000000000000e+03 2.912845373153686523e+00 -1.946491813659667969e+01 1.873613744974136353e-01 -4.667623043060302734e-01 -8.382028341293334961e-02 2.874045670032501221e-01
1.474000000000000000e+03 3.005864620208740234e+00 -1.408993053436279297e+01 6.994755566120147705e-02 -5.662989616394042969e-01 -1.489054262638092041e-01 -2.652385532855987549e-01
1.475000000000000000e+03 2.994450807571411133e+00 1.080437946319580078e+01 5.675639840774238110e-04 -2.092503200401552022e-05 1.639916881686076522e-04 4.044265733682550490e-05
1.476000000000000000e+03 4.159284591674804688e+00 1.228656482696533203e+01 6.106832879595458508e-04 6.536247838084818795e-06 1.851658598752692342e-04 3.097527951467782259e-05
1.477000000000000000e+03 2.990423917770385742e+00 1.355828380584716797e+01 6.490865489467978477e-04 -3.289984078946872614e-06 1.937389752129092813e-04 1.220197373186238110e-05
1.478000000000000000e+03 3.096089839935302734e+00 1.907441329956054688e+01 8.378881611861288548e-04 -1.302603777730837464e-05 2.474586362950503826e-04 4.157611328992061317e-06
1.479000000000000000e+03 4.312745285034179688e+01 1.034343051910400391e+01 1.818885803222656250e+00 8.051302909851074219e+00 2.961056470870971680e+00 3.275265216827392578e+00
1.480000000000000000e+03 4.573775863647460938e+01 3.257378005981445312e+01 1.272400170564651489e-01 4.059126853942871094e+00 1.255910158157348633e+00 2.747524380683898926e-01
1.481000000000000000e+03 1.126323032379150391e+01 -1.405023288726806641e+01 8.712159395217895508e-01 4.585839211940765381e-01 3.989399671554565430e-01 1.541558653116226196e-01
1.482000000000000000e+03 8.981916427612304688e+00 -1.403225708007812500e+01 6.451538205146789551e-01 5.190467238426208496e-01 3.492601513862609863e-01 5.709669366478919983e-02
1.483000000000000000e+03 1.314368629455566406e+01 2.770238876342773438e+01 2.544279675930738449e-03 1.119164007832296193e-04 7.968588033691048622e-04 -2.809173311106860638e-04
1.484000000000000000e+03 4.012841415405273438e+01 -9.202841758728027344e+00 1.030229449272155762e+00 1.326019668579101562e+01 4.287127971649169922e+00 8.583895564079284668e-01
1.485000000000000000e+03 1.661552238464355469e+01 -3.647943115234375000e+01 -2.044244110584259033e-01 -1.234360113739967346e-01 -9.835813194513320923e-02 2.588320896029472351e-02
1.486000000000000000e+03 6.869139862060546875e+01 -2.812598228454589844e+01 -1.325610518455505371e+00 -9.258521199226379395e-01 -6.754387617111206055e-01 -9.073590636253356934e-01
1.487000000000000000e+03 7.023390960693359375e+01 -2.693164062500000000e+01 -9.508220553398132324e-01 7.976340651512145996e-01 -4.595641046762466431e-02 -3.670649826526641846e-01
1.488000000000000000e+03 3.473567199707031250e+01 -3.199587440490722656e+01 -2.490255683660507202e-01 4.114803314208984375e+00 1.159733295440673828e+00 8.238150477409362793e-01
1.489000000000000000e+03 5.200189208984375000e+01 1.610986351966857910e+00 -5.284874916076660156e+00 3.236662745475769043e-01 -1.488362550735473633e+00 5.868758559226989746e-01
1.490000000000000000e+03 5.199667358398437500e+01 5.486957073211669922e+00 -1.459457755088806152e+00 1.094213649630546570e-01 -4.050109386444091797e-01 -1.150086149573326111e-01
1.491000000000000000e+03 2.935255050659179688e+01 -3.476293182373046875e+01 -2.021219432353973389e-01 1.426194548606872559e+00 3.672217726707458496e-01 8.070309758186340332e-01
1.492000000000000000e+03 1.456035900115966797e+01 1.222099113464355469e+01 5.581423756666481495e-04 1.871822460088878870e-04 2.235973952338099480e-04 1.976867933990433812e-04
1.493000000000000000e+03 4.782163619995117188e+00 -2.511680793762207031e+01 -1.103764921426773071e-01 8.654429763555526733e-02 -7.149658631533384323e-03 5.564756989479064941e-01
1.494000000000000000e+03 4.054647922515869141e+00 -2.347207260131835938e+01 1.167512387037277222e-01 3.198485076427459717e-02 4.462082684040069580e-02 6.261278390884399414e-01
1.495000000000000000e+03 2.205294036865234375e+01 -3.553493118286132812e+01 -1.927273273468017578e-01 4.393124580383300781e-02 -4.463882744312286377e-02 2.198928594589233398e-02
1.496000000000000000e+03 2.743672752380371094e+01 -1.607530593872070312e+01 3.232582807540893555e-01 -1.075846627354621887e-01 6.470208615064620972e-02 6.872324943542480469e-01
1.497000000000000000e+03 2.661187171936035156e+01 -1.648656463623046875e+01 1.600688993930816650e-01 -4.812839999794960022e-02 3.358214721083641052e-02 4.745725989341735840e-01
1.498000000000000000e+03 3.934448623657226562e+01 3.513178825378417969e+00 -6.521265506744384766e-01 1.039234066009521484e+01 2.922064065933227539e+00 2.202864408493041992e+00
1.499000000000000000e+03 1.627260208129882812e+01 4.043553829193115234e+00 -2.046431764028966427e-04 9.796911763260141015e-05 -3.200221544830128551e-05 1.851101551437750459e-04
1.500000000000000000e+03 1.689262390136718750e+01 2.637768983840942383e+00 8.651045936858281493e-05 3.623368684202432632e-04 1.346541976090520620e-04 1.186482259072363377e-04
1.501000000000000000e+03 5.444662857055664062e+01 6.628171801567077637e-01 -4.621578216552734375e+00 -3.020971454679965973e-02 -1.395536422729492188e+00 8.616527915000915527e-01
1.502000000000000000e+03 1.020885658264160156e+01 -3.245016098022460938e+01 -4.063673615455627441e-01 -3.222646713256835938e-01 -2.185896039009094238e-01 2.440110594034194946e-01
1.503000000000000000e+03 7.643470287322998047e+00 -3.078164100646972656e+01 -4.797226786613464355e-01 -3.459978103637695312e-01 -2.477161437273025513e-01 2.777119576930999756e-01
1.504000000000000000e+03 1.386849212646484375e+01 2.907350158691406250e+01 -2.880588639527559280e-03 2.419736556475982070e-04 -7.915844325907528400e-04 -2.320091516594402492e-05
1.505000000000000000e+03 1.606631660461425781e+01 8.122606277465820312e+00 -5.079757538624107838e-04 -1.293031073146266863e-05 -1.562718243803828955e-04 -1.200275437440723181e-04
1.506000000000000000e+03 1.672108840942382812e+01 6.891061305999755859e+00 4.709001223091036081e-04 2.364053943892940879e-05 1.483621890656650066e-04 1.841640914790332317e-04
1.507000000000000000e+03 3.766640853881835938e+01 -1.179368591308593750e+01 1.378132224082946777e+00 7.913382053375244141e+00 2.787454128265380859e+00 2.081257998943328857e-01
1.508000000000000000e+03 1.361856079101562500e+01 1.493984508514404297e+01 5.630475352518260479e-04 3.630267019616439939e-05 1.798050507204607129e-04 3.833683731500059366e-04
1.509000000000000000e+03 6.788756561279296875e+01 -3.418669509887695312e+01 -3.551250696182250977e-02 6.501207351684570312e-01 1.843824684619903564e-01 2.438940107822418213e-01
1.510000000000000000e+03 2.316726684570312500e+01 4.118500900268554688e+01 -2.939613768830895424e-04 -1.447757333517074585e-02 -4.431460518389940262e-03 1.420742645859718323e-02
1.511000000000000000e+03 4.108715057373046875e+01 7.803706169128417969e+00 2.041688680648803711e+00 1.142526245117187500e+01 4.040085315704345703e+00 4.022401809692382812e+00
1.512000000000000000e+03 6.524194335937500000e+01 -3.452079010009765625e+01 -2.403608113527297974e-01 -5.842509269714355469e-01 -2.473835200071334839e-01 -4.483079910278320312e-01
1.513000000000000000e+03 3.224655914306640625e+01 4.156764221191406250e+01 1.609967499971389771e-01 3.395722061395645142e-02 5.848619341850280762e-02 2.740426361560821533e-02
1.514000000000000000e+03 4.762551307678222656e+00 -2.250063705444335938e+01 2.051302343606948853e-01 4.393945634365081787e-01 1.933574378490447998e-01 5.368667840957641602e-01
1.515000000000000000e+03 4.256199264526367188e+01 1.291820526123046875e+00 -3.999821424484252930e+00 9.222164154052734375e+00 1.566702842712402344e+00 1.607757806777954102e+00
1.516000000000000000e+03 5.624115467071533203e+00 -1.886222457885742188e+01 5.734528303146362305e-01 7.592306137084960938e-01 3.998050391674041748e-01 5.116608738899230957e-01
1.517000000000000000e+03 6.138228416442871094e+00 -1.766665077209472656e+01 7.093656063079833984e-01 6.294669508934020996e-01 4.016497731208801270e-01 3.186202943325042725e-01
1.518000000000000000e+03 1.269411659240722656e+01 1.958997344970703125e+01 -1.223695697262883186e-03 -7.238622492877766490e-05 -3.888245846610516310e-04 -1.911963190650567412e-04
1.519000000000000000e+03 1.270685672760009766e+01 1.796835899353027344e+01 1.049131737090647221e-03 1.212586648762226105e-04 3.511171089485287666e-04 2.033890777966007590e-04
1.520000000000000000e+03 4.274947357177734375e+01 2.525658845901489258e+00 -3.902903318405151367e+00 7.946198940277099609e+00 1.212988734245300293e+00 1.759342789649963379e+00
1.521000000000000000e+03 4.279680633544921875e+01 5.082684040069580078e+00 -6.988050937652587891e-01 7.129698753356933594e+00 1.929268121719360352e+00 2.650153398513793945e+00
1.522000000000000000e+03 4.387825393676757812e+01 1.487960052490234375e+01 1.231858372688293457e+00 7.231865882873535156e+00 2.539117336273193359e+00 2.128980636596679688e+00
1.523000000000000000e+03 4.540913772583007812e+01 1.767729949951171875e+01 1.040818452835083008e+00 5.754662036895751953e+00 2.038644313812255859e+00 1.667151451110839844e+00
1.524000000000000000e+03 4.437781906127929688e+01 2.819817924499511719e+01 5.802843570709228516e-01 4.795213699340820312e+00 1.612649440765380859e+00 3.603340312838554382e-02
1.525000000000000000e+03 1.495250892639160156e+01 3.369387435913085938e+01 1.768603222444653511e-03 -1.514711999334394932e-03 7.616736547788605094e-05 5.563886952586472034e-04
1.526000000000000000e+03 1.485469722747802734e+01 3.193089675903320312e+01 -6.352994823828339577e-04 3.038841896341182292e-05 -1.814733259379863739e-04 -1.008493709377944469e-03
1.527000000000000000e+03 2.941037178039550781e+01 -4.519583702087402344e+00 -5.867081880569458008e-01 -7.516443729400634766e-01 -4.015057682991027832e-01 -9.259569048881530762e-01
1.528000000000000000e+03 4.211918640136718750e+01 -1.945866775512695312e+01 3.018624484539031982e-01 7.452764511108398438e+00 2.326388120651245117e+00 -1.152961492538452148e+00
1.529000000000000000e+03 1.398924827575683594e+01 -1.268342876434326172e+01 6.323730349540710449e-01 2.163856625556945801e-01 2.546276152133941650e-01 8.563875406980514526e-02
1.530000000000000000e+03 1.567648410797119141e+01 -1.430018424987792969e+01 8.541547060012817383e-01 5.483826994895935059e-02 2.726978957653045654e-01 4.812066256999969482e-02
1.531000000000000000e+03 3.866193056106567383e+00 -1.898009490966796875e+01 3.375976085662841797e-01 -1.426644027233123779e-01 5.847995728254318237e-02 2.672943770885467529e-01
1.532000000000000000e+03 4.023095130920410156e+00 -2.131524467468261719e+01 2.548920214176177979e-01 9.706334769725799561e-02 1.055866107344627380e-01 4.807469844818115234e-01
1.533000000000000000e+03 3.709455490112304688e+01 3.762095642089843750e+01 -9.874726645648479462e-03 7.902549505233764648e-01 2.341140657663345337e-01 -3.484728932380676270e-01
1.534000000000000000e+03 4.977694511413574219e+00 -2.373779296875000000e+01 7.822853326797485352e-02 4.449706971645355225e-01 1.569597721099853516e-01 4.846588373184204102e-01
1.535000000000000000e+03 4.331741333007812500e+01 -2.416100883483886719e+01 3.620696961879730225e-01 3.813764095306396484e+00 1.252750158309936523e+00 -9.342578053474426270e-01
1.536000000000000000e+03 5.368518066406250000e+01 -3.628236770629882812e+01 -2.616412043571472168e-01 4.728425443172454834e-01 6.336040049791336060e-02 -5.257745385169982910e-01
1.537000000000000000e+03 1.290585327148437500e+01 2.537468147277832031e+01 -3.923973708879202604e-04 3.304303390905261040e-04 -1.859010990301612765e-05 -8.427797583863139153e-04
1.538000000000000000e+03 3.859888076782226562e+01 3.052907288074493408e-01 -2.660061597824096680e+00 8.619042396545410156e+00 1.787694215774536133e+00 5.826914310455322266e-01
1.539000000000000000e+03 4.145493316650390625e+01 3.639866828918457031e+00 -1.944604396820068359e+00 9.544170379638671875e+00 2.279869794845581055e+00 1.951985478401184082e+00
1.540000000000000000e+03 5.183243179321289062e+01 3.542332649230957031e+00 -3.254619836807250977e+00 1.245347559452056885e-01 -9.390255212783813477e-01 -6.538999825716018677e-02
1.541000000000000000e+03 6.939276885986328125e+01 -3.019215393066406250e+01 -9.542987346649169922e-01 7.855638861656188965e-01 -5.062044039368629456e-02 -4.364536330103874207e-02
1.542000000000000000e+03 1.398334503173828125e+01 2.258424568176269531e+01 1.524270744994282722e-03 5.173169847694225609e-05 4.728007188532501459e-04 3.159819752909243107e-04
1.543000000000000000e+03 2.774795913696289062e+01 -3.156224012374877930e+00 -1.798834919929504395e+00 -4.263283610343933105e-01 -6.675489544868469238e-01 -7.192819714546203613e-01
1.544000000000000000e+03 2.796230888366699219e+01 -4.343093395233154297e+00 -9.254500865936279297e-01 -6.048774719238281250e-01 -4.590982794761657715e-01 -8.756664395332336426e-01
1.545000000000000000e+03 3.172202873229980469e+01 -3.179555702209472656e+01 2.148380577564239502e-01 2.457063913345336914e+00 8.015705347061157227e-01 1.355645418167114258e+00
1.546000000000000000e+03 3.361585998535156250e+01 -3.247026824951171875e+01 -4.617904126644134521e-01 3.862016201019287109e+00 1.020067691802978516e+00 1.002478957176208496e+00
1.547000000000000000e+03 5.629423141479492188e+01 1.444079756736755371e+00 -3.764403104782104492e+00 -2.197118103504180908e-01 -1.195234537124633789e+00 5.241812467575073242e-01
1.548000000000000000e+03 4.343231201171875000e+01 3.277880096435546875e+01 2.010553702712059021e-02 3.957221746444702148e+00 1.193198204040527344e+00 -6.737891584634780884e-02
1.549000000000000000e+03 4.262108230590820312e+01 3.612330627441406250e+01 -3.395579159259796143e-01 3.255487442016601562e+00 8.747788667678833008e-01 -1.980798393487930298e-01
1.550000000000000000e+03 5.782255649566650391e+00 -2.972571945190429688e+01 -3.309712111949920654e-01 -1.593437641859054565e-01 -1.470944881439208984e-01 2.523876428604125977e-01
1.551000000000000000e+03 4.697074890136718750e+00 -2.823585510253906250e+01 -3.136241137981414795e-01 -2.172618173062801361e-02 -1.006050929427146912e-01 3.256040215492248535e-01
1.552000000000000000e+03 3.663532257080078125e+01 -2.839703178405761719e+01 4.151264131069183350e-01 5.853116035461425781e+00 1.880472779273986816e+00 5.484127998352050781e-01
1.553000000000000000e+03 3.778138351440429688e+01 6.357048749923706055e-01 -2.407805204391479492e+00 7.243896961212158203e+00 1.450827479362487793e+00 8.818877935409545898e-01
1.554000000000000000e+03 3.102532958984375000e+01 -4.455478191375732422e+00 -3.789149224758148193e-01 -6.561132669448852539e-01 -3.105084598064422607e-01 -7.434844970703125000e-01
1.555000000000000000e+03 3.510655593872070312e+01 -3.007789611816406250e+00 -8.404805660247802734e-01 2.632573127746582031e+00 5.376277565956115723e-01 2.824916839599609375e-01
1.556000000000000000e+03 3.544617462158203125e+01 -1.780448150634765625e+01 -1.183428764343261719e+00 5.622991561889648438e+00 1.331868886947631836e+00 -3.142316639423370361e-01
1.557000000000000000e+03 4.692141723632812500e+01 2.724227190017700195e+00 -4.505072593688964844e+00 -1.054451823234558105e+00 -1.667857289314270020e+00 8.382249474525451660e-01
1.558000000000000000e+03 4.841027832031250000e+01 2.859707832336425781e+00 -4.841511726379394531e+00 -7.853747010231018066e-01 -1.688065886497497559e+00 -3.130543231964111328e-02
1.559000000000000000e+03 4.091252517700195312e+01 1.782072633504867554e-01 -2.831794738769531250e+00 1.031337928771972656e+01 2.244475364685058594e+00 3.332326114177703857e-01
1.560000000000000000e+03 3.126425933837890625e+01 -3.420897674560546875e+01 -3.511821627616882324e-01 2.347470283508300781e+00 5.988864302635192871e-01 1.038153290748596191e+00
1.561000000000000000e+03 7.603749847412109375e+01 -2.604014015197753906e+01 -2.500213384628295898e-01 8.854290008544921875e+00 2.581280469894409180e+00 1.639270484447479248e-01
1.562000000000000000e+03 7.067624664306640625e+01 -2.404001808166503906e+01 -4.915616810321807861e-01 9.013507366180419922e-01 1.229367256164550781e-01 -3.329132497310638428e-01
1.563000000000000000e+03 6.266373062133789062e+01 -7.179249525070190430e-01 -2.833683013916015625e+00 -6.888073682785034180e-01 -1.056747198104858398e+00 4.938606917858123779e-01
1.564000000000000000e+03 3.075966835021972656e+01 -1.588371276855468750e+01 4.414064809679985046e-03 -3.388794958591461182e-01 -1.003396287560462952e-01 9.074378013610839844e-01
1.565000000000000000e+03 6.984893035888671875e+01 -2.848240089416503906e+01 -1.128817200660705566e+00 7.380459904670715332e-01 -1.172313541173934937e-01 -2.616159617900848389e-01
1.566000000000000000e+03 3.636360549926757812e+01 -1.858836746215820312e+01 -1.453383803367614746e+00 6.681632518768310547e+00 1.568474650382995605e+00 1.007682919502258301e+00
1.567000000000000000e+03 4.017786788940429688e+01 -1.814076042175292969e+01 1.786999851465225220e-01 8.920181274414062500e+00 2.729664325714111328e+00 3.330492600798606873e-02
1.568000000000000000e+03 6.597778320312500000e+00 -1.496406745910644531e+01 4.809717833995819092e-01 5.181781053543090820e-01 2.997449636459350586e-01 -2.996847964823246002e-02
1.569000000000000000e+03 3.114562034606933594e+01 -1.341096687316894531e+01 1.478402376174926758e+00 2.566829323768615723e-01 5.205256342887878418e-01 5.726302862167358398e-01
1.570000000000000000e+03 2.933298110961914062e+01 -1.595445156097412109e+01 2.235467731952667236e-01 -1.433004885911941528e-01 2.407388202846050262e-02 8.670583963394165039e-01
1.571000000000000000e+03 3.828830718994140625e+01 -2.811542892456054688e+01 4.375429153442382812e-01 5.412161827087402344e+00 1.754911422729492188e+00 -2.670421637594699860e-02
1.572000000000000000e+03 3.770227813720703125e+01 -2.664487266540527344e+01 8.828436732292175293e-01 5.981952667236328125e+00 2.059438943862915039e+00 2.412658780813217163e-01
1.573000000000000000e+03 4.147512435913085938e+01 2.553184747695922852e+00 -3.393321752548217773e+00 9.843536376953125000e+00 1.935064315795898438e+00 1.447965264320373535e+00
1.574000000000000000e+03 1.237129783630371094e+01 -1.391395187377929688e+01 8.784964680671691895e-01 3.330388069152832031e-01 3.634605705738067627e-01 9.993547946214675903e-02
1.575000000000000000e+03 1.710605812072753906e+01 3.553537750244140625e+01 3.463812870904803276e-03 -3.433933481574058533e-03 8.963821528595872223e-06 6.387136818375438452e-05
1.576000000000000000e+03 6.751126861572265625e+01 -5.071823596954345703e+00 -1.161086916923522949e+00 3.238466680049896240e-01 -2.511720657348632812e-01 2.679746150970458984e-01
1.577000000000000000e+03 6.754532623291015625e+01 -3.850329160690307617e+00 -1.294802308082580566e+00 7.369666099548339844e-01 -1.673507094383239746e-01 -4.370562732219696045e-02
1.578000000000000000e+03 5.394136047363281250e+01 2.280843973159790039e+00 -3.989821195602416992e+00 1.708380430936813354e-01 -1.145694971084594727e+00 3.500613868236541748e-01
1.579000000000000000e+03 1.270595550537109375e+01 2.112773895263671875e+01 1.267548417672514915e-03 8.843931573210284114e-05 4.067963163834065199e-04 1.757255522534251213e-04
1.580000000000000000e+03 5.625899124145507812e+01 -3.822284317016601562e+01 7.814232259988784790e-02 -8.950793743133544922e-02 -3.409685334190726280e-03 -4.876205921173095703e-01
1.581000000000000000e+03 5.395593643188476562e+00 -1.463373184204101562e+01 2.666786611080169678e-01 1.398738324642181396e-01 1.219657510519027710e-01 -2.105266302824020386e-01
1.582000000000000000e+03 6.901190757751464844e+00 -3.206194686889648438e+01 -2.721040844917297363e-01 -1.965972781181335449e-01 -1.406104117631912231e-01 1.104721426963806152e-01
1.583000000000000000e+03 4.683477401733398438e+00 -2.663424301147460938e+01 -3.167644441127777100e-01 4.167485237121582031e-02 -8.252687752246856689e-02 4.989458620548248291e-01
1.584000000000000000e+03 3.742670440673828125e+01 -1.953466606140136719e+01 -4.501715004444122314e-01 7.120191097259521484e+00 2.001005887985229492e+00 1.379684567451477051e+00
1.585000000000000000e+03 4.398395919799804688e+01 6.801556587219238281e+00 9.640371203422546387e-01 5.577808380126953125e+00 1.962553739547729492e+00 2.798360824584960938e+00
1.586000000000000000e+03 4.836466789245605469e+00 4.057936096191406250e+01 -7.200851105153560638e-04 1.505377818830311298e-03 2.355878095841035247e-04 5.770346615463495255e-04
1.587000000000000000e+03 7.525083160400390625e+01 -1.591390419006347656e+01 -6.723848581314086914e-01 1.058609676361083984e+01 2.974113702774047852e+00 3.363515138626098633e+00
1.588000000000000000e+03 7.463417816162109375e+01 -1.558244609832763672e+01 8.342453837394714355e-01 6.619205474853515625e+00 2.236035346984863281e+00 3.677775621414184570e+00
1.589000000000000000e+03 7.314260864257812500e+01 -1.623214721679687500e+01 7.861691117286682129e-01 2.596890449523925781e+00 1.014917850494384766e+00 1.196923851966857910e+00
1.590000000000000000e+03 7.390679168701171875e+01 -1.106150627136230469e+01 1.192687034606933594e+00 4.092389583587646484e+00 1.585522890090942383e+00 -2.952802658081054688e+00
1.591000000000000000e+03 7.421258544921875000e+01 -1.135156345367431641e+01 1.471136212348937988e+00 4.593064308166503906e+00 1.819260120391845703e+00 -3.641131639480590820e+00
1.592000000000000000e+03 7.461420440673828125e+01 -1.156234836578369141e+01 1.726463913917541504e+00 6.193702697753906250e+00 2.376049995422363281e+00 -4.576943397521972656e+00
1.593000000000000000e+03 7.519380187988281250e+01 -1.122216892242431641e+01 8.703505247831344604e-02 1.048741340637207031e+01 3.172334671020507812e+00 -4.937708377838134766e+00
1.594000000000000000e+03 7.615019226074218750e+01 -1.568708229064941406e+01 -2.135040044784545898e+00 1.584672641754150391e+01 4.113505840301513672e+00 1.609554171562194824e+00
1.595000000000000000e+03 7.731579589843750000e+01 -8.606075286865234375e+00 -1.426437497138977051e+00 1.092125034332275391e+01 2.848443746566772461e+00 6.500613093376159668e-01
1.596000000000000000e+03 7.759444427490234375e+01 -9.471549987792968750e+00 -1.577422261238098145e+00 1.177549266815185547e+01 3.059421300888061523e+00 1.367982387542724609e+00
1.597000000000000000e+03 7.875904083251953125e+01 -1.638871765136718750e+01 -8.144925832748413086e-01 1.006941127777099609e+01 2.776475667953491211e+00 -2.958149194717407227e+00
1.598000000000000000e+03 7.330714416503906250e+01 -1.189544200897216797e+01 7.696349620819091797e-01 1.196579098701477051e+00 5.898641943931579590e-01 -1.266497373580932617e+00
1.599000000000000000e+03 7.626306152343750000e+01 -1.611353492736816406e+01 -2.306349754333496094e+00 1.484429264068603516e+01 3.761382818222045898e+00 7.907634377479553223e-01
1.600000000000000000e+03 7.661061096191406250e+01 -1.112992858886718750e+01 -2.275243282318115234e+00 1.673327827453613281e+01 4.337410926818847656e+00 -3.508569896221160889e-01
1.601000000000000000e+03 7.738819885253906250e+01 -1.153630065917968750e+01 -8.465597629547119141e-01 1.603538703918457031e+01 4.556648254394531250e+00 2.873320341110229492e+00
1.602000000000000000e+03 7.734724426269531250e+01 -1.232053279876708984e+01 3.096341133117675781e+00 1.721146392822265625e+01 6.092341423034667969e+00 3.919223785400390625e+00
1.603000000000000000e+03 7.806645202636718750e+01 -1.233272933959960938e+01 3.150605678558349609e+00 1.244923496246337891e+01 4.679952144622802734e+00 3.616812944412231445e+00
1.604000000000000000e+03 7.806026458740234375e+01 -1.395051765441894531e+01 4.264405727386474609e+00 1.131491088867187500e+01 4.673795223236083984e+00 -2.270256280899047852e+00
1.605000000000000000e+03 7.876102447509765625e+01 -1.230054664611816406e+01 1.426687121391296387e+00 7.224146366119384766e+00 2.595249891281127930e+00 2.537412881851196289e+00
1.606000000000000000e+03 7.839367675781250000e+01 -1.377216625213623047e+01 4.714303970336914062e+00 9.431052207946777344e+00 4.243607044219970703e+00 -1.566820025444030762e+00
1.607000000000000000e+03 7.856409454345703125e+01 -1.302885341644287109e+01 1.787367701530456543e+00 7.730024337768554688e+00 2.855217695236206055e+00 8.901104331016540527e-01
1.608000000000000000e+03 7.138229370117187500e+01 -1.693830680847167969e+01 4.843508005142211914e-01 6.928416490554809570e-01 3.531577289104461670e-01 -1.567601412534713745e-01
1.609000000000000000e+03 7.121000671386718750e+01 -1.817499542236328125e+01 3.427129685878753662e-01 1.033955812454223633e+00 4.130006432533264160e-01 -3.858212381601333618e-02
1.610000000000000000e+03 7.636624145507812500e+01 -2.076167869567871094e+01 -6.173072457313537598e-01 9.459486961364746094e+00 2.652653932571411133e+00 -3.310416936874389648e-01
1.611000000000000000e+03 7.184971618652343750e+01 -1.739101409912109375e+01 5.219663381576538086e-01 1.467270255088806152e+00 5.967710018157958984e-01 1.377565413713455200e-01
1.612000000000000000e+03 9.538068771362304688e+00 -4.228823661804199219e+00 -3.224313557147979736e-01 9.003154933452606201e-02 -6.971994042396545410e-02 -1.801307201385498047e-01
1.613000000000000000e+03 1.028061866760253906e+01 -4.281328201293945312e+00 -3.432975113391876221e-01 9.620273113250732422e-02 -7.412844151258468628e-02 -1.634115427732467651e-01
1.614000000000000000e+03 1.620571327209472656e+01 2.568891763687133789e+00 -1.655278028920292854e-04 -2.776170440483838320e-04 -1.329434599028900266e-04 -6.344154098769649863e-05
1.615000000000000000e+03 7.238291931152343750e+01 -1.880327796936035156e+01 1.682535260915756226e-01 2.959700584411621094e+00 9.383862018585205078e-01 3.356136381626129150e-01
1.616000000000000000e+03 7.267053985595703125e+01 -1.631406593322753906e+01 7.116814255714416504e-01 1.882902860641479492e+00 7.783752679824829102e-01 6.110066175460815430e-01
1.617000000000000000e+03 7.015257263183593750e+01 -1.820830345153808594e+01 2.145943194627761841e-01 -1.555541604757308960e-01 1.771204732358455658e-02 -2.658927142620086670e-01
1.618000000000000000e+03 7.095120239257812500e+01 -1.869441795349121094e+01 2.219661325216293335e-01 8.491033315658569336e-01 3.213208317756652832e-01 -7.572072744369506836e-02
1.619000000000000000e+03 1.761674499511718750e+01 2.757266283035278320e+00 -1.857557363109663129e-04 -3.441850712988525629e-04 -1.589822350069880486e-04 -2.289542317157611251e-04
1.620000000000000000e+03 1.783797264099121094e+01 4.758335590362548828e+00 4.045355599373579025e-04 1.586491998750716448e-04 1.689554192125797272e-04 2.209747472079470754e-04
1.621000000000000000e+03 1.413648891448974609e+01 3.537909030914306641e+00 1.060932554537430406e-04 2.511470520403236151e-04 1.071720907930284739e-04 -9.208312985720112920e-05
1.622000000000000000e+03 1.102179718017578125e+01 -4.351374626159667969e+00 -3.574515879154205322e-01 9.371227771043777466e-02 -7.912179827690124512e-02 -1.467118263244628906e-01
1.623000000000000000e+03 1.556092453002929688e+01 2.510981321334838867e+00 1.181051848107017577e-04 2.843464899342507124e-04 1.207355016958899796e-04 1.223353610839694738e-04
1.624000000000000000e+03 1.477312088012695312e+01 4.216852664947509766e+00 6.115518044680356979e-05 -5.358195267035625875e-05 2.271968696732074022e-06 1.465780660510063171e-04
1.625000000000000000e+03 7.222174167633056641e+00 -3.371390342712402344e+00 -2.608066499233245850e-01 3.210412338376045227e-02 -6.861075758934020996e-02 -1.889975070953369141e-01
1.626000000000000000e+03 8.790207862854003906e+00 -4.191542148590087891e+00 -2.993979156017303467e-01 8.047827333211898804e-02 -6.567589938640594482e-02 -1.956199258565902710e-01
1.627000000000000000e+03 7.163784790039062500e+01 -1.071394920349121094e+01 3.451711833477020264e-01 1.205823898315429688e+00 4.652985334396362305e-01 -2.126837223768234253e-01
1.628000000000000000e+03 1.403407478332519531e+01 -3.947840690612792969e+00 -4.639624953269958496e-01 3.349777683615684509e-02 -1.291394233703613281e-01 -6.582587957382202148e-02
1.629000000000000000e+03 1.723986816406250000e+01 -4.204440116882324219e+00 -4.837828874588012695e-01 -3.935319557785987854e-02 -1.569408178329467773e-01 -3.819583356380462646e-02
1.630000000000000000e+03 9.885540008544921875e+00 4.165019989013671875e+00 -3.942717739846557379e-04 -2.379813849984202534e-05 -1.254209782928228378e-04 4.994094342691823840e-05
1.631000000000000000e+03 4.604685306549072266e+00 5.867902278900146484e+00 6.104597559897229075e-05 1.173830696643562987e-06 1.866594175226055086e-05 1.856692833825945854e-04
1.632000000000000000e+03 7.322333812713623047e+00 4.842202186584472656e+00 -3.112345293629914522e-04 -6.099492020439356565e-05 -1.116688290494494140e-04 -1.448793773306533694e-04
1.633000000000000000e+03 7.405708312988281250e+00 3.388042926788330078e+00 -2.017116057686507702e-04 -1.223292929353192449e-04 -9.721227252157405019e-05 -7.132947939680889249e-05
1.634000000000000000e+03 3.597429275512695312e+00 4.448620796203613281e+00 -1.663126022322103381e-05 -2.474625362083315849e-04 -7.922814256744459271e-05 1.573151239426806569e-04
1.635000000000000000e+03 3.544780969619750977e+00 3.634413719177246094e+00 1.438351173419505358e-04 1.301720476476475596e-04 8.220214658649638295e-05 -7.521776569774374366e-05
1.636000000000000000e+03 2.991534471511840820e+00 5.709673881530761719e+00 -1.873644214356318116e-04 -7.215298683149740100e-05 -7.785522029735147953e-05 1.974211336346343160e-04
1.637000000000000000e+03 2.215422391891479492e+00 4.131093502044677734e+00 -6.208135164342820644e-05 4.973829345544800162e-05 -3.702916728798300028e-06 -6.618113548029214144e-05
1.638000000000000000e+03 1.330301761627197266e+01 -4.624099731445312500e+00 -3.835101723670959473e-01 6.584249436855316162e-02 -9.530030936002731323e-02 -9.399442374706268311e-02
1.639000000000000000e+03 1.327409076690673828e+01 3.810802936553955078e+00 -3.370764607097953558e-04 -1.810412795748561621e-04 -1.554353220853954554e-04 3.390026540728285909e-05
1.640000000000000000e+03 6.835398864746093750e+01 -8.288734436035156250e+00 -3.536466956138610840e-01 -8.151143044233322144e-02 -1.305474340915679932e-01 5.303900837898254395e-01
1.641000000000000000e+03 1.176894283294677734e+01 -4.435245037078857422e+00 -3.706448078155517578e-01 8.992670476436614990e-02 -8.421543240547180176e-02 -1.293120384216308594e-01
1.642000000000000000e+03 1.252748966217041016e+01 -4.529247760772705078e+00 -3.761170804500579834e-01 7.800705730915069580e-02 -8.943301439285278320e-02 -1.124275326728820801e-01
1.643000000000000000e+03 2.321053695678710938e+01 -4.909506320953369141e+00 -5.338934063911437988e-01 -1.092830300331115723e-01 -1.929529309272766113e-01 -2.999307215213775635e-01
1.644000000000000000e+03 1.651352691650390625e+01 -4.920732498168945312e+00 -3.811340928077697754e-01 -2.057137340307235718e-02 -1.205116435885429382e-01 -4.632310569286346436e-02
1.645000000000000000e+03 1.973601722717285156e+01 -4.220557212829589844e+00 -5.135179162025451660e-01 -7.114538550376892090e-02 -1.753989905118942261e-01 -6.398766487836837769e-02
1.646000000000000000e+03 1.985862159729003906e+01 -4.967262744903564453e+00 -4.022037684917449951e-01 -8.517699688673019409e-02 -1.462142318487167358e-01 -7.731693983078002930e-02
1.647000000000000000e+03 6.551012992858886719e+00 -4.119699954986572266e+00 -2.148078829050064087e-01 2.024493739008903503e-02 -5.836888402700424194e-02 -2.278122007846832275e-01
1.648000000000000000e+03 5.822035312652587891e+00 -4.097493171691894531e+00 -1.824650913476943970e-01 -5.322152283042669296e-03 -5.633617565035820007e-02 -2.256233245134353638e-01
1.649000000000000000e+03 4.019193649291992188e+00 -4.328372955322265625e+00 -1.043204814195632935e-01 -7.233293354511260986e-02 -5.299602448940277100e-02 -2.118263840675354004e-01
1.650000000000000000e+03 3.623300075531005859e+00 -4.786001205444335938e+00 -8.639811724424362183e-02 -1.098682284355163574e-01 -5.887990444898605347e-02 -2.156077623367309570e-01
1.651000000000000000e+03 7.293843746185302734e+00 -4.141558170318603516e+00 -2.436850666999816895e-01 4.363664612174034119e-02 -6.001452356576919556e-02 -2.195088863372802734e-01
1.652000000000000000e+03 4.137248516082763672e+00 -5.891352176666259766e+00 -9.696815907955169678e-02 -1.164085194468498230e-01 -6.401300430297851562e-02 -2.757310867309570312e-01
1.653000000000000000e+03 2.969241619110107422e+00 -6.245455265045166016e+00 -5.903355404734611511e-02 -1.992195695638656616e-01 -7.747593522071838379e-02 -2.442571967840194702e-01
1.654000000000000000e+03 1.409212779998779297e+01 -4.715715885162353516e+00 -3.825785219669342041e-01 4.473798349499702454e-02 -1.013521626591682434e-01 -7.782945036888122559e-02
1.655000000000000000e+03 1.488972568511962891e+01 -4.802469253540039062e+00 -3.846086859703063965e-01 2.554401382803916931e-02 -1.077193990349769592e-01 -6.381042301654815674e-02
1.656000000000000000e+03 1.569648838043212891e+01 -4.872173309326171875e+00 -3.809624314308166504e-01 2.075391603284515440e-05 -1.142825037240982056e-01 -5.336601287126541138e-02
1.657000000000000000e+03 7.228686523437500000e+01 -1.080212211608886719e+01 6.058679223060607910e-01 1.602272748947143555e+00 6.624422073364257812e-01 -6.994123458862304688e-01
1.658000000000000000e+03 6.920088958740234375e+01 -9.620153427124023438e+00 -2.086226493120193481e-01 2.098005712032318115e-01 3.533746348693966866e-04 5.077490806579589844e-01
1.659000000000000000e+03 1.237965869903564453e+01 3.816817522048950195e+00 2.306346868863329291e-04 2.211337414337322116e-04 1.355305284960195422e-04 -3.881804877892136574e-05
1.660000000000000000e+03 1.155664634704589844e+01 3.895552396774291992e+00 -2.167943894164636731e-04 -2.086786989821121097e-04 -1.276419206988066435e-04 1.350552483927458525e-04
1.661000000000000000e+03 9.935334205627441406e+00 5.063930988311767578e+00 5.101560382172465324e-04 -9.519381819700356573e-06 1.501910010119900107e-04 -1.740765947033651173e-05
1.662000000000000000e+03 1.817179870605468750e+01 -4.975912094116210938e+00 -3.818116784095764160e-01 -6.222581118345260620e-02 -1.332112550735473633e-01 -4.719950258731842041e-02
1.663000000000000000e+03 2.400642204284667969e+01 -4.056191444396972656e+00 -8.012607693672180176e-01 -4.291778802871704102e-02 -2.532535493373870850e-01 -3.379495143890380859e-01
1.664000000000000000e+03 2.313038253784179688e+01 -4.058860301971435547e+00 -7.087332010269165039e-01 -2.452474460005760193e-02 -2.199773788452148438e-01 -2.361586242914199829e-01
1.665000000000000000e+03 2.406282043457031250e+01 -4.966583251953125000e+00 -5.497597455978393555e-01 -1.777963936328887939e-01 -2.182668298482894897e-01 -4.171404540538787842e-01
1.666000000000000000e+03 2.153814888000488281e+01 -4.916796684265136719e+00 -4.585688114166259766e-01 -8.466537296772003174e-02 -1.629702597856521606e-01 -1.514103114604949951e-01
1.667000000000000000e+03 1.905268669128417969e+01 -1.454515171051025391e+01 7.403284907341003418e-01 -1.619218885898590088e-01 1.735219806432723999e-01 4.357247799634933472e-02
1.668000000000000000e+03 2.244561004638671875e+01 -1.615110397338867188e+01 5.749959945678710938e-01 -1.468372344970703125e-01 1.284476220607757568e-01 1.473615914583206177e-01
1.669000000000000000e+03 2.272819328308105469e+01 -1.495849990844726562e+01 6.432874798774719238e-01 -2.425210177898406982e-01 1.202299296855926514e-01 1.851652860641479492e-01
1.670000000000000000e+03 7.804611206054687500e+01 -1.098634052276611328e+01 -1.090843677520751953e+00 1.225251674652099609e+01 3.348501920700073242e+00 3.209833860397338867e+00
1.671000000000000000e+03 7.821053314208984375e+01 -9.409795761108398438e+00 -1.202451348304748535e+00 1.086610031127929688e+01 2.899094820022583008e+00 1.923366427421569824e+00
1.672000000000000000e+03 2.022964477539062500e+01 -1.469144821166992188e+01 6.915336847305297852e-01 -2.065591663122177124e-01 1.454923599958419800e-01 6.331286579370498657e-02
1.673000000000000000e+03 2.577199745178222656e+01 -1.660479545593261719e+01 3.032361865043640137e-01 -4.656508192420005798e-02 7.700133323669433594e-02 3.184853494167327881e-01
1.674000000000000000e+03 2.515463638305664062e+01 -1.540260505676269531e+01 5.186493992805480957e-01 -1.948378086090087891e-01 9.714347869157791138e-02 3.595208823680877686e-01
1.675000000000000000e+03 6.875997161865234375e+01 -1.030470752716064453e+01 -3.232108354568481445e-01 -1.622947901487350464e-01 -1.456516832113265991e-01 6.741870641708374023e-01
1.676000000000000000e+03 1.719493865966796875e+01 -1.410019588470458984e+01 7.616637349128723145e-01 -5.625939741730690002e-02 2.116212993860244751e-01 4.337937384843826294e-02
1.677000000000000000e+03 5.806167602539062500e+01 2.296447038650512695e+00 -2.741705417633056641e+00 -3.178359866142272949e-01 -9.178624749183654785e-01 1.281383633613586426e-01
1.678000000000000000e+03 3.581993103027343750e+01 -1.669842529296875000e+01 -7.517994642257690430e-01 5.592127323150634766e+00 1.452098369598388672e+00 1.920979321002960205e-01
1.679000000000000000e+03 3.929158782958984375e+01 -6.246520042419433594e+00 1.316629171371459961e+00 1.050115013122558594e+01 3.545333623886108398e+00 1.377052783966064453e+00
1.680000000000000000e+03 3.884197616577148438e+01 -1.048440265655517578e+01 1.200863242149353027e+00 1.026665115356445312e+01 3.440254211425781250e+00 5.467333197593688965e-01
1.681000000000000000e+03 3.750359725952148438e+01 -1.312682819366455078e+01 1.006368398666381836e+00 7.411118984222412109e+00 2.525246143341064453e+00 1.966277137398719788e-02
1.682000000000000000e+03 4.761035919189453125e+01 -2.847377586364746094e+01 2.517856061458587646e-01 1.562689423561096191e+00 5.443425178527832031e-01 -7.333239912986755371e-01
1.683000000000000000e+03 2.676997375488281250e+01 -1.517233371734619141e+01 5.309635400772094727e-01 -2.311743944883346558e-01 8.993674069643020630e-02 5.417746305465698242e-01
1.684000000000000000e+03 2.480750846862792969e+01 -3.605197906494140625e+01 -1.171288713812828064e-01 3.459414839744567871e-01 6.864378601312637329e-02 1.545710712671279907e-01
1.685000000000000000e+03 5.075811386108398438e+01 -3.367388534545898438e+01 -2.102873474359512329e-01 1.147762060165405273e+00 2.812424302101135254e-01 -5.177309513092041016e-01
1.686000000000000000e+03 1.019307994842529297e+01 -1.297276115417480469e+01 5.121393799781799316e-01 4.658125340938568115e-01 2.933855652809143066e-01 1.785816811025142670e-02
1.687000000000000000e+03 5.509014892578125000e+01 1.824395298957824707e+00 -3.876653909683227539e+00 -4.320985078811645508e-02 -1.175959110260009766e+00 5.167707204818725586e-01
1.688000000000000000e+03 5.280356216430664062e+01 4.636948585510253906e+00 -2.138646602630615234e+00 9.361998736858367920e-02 -6.135079860687255859e-01 -1.447288244962692261e-01
1.689000000000000000e+03 9.054178237915039062e+00 2.128807830810546875e+01 -9.526787907816469669e-04 -2.043010026682168245e-04 -3.470939409453421831e-04 4.153342451900243759e-04
1.690000000000000000e+03 4.318413925170898438e+01 -2.240837287902832031e+01 3.440428674221038818e-01 4.365021228790283203e+00 1.412719249725341797e+00 -1.075353026390075684e+00
1.691000000000000000e+03 4.668302917480468750e+01 -2.777507400512695312e+01 2.869987785816192627e-01 1.856887817382812500e+00 6.431659460067749023e-01 -8.337610363960266113e-01
1.692000000000000000e+03 3.809096145629882812e+01 -8.213776946067810059e-01 -2.367925643920898438e+00 7.731107711791992188e+00 1.608954668045043945e+00 5.618477463722229004e-01
1.693000000000000000e+03 1.820270347595214844e+01 3.802754878997802734e+00 -3.911027451977133751e-04 -2.441446413286030293e-04 -1.905742101371288300e-04 -2.382619859417900443e-04
1.694000000000000000e+03 4.057846069335937500e+01 -1.043232202529907227e+00 -1.823385834693908691e+00 1.049371910095214844e+01 2.601099967956542969e+00 4.608423411846160889e-01
1.695000000000000000e+03 4.491375350952148438e+01 -2.589146614074707031e+01 3.958859145641326904e-01 2.644801378250122070e+00 9.122061729431152344e-01 -9.986453652381896973e-01
1.696000000000000000e+03 7.078017425537109375e+01 -1.936842727661132812e+01 1.506117284297943115e-01 7.207990288734436035e-01 2.614232301712036133e-01 -9.143276512622833252e-02
1.697000000000000000e+03 7.173775482177734375e+01 -2.139500427246093750e+01 -1.250210404396057129e-01 2.364682912826538086e+00 6.718985438346862793e-01 -1.230310499668121338e-01
1.698000000000000000e+03 4.427859497070312500e+01 -2.498635673522949219e+01 4.079612493515014648e-01 3.098906755447387695e+00 1.052060365676879883e+00 -1.049463629722595215e+00
1.699000000000000000e+03 7.549195098876953125e+01 1.392684268951416016e+01 1.368962973356246948e-01 4.600504398345947266e+00 1.421220302581787109e+00 -9.866651892662048340e-01
1.700000000000000000e+03 7.547568511962890625e+01 6.149103492498397827e-02 -1.750135868787765503e-01 6.969155311584472656e+00 2.038242578506469727e+00 -1.051777362823486328e+00
1.701000000000000000e+03 7.294969177246093750e+01 3.330121612548828125e+01 1.185506731271743774e-01 3.109045267105102539e+00 9.682787656784057617e-01 -1.587614417076110840e-01
1.702000000000000000e+03 7.490276336669921875e+01 3.211532974243164062e+01 7.459571212530136108e-02 3.096458196640014648e+00 9.513161778450012207e-01 -1.597981154918670654e-01
1.703000000000000000e+03 7.683972930908203125e+01 9.797993659973144531e+00 4.738791286945343018e-02 5.774773597717285156e+00 1.746648430824279785e+00 -9.093407988548278809e-01
1.704000000000000000e+03 7.560498809814453125e+01 8.493416786193847656e+00 5.720211938023567200e-02 5.543622493743896484e+00 1.680247306823730469e+00 -1.199972629547119141e+00
1.705000000000000000e+03 7.672820281982421875e+01 1.811552047729492188e+01 8.237887173891067505e-02 4.190221786499023438e+00 1.281780242919921875e+00 -5.890600681304931641e-01
1.706000000000000000e+03 7.540862274169921875e+01 1.668638229370117188e+01 1.512057036161422729e-01 4.192152500152587891e+00 1.303007483482360840e+00 -8.464669585227966309e-01
1.707000000000000000e+03 7.684056854248046875e+01 2.876357078552246094e+00 -3.272737190127372742e-02 7.384495258331298828e+00 2.205530405044555664e+00 -9.304012060165405273e-01
1.708000000000000000e+03 7.559169006347656250e+01 1.549838066101074219e+00 -1.104497462511062622e-01 6.828529357910156250e+00 2.015423774719238281e+00 -1.128150701522827148e+00
1.709000000000000000e+03 7.555474853515625000e+01 7.152660369873046875e+00 2.566808834671974182e-02 5.798138141632080078e+00 1.747141838073730469e+00 -1.232567429542541504e+00
1.710000000000000000e+03 7.557751464843750000e+01 1.119891929626464844e+01 1.087489351630210876e-01 5.068345546722412109e+00 1.553128361701965332e+00 -1.099418163299560547e+00
1.711000000000000000e+03 7.440749359130859375e+01 9.915184020996093750e+00 1.331758797168731689e-01 4.864730358123779297e+00 1.499371767044067383e+00 -1.328995466232299805e+00
1.712000000000000000e+03 7.535700988769531250e+01 1.808402824401855469e+01 1.549026370048522949e-01 4.012815475463867188e+00 1.250315546989440918e+00 -7.712625861167907715e-01
1.713000000000000000e+03 7.402519226074218750e+01 1.661415481567382812e+01 2.382581830024719238e-01 3.946708917617797852e+00 1.255490183830261230e+00 -1.008864164352416992e+00
1.714000000000000000e+03 7.524101257324218750e+01 2.093249130249023438e+01 1.520277410745620728e-01 3.701735019683837891e+00 1.156128883361816406e+00 -6.195501685142517090e-01
1.715000000000000000e+03 7.554552459716796875e+01 4.388829708099365234e+00 -2.949967794120311737e-02 6.279216289520263672e+00 1.874915003776550293e+00 -1.224898815155029297e+00
1.716000000000000000e+03 7.558937835693359375e+01 2.978225231170654297e+00 -7.598190754652023315e-02 6.557652950286865234e+00 1.944501280784606934e+00 -1.179934620857238770e+00
1.717000000000000000e+03 7.433871459960937500e+01 3.078858852386474609e+00 -1.063649281859397888e-01 5.769721508026123047e+00 1.699007034301757812e+00 -1.381444931030273438e+00
1.718000000000000000e+03 7.521532440185546875e+01 2.237690162658691406e+01 1.442180126905441284e-01 3.574327945709228516e+00 1.115563869476318359e+00 -5.427798628807067871e-01
1.719000000000000000e+03 7.312222290039062500e+01 2.888007164001464844e+01 1.815678030252456665e-01 3.177252054214477539e+00 1.007645964622497559e+00 -3.202340304851531982e-01
1.720000000000000000e+03 7.374314880371093750e+01 2.395694923400878906e+01 2.121888548135757446e-01 3.373936653137207031e+00 1.075837612152099609e+00 -5.496807098388671875e-01
1.721000000000000000e+03 7.675949859619140625e+01 2.789534187316894531e+01 5.067022144794464111e-02 3.229843378067016602e+00 9.841541051864624023e-01 -2.141336053609848022e-01
1.722000000000000000e+03 7.549082183837890625e+01 2.791057586669921875e+01 9.177820384502410889e-02 3.232243061065673828e+00 9.972063899040222168e-01 -2.773796617984771729e-01
1.723000000000000000e+03 7.537348175048828125e+01 3.083501243591308594e+01 7.889907062053680420e-02 3.122155189514160156e+00 9.603162407875061035e-01 -1.814603209495544434e-01
1.724000000000000000e+03 7.506898498535156250e+01 2.901750373840332031e+01 1.020419374108314514e-01 3.187079668045043945e+00 9.867364764213562012e-01 -2.554879188537597656e-01
1.725000000000000000e+03 7.551840209960937500e+01 -3.298924636840820312e+01 -1.023469120264053345e-01 8.019882202148437500e+00 2.375260591506958008e+00 7.594635486602783203e-01
1.726000000000000000e+03 7.439195251464843750e+01 -3.570789718627929688e+01 1.642805635929107666e-01 6.726899147033691406e+00 2.067353963851928711e+00 6.739963889122009277e-01
1.727000000000000000e+03 7.584627532958984375e+01 -3.011788749694824219e+01 -2.125785052776336670e-01 8.478538513183593750e+00 2.479788064956665039e+00 6.029943227767944336e-01
1.728000000000000000e+03 7.583743286132812500e+01 -2.215314149856567383e+00 -2.208556830883026123e-01 7.555159568786621094e+00 2.200291156768798828e+00 -8.609560728073120117e-01
1.729000000000000000e+03 7.463978576660156250e+01 3.491886901855468750e+01 6.002242490649223328e-02 3.044058561325073242e+00 9.312242865562438965e-01 -1.051984727382659912e-01
1.730000000000000000e+03 7.560688781738281250e+01 -3.155880355834960938e+01 -1.034274399280548096e-01 8.150704383850097656e+00 2.414183139801025391e+00 6.557134389877319336e-01
1.731000000000000000e+03 7.077740478515625000e+01 -3.027101898193359375e+01 -6.869145631790161133e-01 2.462344169616699219e+00 5.326288342475891113e-01 3.186548650264739990e-01
1.732000000000000000e+03 7.683874511718750000e+01 -3.170462226867675781e+01 -6.909066438674926758e-02 9.545701026916503906e+00 2.842983007431030273e+00 6.047344803810119629e-01
1.733000000000000000e+03 7.595559692382812500e+01 -2.875510978698730469e+01 -2.341057360172271729e-01 8.705499649047851562e+00 2.541418075561523438e+00 4.452752470970153809e-01
1.734000000000000000e+03 7.172460174560546875e+01 -2.431017684936523438e+01 -5.616382956504821777e-01 2.530113458633422852e+00 5.905425548553466797e-01 -2.233646064996719360e-01
1.735000000000000000e+03 7.599813079833984375e+01 -2.740878486633300781e+01 -2.711644470691680908e-01 8.778141975402832031e+00 2.552093267440795898e+00 3.146335780620574951e-01
1.736000000000000000e+03 7.718116760253906250e+01 -2.473472213745117188e+01 -1.642985492944717407e-01 1.042335796356201172e+01 3.077717781066894531e+00 2.546500787138938904e-02
1.737000000000000000e+03 7.614498901367187500e+01 -2.323085784912109375e+01 -2.957898974418640137e-01 8.966057777404785156e+00 2.601080417633056641e+00 -1.114925369620323181e-01
1.738000000000000000e+03 7.696057891845703125e+01 3.020833969116210938e+01 3.913533687591552734e-02 3.103167057037353516e+00 9.426906704902648926e-01 -1.360943466424942017e-01
1.739000000000000000e+03 7.666661834716796875e+01 3.134106254577636719e+01 3.803161531686782837e-02 3.073516845703125000e+00 9.334645271301269531e-01 -1.244413927197456360e-01
1.740000000000000000e+03 7.663115692138671875e+01 -4.671487331390380859e+00 -3.477235138416290283e-01 8.679799079895019531e+00 2.499622821807861328e+00 -5.088441967964172363e-01
1.741000000000000000e+03 7.500138092041015625e+01 -1.226809859275817871e+00 -2.231468111276626587e-01 6.798581600189208984e+00 1.972630500793457031e+00 -1.027150511741638184e+00
1.742000000000000000e+03 7.632693481445312500e+01 -3.467922210693359375e+00 -2.495061308145523071e-01 8.205742835998535156e+00 2.386871099472045898e+00 -6.624763011932373047e-01
1.743000000000000000e+03 7.632639312744140625e+01 -1.110436344146728516e+01 -2.177588224411010742e+00 1.640480613708496094e+01 4.268165588378906250e+00 -1.551521897315979004e+00
1.744000000000000000e+03 7.800619506835937500e+01 -8.320275306701660156e+00 -8.619696497917175293e-01 1.048751163482666016e+01 2.887662649154663086e+00 9.276451468467712402e-01
1.745000000000000000e+03 7.750311279296875000e+01 -1.873670387268066406e+01 -9.438613057136535645e-01 1.126469516754150391e+01 3.096250057220458984e+00 -1.072660207748413086e+00
1.746000000000000000e+03 7.247108459472656250e+01 -1.683862495422363281e+01 6.424113512039184570e-01 1.941379785537719727e+00 7.751373052597045898e-01 4.786185622215270996e-01
1.747000000000000000e+03 4.563291168212890625e+01 2.056671714782714844e+01 6.802228093147277832e-01 5.477389812469482422e+00 1.847283840179443359e+00 1.094574689865112305e+00
1.748000000000000000e+03 4.417701339721679688e+01 1.779856681823730469e+01 7.519725561141967773e-01 6.627288818359375000e+00 2.213778495788574219e+00 1.520732879638671875e+00
1.749000000000000000e+03 4.585203170776367188e+01 2.487207603454589844e+01 5.844943523406982422e-01 4.940209388732910156e+00 1.657411098480224609e+00 4.571968317031860352e-01
1.750000000000000000e+03 4.429430770874023438e+01 1.014125728607177734e+01 2.038587093353271484e+00 6.259851455688476562e+00 2.489531517028808594e+00 3.002369403839111328e+00
1.751000000000000000e+03 4.365316390991210938e+01 1.339523601531982422e+01 1.374674320220947266e+00 7.623979568481445312e+00 2.699596166610717773e+00 2.524960517883300781e+00
1.752000000000000000e+03 1.497745418548583984e+01 7.661659717559814453e+00 3.690358425956219435e-04 -4.146737774135544896e-05 9.827053872868418694e-05 1.728400966385379434e-04
1.753000000000000000e+03 1.548160266876220703e+01 9.465486526489257812e+00 5.144990282133221626e-04 1.247185282409191132e-04 1.917652698466554284e-04 8.294461440527811646e-05
1.754000000000000000e+03 4.434611892700195312e+01 2.068460655212402344e+01 4.282751381397247314e-01 6.043528079986572266e+00 1.941541075706481934e+00 9.465833306312561035e-01
1.755000000000000000e+03 4.572910690307617188e+01 2.197894859313964844e+01 5.934080481529235840e-01 5.336283206939697266e+00 1.778907418251037598e+00 8.729439377784729004e-01
1.756000000000000000e+03 4.196555137634277344e+00 -1.433426570892333984e+01 1.790093034505844116e-01 -1.994255632162094116e-01 -6.124878302216529846e-03 -2.489270716905593872e-01
1.757000000000000000e+03 4.394059658050537109e+00 2.179459571838378906e+01 -9.732948383316397667e-04 1.208036519528832287e-05 -2.883643610402941704e-04 4.253713996149599552e-05
1.758000000000000000e+03 2.933916091918945312e+00 -2.070860290527343750e+01 1.958593726158142090e-01 -3.574953973293304443e-01 -4.849081113934516907e-02 3.633628785610198975e-01
1.759000000000000000e+03 2.879129886627197266e+00 -1.824860763549804688e+01 2.357181757688522339e-01 -6.021105647087097168e-01 -1.099177151918411255e-01 7.993398606777191162e-02
1.760000000000000000e+03 4.098232746124267578e+00 -1.700805854797363281e+01 3.380242586135864258e-01 -1.852526813745498657e-01 4.583147168159484863e-02 5.817705299705266953e-03
1.761000000000000000e+03 4.587905883789062500e+00 -1.808534622192382812e+01 4.122474491596221924e-01 9.938920289278030396e-02 1.534909904003143311e-01 1.403485834598541260e-01
1.762000000000000000e+03 3.131968498229980469e+00 2.046834754943847656e+01 -8.825210970826447010e-04 8.400060323765501380e-06 -2.622363099362701178e-04 1.185368910228135064e-05
1.763000000000000000e+03 5.686520099639892578e+00 2.306911659240722656e+01 -1.035790774039924145e-03 -1.798223092919215560e-05 -3.161318891216069460e-04 1.278025010833516717e-04
1.764000000000000000e+03 6.884225845336914062e+00 2.673723030090332031e+01 2.311153075424954295e-04 4.853900172747671604e-04 2.149515930796042085e-04 -1.289703533984720707e-03
1.765000000000000000e+03 4.983405590057373047e+00 2.895787239074707031e+01 1.290670479647815228e-03 -2.434461930533871055e-04 3.141672932542860508e-04 2.989981148857623339e-04
1.766000000000000000e+03 4.241823673248291016e+00 1.767357254028320312e+01 8.307988173328340054e-04 -1.851438719313591719e-05 2.436853246763348579e-04 1.108423111872980371e-05
1.767000000000000000e+03 4.272903442382812500e+00 1.903972053527832031e+01 -8.797989576123654842e-04 1.260394310520496219e-05 -2.601585001684725285e-04 5.049791525379987434e-06
1.768000000000000000e+03 4.214114189147949219e+00 1.632054328918457031e+01 -7.942967349663376808e-04 1.577447073941584677e-05 -2.335566823603585362e-04 -4.560234003747609677e-07
1.769000000000000000e+03 3.010306119918823242e+00 1.493807983398437500e+01 -7.052865112200379372e-04 2.000953600145294331e-06 -2.109856723109260201e-04 -2.320621206308715045e-06
1.770000000000000000e+03 3.422832489013671875e+00 2.613995170593261719e+01 -1.046824851073324680e-03 7.817761797923594713e-05 -2.905941801145672798e-04 -5.502218482433818281e-05
1.771000000000000000e+03 4.612365245819091797e+00 2.461130142211914062e+01 -1.127348979935050011e-03 7.669328624615445733e-05 -3.151966957375407219e-04 1.183761414722539485e-04
1.772000000000000000e+03 4.483143806457519531e+00 2.319314575195312500e+01 1.048832782544195652e-03 -1.076295848179142922e-05 3.114209393970668316e-04 -8.458793308818712831e-05
1.773000000000000000e+03 4.166734218597412109e+00 1.362783908843994141e+01 -6.605248781852424145e-04 -3.926385033992119133e-06 -1.993353798752650619e-04 -1.258162774320226163e-05
1.774000000000000000e+03 4.248747825622558594e+00 -1.000263881683349609e+01 -3.529870137572288513e-02 -1.727153062820434570e-01 -6.240420415997505188e-02 -3.662694692611694336e-01
1.775000000000000000e+03 3.956533670425415039e+00 -8.721300125122070312e+00 -4.929943010210990906e-02 -1.963866651058197021e-01 -7.370582967996597290e-02 -3.402570486068725586e-01
1.776000000000000000e+03 4.285287857055664062e+00 -1.292374324798583984e+01 7.478775829076766968e-02 -1.928120404481887817e-01 -3.540728613734245300e-02 -3.355509042739868164e-01
1.777000000000000000e+03 3.498132705688476562e+00 -3.174671936035156250e+01 -1.187625005841255188e-01 1.533068865537643433e-01 1.036331616342067719e-02 5.773328989744186401e-02
1.778000000000000000e+03 5.376338958740234375e+00 1.115423488616943359e+01 5.847705760970711708e-04 1.296836489927954972e-05 1.793216797523200512e-04 3.292558540124446154e-05
1.779000000000000000e+03 4.998241424560546875e+00 3.620652389526367188e+01 1.678525004535913467e-04 -1.515904586995020509e-04 4.878610070591093972e-06 -6.939904997125267982e-04
1.780000000000000000e+03 4.382699489593505859e+00 -1.145533657073974609e+01 2.321089990437030792e-02 -1.595385670661926270e-01 -4.089829698204994202e-02 -3.611910343170166016e-01
1.781000000000000000e+03 4.184032440185546875e+00 1.096638298034667969e+01 -5.498509854078292847e-04 -2.683701950445538387e-06 -1.657604007050395012e-04 -4.749488289235159755e-05
1.782000000000000000e+03 2.593991279602050781e+00 -3.381475067138671875e+01 -2.953257970511913300e-02 2.994228303432464600e-01 8.096707612276077271e-02 -2.561168186366558075e-02
1.783000000000000000e+03 5.615663051605224609e+00 3.189716911315917969e+01 1.085432944819331169e-03 -2.997086312461760826e-06 3.247307613492012024e-04 2.102677390212193131e-04
1.784000000000000000e+03 5.632535457611083984e+00 3.342745590209960938e+01 -4.274174862075597048e-04 1.622554264031350613e-04 -7.954861939651891589e-05 -8.523143478669226170e-04
1.785000000000000000e+03 3.927516937255859375e+00 3.328358078002929688e+01 7.877797470428049564e-04 1.024799130391329527e-04 2.670779067557305098e-04 1.259735581697896123e-04
1.786000000000000000e+03 5.256153106689453125e+00 3.038647460937500000e+01 -1.060530077666044235e-03 1.194999495055526495e-04 -2.823090471792966127e-04 -4.638243699446320534e-04
1.787000000000000000e+03 4.517774105072021484e+00 8.445855140686035156e+00 -4.503135278355330229e-04 2.683134516701102257e-05 -1.270446518901735544e-04 -6.635188037762418389e-05
1.788000000000000000e+03 3.917151212692260742e+00 5.162734508514404297e+00 -8.180693839676678181e-05 4.699467172031290829e-05 -1.044368036673404276e-05 -1.324479089817032218e-04
1.789000000000000000e+03 5.067372798919677734e+00 4.390899658203125000e+00 -2.041629049926996231e-04 -1.512853195890784264e-04 -1.066344702849164605e-04 6.092443436500616372e-05
1.790000000000000000e+03 4.551285934448242188e+01 1.913055801391601562e+01 8.248640298843383789e-01 5.656958580017089844e+00 1.944546818733215332e+00 1.383535027503967285e+00
1.791000000000000000e+03 3.247805356979370117e+00 -5.402122020721435547e+00 -6.575023382902145386e-02 -1.511478573083877563e-01 -6.506942957639694214e-02 -2.276640087366104126e-01
1.792000000000000000e+03 8.596098899841308594e+00 3.699735641479492188e+01 -1.033195527270436287e-03 3.735258360393345356e-04 -1.979009248316287994e-04 -4.989833687432110310e-04
1.793000000000000000e+03 5.340650081634521484e+00 -3.718336868286132812e+01 -4.372111870907247066e-04 3.891926258802413940e-02 1.154461596161127090e-02 2.823563059791922569e-03
1.794000000000000000e+03 4.861199569702148438e+01 -2.790551948547363281e+01 2.930323481559753418e-01 1.133503317832946777e+00 4.279606938362121582e-01 -6.485285162925720215e-01
1.795000000000000000e+03 3.482493972778320312e+01 -1.691831779479980469e+01 -6.083043813705444336e-01 3.711374998092651367e+00 9.309211373329162598e-01 -6.291256546974182129e-01
1.796000000000000000e+03 3.679597091674804688e+01 -1.547359657287597656e+01 2.959017157554626465e-01 6.467604637145996094e+00 2.029051780700683594e+00 9.739425778388977051e-02
1.797000000000000000e+03 5.683137130737304688e+01 2.546839237213134766e+00 -2.947233200073242188e+00 -2.170895934104919434e-01 -9.492968320846557617e-01 2.005681246519088745e-01
1.798000000000000000e+03 1.733215522766113281e+01 5.775582790374755859e+00 -4.228079342283308506e-04 -7.584725244669243693e-05 -1.495965552749112248e-04 -2.190439845435321331e-04
1.799000000000000000e+03 3.384940147399902344e+00 -2.845115661621093750e+01 -2.203882932662963867e-01 9.455547481775283813e-02 -3.774984180927276611e-02 3.275134265422821045e-01
1.800000000000000000e+03 6.895285797119140625e+01 -7.025991439819335938e+00 -5.621247887611389160e-01 8.522462844848632812e-01 8.703645318746566772e-02 1.738795191049575806e-01
1.801000000000000000e+03 2.607295989990234375e+01 -1.584381866455078125e+01 4.347029328346252441e-01 -1.571954637765884399e-01 8.325224369764328003e-02 5.152040719985961914e-01
1.802000000000000000e+03 3.288395690917968750e+01 -1.481812667846679688e+01 9.424949884414672852e-01 1.118947029113769531e+00 6.184325814247131348e-01 3.379408717155456543e-01
1.803000000000000000e+03 3.099820709228515625e+01 -1.479329013824462891e+01 9.251139163970947266e-01 -3.037336282432079315e-02 2.684221565723419189e-01 6.838154196739196777e-01
1.804000000000000000e+03 1.576337242126464844e+01 6.421040534973144531e+00 -2.632555842865258455e-04 -2.421169301669578999e-05 -8.624018664704635739e-05 -1.958393695531412959e-04
1.805000000000000000e+03 1.489184474945068359e+01 5.847935199737548828e+00 6.014818063704296947e-05 -2.982651676575187594e-05 9.096498615690506995e-06 9.721593960421159863e-05
1.806000000000000000e+03 1.259792137145996094e+01 1.448584556579589844e+01 -1.240595738636329770e-04 -1.383239432470872998e-04 -7.871505658840760589e-05 -1.798821031115949154e-04
1.807000000000000000e+03 1.433300399780273438e+01 9.108091354370117188e+00 -5.065589793957769871e-04 -1.599183888174593449e-04 -1.999431988224387169e-04 -5.157372288522310555e-05
1.808000000000000000e+03 4.276387405395507812e+01 8.734973907470703125e+00 2.009927511215209961e+00 8.176603317260742188e+00 3.055959224700927734e+00 3.420442819595336914e+00
1.809000000000000000e+03 4.280461502075195312e+01 3.782624006271362305e+00 -2.361456632614135742e+00 7.451721191406250000e+00 1.527079463005065918e+00 2.331856250762939453e+00
1.810000000000000000e+03 4.413175964355468750e+01 2.520232915878295898e+00 -4.809021472930908203e+00 5.042675018310546875e+00 7.009608298540115356e-02 2.151156425476074219e+00
1.811000000000000000e+03 4.978015518188476562e+01 -2.990456008911132812e+01 7.540741562843322754e-02 1.011325359344482422e+00 3.260198533535003662e-01 -5.417019724845886230e-01
1.812000000000000000e+03 7.883815765380859375e+00 -1.387468051910400391e+01 4.212972223758697510e-01 5.267612934112548828e-01 2.844175398349761963e-01 -1.898707449436187744e-02
1.813000000000000000e+03 4.227617263793945312e+01 -2.323643493652343750e+01 2.564154863357543945e-01 4.914372920989990234e+00 1.551236510276794434e+00 -6.935822963714599609e-01
1.814000000000000000e+03 3.888013839721679688e+01 -9.044922828674316406e+00 1.563443541526794434e+00 1.014817142486572266e+01 3.513484239578247070e+00 9.997498989105224609e-01
1.815000000000000000e+03 3.666740036010742188e+01 -1.169429206848144531e+01 1.578011751174926758e+00 6.353549480438232422e+00 2.379468441009521484e+00 4.371248185634613037e-01
1.816000000000000000e+03 4.593327713012695312e+01 2.643266677856445312e+01 6.065171360969543457e-01 4.732263565063476562e+00 1.601634144783020020e+00 3.259121179580688477e-01
1.817000000000000000e+03 4.444561767578125000e+01 2.655715942382812500e+01 5.561938881874084473e-01 5.048201560974121094e+00 1.681318640708923340e+00 8.607918024063110352e-02
1.818000000000000000e+03 6.873192596435546875e+01 -6.063932418823242188e+00 -7.486596703529357910e-01 1.005123615264892578e+00 7.693916559219360352e-02 7.222035527229309082e-02
1.819000000000000000e+03 6.874842071533203125e+01 -3.975878953933715820e+00 -9.981378912925720215e-01 1.596276998519897461e+00 1.794417053461074829e-01 -3.232274651527404785e-01
1.820000000000000000e+03 5.631712722778320312e+01 3.956793069839477539e+00 -2.198063373565673828e+00 -1.058124229311943054e-01 -6.911627650260925293e-01 -7.422304898500442505e-02
1.821000000000000000e+03 1.214903259277343750e+01 -3.872509384155273438e+01 -1.584669947624206543e-02 -2.321470379829406738e-01 -7.439812272787094116e-02 3.860777616500854492e-02
1.822000000000000000e+03 1.891475677490234375e+01 -3.597898101806640625e+01 -2.351060509681701660e-01 -7.594758272171020508e-02 -9.331608563661575317e-02 1.142293549492023885e-04
1.823000000000000000e+03 1.481395912170410156e+01 -1.353849315643310547e+01 7.716782689094543457e-01 1.326181590557098389e-01 2.712889313697814941e-01 6.543492525815963745e-02
1.824000000000000000e+03 6.518128871917724609e+00 -3.352276611328125000e+01 -1.662867069244384766e-01 -1.231152862310409546e-01 -8.682059496641159058e-02 6.491889059543609619e-02
1.825000000000000000e+03 6.024078845977783203e+00 -3.106513595581054688e+01 -3.342327475547790527e-01 -1.646406501531600952e-01 -1.496620178222656250e-01 1.822966784238815308e-01
1.826000000000000000e+03 4.508249282836914062e+01 1.472139835357666016e+01 1.474654197692871094e+00 6.076031208038330078e+00 2.265205621719360352e+00 2.220927715301513672e+00
1.827000000000000000e+03 3.869465255737304688e+01 -2.042121315002441406e+01 1.244159974157810211e-02 7.545757770538330078e+00 2.267459869384765625e+00 1.101165652275085449e+00
1.828000000000000000e+03 3.840087127685546875e+01 -1.849469375610351562e+01 -5.143586397171020508e-01 8.041195869445800781e+00 2.258051395416259766e+00 8.885335922241210938e-01
1.829000000000000000e+03 3.913966751098632812e+01 -2.234641838073730469e+01 3.812189102172851562e-01 6.839653015136718750e+00 2.166261672973632812e+00 8.446026444435119629e-01
1.830000000000000000e+03 3.784632492065429688e+01 -2.451039695739746094e+01 1.110915184020996094e+00 6.421483993530273438e+00 2.259719848632812500e+00 6.926549077033996582e-01
1.831000000000000000e+03 4.453900527954101562e+01 1.170775413513183594e+01 1.838233351707458496e+00 6.343791007995605469e+00 2.454607248306274414e+00 2.782461166381835938e+00
1.832000000000000000e+03 4.479628753662109375e+01 1.322742748260498047e+01 1.704098343849182129e+00 6.211773872375488281e+00 2.374761819839477539e+00 2.496144056320190430e+00
1.833000000000000000e+03 3.958792877197265625e+01 -4.897713184356689453e+00 7.867508530616760254e-01 1.056075859069824219e+01 3.404252767562866211e+00 1.372704386711120605e+00
1.834000000000000000e+03 4.922737503051757812e+01 4.758893489837646484e+00 -1.829839110374450684e+00 -1.440281271934509277e-01 -5.921601653099060059e-01 6.551959365606307983e-02
1.835000000000000000e+03 4.676980590820312500e+01 4.136453151702880859e+00 -2.052132606506347656e+00 6.281699538230895996e-01 -4.271887540817260742e-01 1.497955322265625000e+00
1.836000000000000000e+03 4.214729309082031250e+01 7.388783931732177734e+00 1.670199394226074219e+00 8.836338996887207031e+00 3.151961565017700195e+00 3.473961114883422852e+00
1.837000000000000000e+03 3.990026473999023438e+01 -3.586523771286010742e+00 1.936245858669281006e-01 1.061820507049560547e+01 3.243548870086669922e+00 1.352726340293884277e+00
1.838000000000000000e+03 3.894950866699218750e+01 -2.214373588562011719e+00 -1.153496384620666504e+00 9.063181877136230469e+00 2.372905492782592773e+00 6.584186553955078125e-01
1.839000000000000000e+03 4.163416671752929688e+01 6.245289802551269531e+00 1.153883695602416992e+00 9.590167045593261719e+00 3.223215103149414062e+00 3.221798419952392578e+00
1.840000000000000000e+03 4.403803253173828125e+01 8.475734710693359375e+00 1.765348076820373535e+00 6.109274387359619141e+00 2.362386703491210938e+00 2.966353654861450195e+00
1.841000000000000000e+03 7.577563476562500000e+01 4.051457595825195312e+01 1.601685397326946259e-02 2.929180622100830078e+00 8.835592269897460938e-01 -3.750584274530410767e-02
1.842000000000000000e+03 1.353875446319580078e+01 3.194857406616210938e+01 1.068747485987842083e-03 -7.899738848209381104e-04 8.363207598449662328e-05 4.765455087181180716e-04
1.843000000000000000e+03 1.334229850769042969e+01 3.079411697387695312e+01 -9.261975646950304508e-04 -6.528154481202363968e-04 -4.737038980238139629e-04 -7.272705552168190479e-04
1.844000000000000000e+03 3.873005676269531250e+01 1.365747451782226562e+00 -2.466208696365356445e+00 8.985209465026855469e+00 1.955700159072875977e+00 7.704666256904602051e-01
1.845000000000000000e+03 3.968375778198242188e+01 2.335059344768524170e-01 -2.958371400833129883e+00 9.774475097656250000e+00 2.044831037521362305e+00 2.840878665447235107e-01
1.846000000000000000e+03 4.038665390014648438e+01 2.873631954193115234e+00 -2.322956323623657227e+00 1.040012264251708984e+01 2.423150062561035156e+00 1.344466924667358398e+00
1.847000000000000000e+03 4.409008026123046875e+01 5.274889469146728516e+00 -6.631565690040588379e-01 5.072789669036865234e+00 1.322889804840087891e+00 2.536552906036376953e+00
1.848000000000000000e+03 4.274096298217773438e+01 6.451562881469726562e+00 9.126650691032409668e-01 7.496666431427001953e+00 2.522799491882324219e+00 2.935596704483032227e+00
1.849000000000000000e+03 3.931531143188476562e+01 -1.577954578399658203e+01 7.785555124282836914e-01 9.283405303955078125e+00 3.018588066101074219e+00 -3.138617873191833496e-01
1.850000000000000000e+03 6.652837371826171875e+01 -3.350547409057617188e+01 -4.840116798877716064e-01 -4.574718475341796875e-01 -2.824450731277465820e-01 -2.829701602458953857e-01
1.851000000000000000e+03 7.187908935546875000e+01 -2.307409095764160156e+01 -3.766258060932159424e-01 2.686577796936035156e+00 6.929855942726135254e-01 -1.898385882377624512e-01
1.852000000000000000e+03 7.050136566162109375e+01 -2.545150947570800781e+01 -7.221466302871704102e-01 7.718198895454406738e-01 1.490198913961648941e-02 -3.827033638954162598e-01
1.853000000000000000e+03 2.992297363281250000e+01 -1.503911399841308594e+01 6.136628985404968262e-01 -2.292900085449218750e-01 1.153118759393692017e-01 9.218992590904235840e-01
1.854000000000000000e+03 3.031310462951660156e+01 -1.150668621063232422e+01 1.776320934295654297e+00 -1.397242862731218338e-02 5.287045240402221680e-01 3.726740181446075439e-01
1.855000000000000000e+03 6.471987152099609375e+01 -3.837173461914062500e+01 9.178699254989624023e-01 -2.794106304645538330e-01 1.915377974510192871e-01 -1.690444648265838623e-01
1.856000000000000000e+03 6.550943756103515625e+01 -3.621176528930664062e+01 4.365018904209136963e-01 -2.759302556514739990e-01 4.817149043083190918e-02 -1.886994689702987671e-01
1.857000000000000000e+03 3.701133728027343750e+01 -4.308466911315917969e-01 -2.295925617218017578e+00 5.610083580017089844e+00 9.942473769187927246e-01 6.183114051818847656e-01
1.858000000000000000e+03 4.120048904418945312e+01 1.386090517044067383e+00 -3.596565246582031250e+00 1.028225612640380859e+01 2.005707263946533203e+00 5.403739213943481445e-01
1.859000000000000000e+03 3.727544021606445312e+01 -3.007977294921875000e+01 3.126840665936470032e-02 5.066152572631835938e+00 1.529226303100585938e+00 1.986144483089447021e-01
1.860000000000000000e+03 7.104511260986328125e+01 -2.869877433776855469e+01 -9.012101888656616211e-01 2.415921926498413086e+00 4.544135332107543945e-01 1.187048330903053284e-01
1.861000000000000000e+03 3.789195632934570312e+01 -3.203608703613281250e+01 -5.527600049972534180e-01 4.404635906219482422e+00 1.155562758445739746e+00 -8.037889003753662109e-02
1.862000000000000000e+03 2.926830863952636719e+01 -5.856194019317626953e+00 3.279465138912200928e-01 -6.972765326499938965e-01 -1.107989996671676636e-01 -6.997510194778442383e-01
1.863000000000000000e+03 5.028137969970703125e+01 5.445661067962646484e+00 -1.412780761718750000e+00 1.148738712072372437e-02 -4.203880131244659424e-01 -4.720160737633705139e-03
1.864000000000000000e+03 3.272194290161132812e+01 -4.170461177825927734e+00 -2.540890276432037354e-01 2.710099220275878906e-01 5.076268222182989120e-03 -3.174426257610321045e-01
1.865000000000000000e+03 3.273685836791992188e+01 -9.354839324951171875e+00 2.035490989685058594e+00 1.398585438728332520e+00 1.030222892761230469e+00 2.604331970214843750e-01
1.866000000000000000e+03 7.250523376464843750e+01 -3.299424362182617188e+01 -1.092881634831428528e-01 4.617108821868896484e+00 1.352346301078796387e+00 6.749426126480102539e-01
1.867000000000000000e+03 3.289833068847656250e+01 -5.591968059539794922e+00 8.009660840034484863e-01 9.290428161621093750e-01 5.190026760101318359e-01 -4.670996591448783875e-02
1.868000000000000000e+03 1.081581878662109375e+01 1.650751876831054688e+01 1.093831728212535381e-03 1.484762469772249460e-04 3.726923896465450525e-04 -3.477970894891768694e-04
1.869000000000000000e+03 4.116435623168945312e+01 -2.227123260498046875e+01 1.474379599094390869e-01 6.145714282989501953e+00 1.887945652008056641e+00 -9.790258854627609253e-02
1.870000000000000000e+03 4.210075378417968750e+01 -2.139181709289550781e+01 8.571825176477432251e-02 5.965012073516845703e+00 1.815219163894653320e+00 -7.537195086479187012e-01
1.871000000000000000e+03 1.880307960510253906e+01 3.493382263183593750e+01 -6.533570704050362110e-04 2.820308145601302385e-04 -1.113978723878972232e-04 7.704127929173409939e-04
1.872000000000000000e+03 4.399365234375000000e+01 2.983079528808593750e+01 5.597771406173706055e-01 4.470615863800048828e+00 1.509117841720581055e+00 -1.584919542074203491e-02
1.873000000000000000e+03 4.449417495727539062e+01 3.421236038208007812e+01 -1.236844509840011597e-01 3.831010580062866211e+00 1.112197756767272949e+00 7.015027105808258057e-02
1.874000000000000000e+03 2.660147857666015625e+01 -3.760179901123046875e+01 -1.603821516036987305e-01 8.569074869155883789e-01 2.089576125144958496e-01 3.090687394142150879e-01
1.875000000000000000e+03 2.968843460083007812e+01 -3.651419067382812500e+01 -3.617023825645446777e-01 1.720372438430786133e+00 4.076010286808013916e-01 6.820445656776428223e-01
1.876000000000000000e+03 6.398134994506835938e+01 -1.302111744880676270e+00 -2.366723060607910156e+00 -5.462005138397216797e-01 -8.738771080970764160e-01 3.165283799171447754e-01
1.877000000000000000e+03 5.843042850494384766e+00 2.444303131103515625e+01 1.106441020965576172e-03 9.570243128109723330e-05 3.606430545914918184e-04 -2.627117501106113195e-04
1.878000000000000000e+03 1.290977859497070312e+01 2.407482528686523438e+01 1.392177422530949116e-03 2.968853514175862074e-04 5.067188176326453686e-04 6.665405235253274441e-04
1.879000000000000000e+03 1.146009349822998047e+01 2.258915901184082031e+01 7.220341358333826065e-04 2.608320501167327166e-04 2.948598703369498253e-04 7.203380846476648003e-06
1.880000000000000000e+03 3.435738754272460938e+01 -4.350170135498046875e+00 8.639720082283020020e-02 1.823550105094909668e+00 5.729842185974121094e-01 2.252295166254043579e-01
1.881000000000000000e+03 5.717258930206298828e+00 -1.183613491058349609e+01 4.733760654926300049e-02 7.442938536405563354e-02 3.653009608387947083e-02 -3.316044807434082031e-01
1.882000000000000000e+03 6.211288928985595703e+00 -1.064372634887695312e+01 1.191173493862152100e-02 1.039777025580406189e-01 3.476683050394058228e-02 -3.382296562194824219e-01
1.883000000000000000e+03 3.969644927978515625e+01 -2.762351989746093750e+01 4.017341136932373047e-01 4.933068752288818359e+00 1.600440859794616699e+00 -3.360660970211029053e-01
1.884000000000000000e+03 1.126608943939208984e+01 -1.300117874145507812e+01 5.358167290687561035e-01 4.383508563041687012e-01 2.922502756118774414e-01 3.957055881619453430e-02
1.885000000000000000e+03 6.527495574951171875e+01 -1.875990152359008789e+00 -1.959312677383422852e+00 -7.374928891658782959e-02 -6.099185943603515625e-01 4.757012426853179932e-02
1.886000000000000000e+03 6.435930633544921875e+01 -4.287263005971908569e-02 -1.891774535179138184e+00 4.508337005972862244e-02 -5.540073513984680176e-01 -3.073109984397888184e-01
1.887000000000000000e+03 4.602259063720703125e+01 2.808419990539550781e+01 6.082912087440490723e-01 4.444181442260742188e+00 1.515741825103759766e+00 2.884613573551177979e-01
1.888000000000000000e+03 6.563490295410156250e+01 -5.534250736236572266e-01 -1.634412288665771484e+00 4.861308932304382324e-01 -3.444844186305999756e-01 -4.551402032375335693e-01
1.889000000000000000e+03 6.959394073486328125e+01 -3.400095367431640625e+01 1.868462748825550079e-02 1.931910753250122070e+00 5.851786136627197266e-01 4.860029518604278564e-01
1.890000000000000000e+03 7.195100402832031250e+01 -3.029373931884765625e+01 -5.669726729393005371e-01 3.787724494934082031e+00 9.662255644798278809e-01 4.871174991130828857e-01
1.891000000000000000e+03 3.463360595703125000e+01 -3.576122283935546875e+01 -8.896725177764892578e-01 3.470121622085571289e+00 7.741347551345825195e-01 4.999282062053680420e-01
1.892000000000000000e+03 3.263037109375000000e+01 -3.328440475463867188e+01 -4.284473955631256104e-01 3.196720123291015625e+00 8.304817676544189453e-01 1.119013428688049316e+00
1.893000000000000000e+03 2.806761741638183594e+01 3.936309051513671875e+01 8.268132805824279785e-03 -6.067903339862823486e-02 -1.572326943278312683e-02 5.934047698974609375e-02
1.894000000000000000e+03 4.178802871704101562e+01 -2.600074768066406250e+01 3.152262568473815918e-01 4.429375648498535156e+00 1.423380494117736816e+00 -6.150832176208496094e-01
1.895000000000000000e+03 3.897768402099609375e+01 -2.515433502197265625e+01 8.172898888587951660e-01 5.962702751159667969e+00 2.033997774124145508e+00 3.453649580478668213e-01
1.896000000000000000e+03 3.209728622436523438e+01 -3.632807159423828125e+01 -6.365793943405151367e-01 2.631932020187377930e+00 5.986057519912719727e-01 7.256797552108764648e-01
1.897000000000000000e+03 7.900027275085449219e+00 -3.322038269042968750e+01 -2.089614123106002808e-01 -2.632361650466918945e-01 -1.416592746973037720e-01 1.054277271032333374e-01
1.898000000000000000e+03 5.261528968811035156e+00 -1.596272945404052734e+01 4.096178114414215088e-01 2.105855941772460938e-01 1.860610246658325195e-01 -2.688582614064216614e-02
1.899000000000000000e+03 8.830376625061035156e+00 -3.487370681762695312e+01 -1.528604030609130859e-01 -2.310704141855239868e-01 -1.151792407035827637e-01 8.698001503944396973e-02
1.900000000000000000e+03 6.305612182617187500e+01 4.651192128658294678e-01 -2.140123367309570312e+00 -2.929933667182922363e-01 -7.299350500106811523e-01 -1.241456568241119385e-01
1.901000000000000000e+03 3.997059249877929688e+01 -1.695897483825683594e+01 6.408877372741699219e-01 9.459458351135253906e+00 3.030103683471679688e+00 -2.228035628795623779e-01
1.902000000000000000e+03 3.766097259521484375e+01 -1.588013362884521484e+01 2.936387658119201660e-01 7.533720016479492188e+00 2.348207712173461914e+00 7.099516689777374268e-02
1.903000000000000000e+03 7.530634307861328125e+01 -1.062693691253662109e+01 -7.798206806182861328e-01 1.077406787872314453e+01 2.998274087905883789e+00 -3.620678901672363281e+00
1.904000000000000000e+03 7.282192230224609375e+01 -1.672632980346679688e+01 6.812872290611267090e-01 2.442547798156738281e+00 9.371504783630371094e-01 7.831304073333740234e-01
1.905000000000000000e+03 7.493215942382812500e+01 -1.606026458740234375e+01 -2.413084059953689575e-01 8.718303680419921875e+00 2.543098688125610352e+00 3.183722257614135742e+00
1.906000000000000000e+03 7.308758544921875000e+01 -1.188167762756347656e+01 6.099789142608642578e-01 1.093844413757324219e+00 5.111470222473144531e-01 -9.322732090950012207e-01
1.907000000000000000e+03 7.342767333984375000e+01 -1.125181961059570312e+01 1.209042310714721680e+00 2.524852275848388672e+00 1.120168328285217285e+00 -2.066050291061401367e+00
1.908000000000000000e+03 7.653805541992187500e+01 -1.602350425720214844e+01 -2.425034046173095703e+00 1.529820632934570312e+01 3.861951828002929688e+00 -9.588041156530380249e-02
1.909000000000000000e+03 7.552452087402343750e+01 -1.578734397888183594e+01 -1.154919028282165527e+00 1.242009449005126953e+01 3.379552602767944336e+00 3.267807722091674805e+00
1.910000000000000000e+03 7.327723693847656250e+01 -1.673214721679687500e+01 6.098469495773315430e-01 3.476066350936889648e+00 1.225773930549621582e+00 1.303618073463439941e+00
1.911000000000000000e+03 7.821091461181640625e+01 -1.032634067535400391e+01 -1.125851392745971680e+00 1.150681972503662109e+01 3.114290475845336914e+00 2.685831546783447266e+00
1.912000000000000000e+03 7.569612121582031250e+01 -1.113609027862548828e+01 -1.177677392959594727e+00 1.369437980651855469e+01 3.755010843276977539e+00 -4.040807247161865234e+00
1.913000000000000000e+03 7.673784637451171875e+01 -1.818775367736816406e+01 -1.594312071800231934e+00 1.118669891357421875e+01 2.877716064453125000e+00 -7.169226408004760742e-01
1.914000000000000000e+03 7.152190399169921875e+01 -1.774722290039062500e+01 3.807938992977142334e-01 1.223781466484069824e+00 4.813726246356964111e-01 2.118822187185287476e-02
1.915000000000000000e+03 7.804336547851562500e+01 -1.611932182312011719e+01 -1.294417500495910645e+00 1.253177261352539062e+01 3.371206760406494141e+00 -3.475888252258300781e+00
1.916000000000000000e+03 7.754368591308593750e+01 -1.545448017120361328e+01 -1.139546275138854980e+00 1.535446357727050781e+01 4.264475345611572266e+00 -3.500300884246826172e+00
1.917000000000000000e+03 7.722402954101562500e+01 -1.026525783538818359e+01 -2.030416011810302734e+00 1.340008640289306641e+01 3.410901308059692383e+00 1.216959953308105469e+00
1.918000000000000000e+03 7.718424224853515625e+01 -1.126247215270996094e+01 -2.067477941513061523e+00 1.598248863220214844e+01 4.174502849578857422e+00 2.044884204864501953e+00
1.919000000000000000e+03 7.234707641601562500e+01 -1.776079940795898438e+01 4.063605964183807373e-01 2.408937692642211914e+00 8.445894718170166016e-01 4.537188112735748291e-01
1.920000000000000000e+03 7.216926574707031250e+01 -1.708800697326660156e+01 5.794405341148376465e-01 1.672364711761474609e+00 6.755415797233581543e-01 3.157169222831726074e-01
1.921000000000000000e+03 9.562101364135742188e+00 -4.997362136840820312e+00 -2.864592671394348145e-01 1.112827584147453308e-01 -5.255295708775520325e-02 -2.008968442678451538e-01
1.922000000000000000e+03 1.029864883422851562e+01 -5.044224739074707031e+00 -2.988357841968536377e-01 1.149752736091613770e-01 -5.515814945101737976e-02 -1.814039200544357300e-01
1.923000000000000000e+03 7.226913452148437500e+01 -1.920679664611816406e+01 7.346579432487487793e-02 2.902910470962524414e+00 8.929128646850585938e-01 1.899002641439437866e-01
1.924000000000000000e+03 7.683500671386718750e+01 -1.040306663513183594e+01 -2.289735555648803711e+00 1.422412395477294922e+01 3.580316543579101562e+00 3.382981121540069580e-01
1.925000000000000000e+03 7.312015533447265625e+01 -1.770468330383300781e+01 2.181373238563537598e-01 3.924227237701416016e+00 1.242709398269653320e+00 8.374202251434326172e-01
1.926000000000000000e+03 1.474175071716308594e+01 2.999207496643066406e+00 -4.423156133270822465e-05 -2.819972905854228884e-05 -2.172938729927409440e-05 -3.562194979167543352e-05
1.927000000000000000e+03 1.603964614868164062e+01 3.380146265029907227e+00 2.751649008132517338e-04 2.933448413386940956e-04 1.705529284663498402e-04 -5.948743273620493710e-05
1.928000000000000000e+03 1.642820167541503906e+01 5.363234043121337891e+00 2.405624109087511897e-04 6.431963265640661120e-05 9.146461525233462453e-05 2.071187918772920966e-04
1.929000000000000000e+03 1.405363655090332031e+01 5.199616432189941406e+00 -1.243522274307906628e-04 7.931420987006276846e-05 -1.351140599581412971e-05 -8.667288057040423155e-05
1.930000000000000000e+03 7.849597930908203125e+01 -1.145132732391357422e+01 -5.855756402015686035e-01 9.683630943298339844e+00 2.729416608810424805e+00 3.441538572311401367e+00
1.931000000000000000e+03 7.619627380371093750e+01 -1.029305553436279297e+01 -2.141919374465942383e+00 1.333222484588623047e+01 3.357091426849365234e+00 -1.409770488739013672e+00
1.932000000000000000e+03 7.101020050048828125e+01 -9.972985267639160156e+00 1.812295019626617432e-01 1.238418936729431152e+00 4.258945286273956299e-01 -5.669562146067619324e-02
1.933000000000000000e+03 6.625433444976806641e+00 4.107233524322509766e+00 -1.982985850190743804e-04 -1.462282380089163780e-04 -1.033580483635887504e-04 -8.361808431800454855e-05
1.934000000000000000e+03 5.355887413024902344e+00 5.220569610595703125e+00 8.007822907529771328e-05 3.557423406164161861e-05 3.469573857728391886e-05 -1.509255671408027411e-04
1.935000000000000000e+03 7.885972595214843750e+01 -1.513051223754882812e+01 3.676413595676422119e-01 7.882693290710449219e+00 2.475100278854370117e+00 -3.448850870132446289e+00
1.936000000000000000e+03 7.791319274902343750e+01 -1.535545444488525391e+01 -3.343988955020904541e-01 1.329673290252685547e+01 3.888700246810913086e+00 -4.021379470825195312e+00
1.937000000000000000e+03 3.815026521682739258e+00 6.749710559844970703e+00 -2.242290065623819828e-04 7.102230301825329661e-05 -4.596201324602589011e-05 -2.723450888879597187e-04
1.938000000000000000e+03 2.828574895858764648e+00 4.599973201751708984e+00 3.957010048907250166e-04 3.996093437308445573e-05 1.306985795963555574e-04 -2.204368211096152663e-04
1.939000000000000000e+03 1.316325378417968750e+01 4.736589431762695312e+00 3.526029468048363924e-04 -3.629767525126226246e-05 9.489158401265740395e-05 5.470443647936917841e-05
1.940000000000000000e+03 1.333088397979736328e+01 -5.392172336578369141e+00 -3.087854981422424316e-01 8.286896347999572754e-02 -6.777495890855789185e-02 -1.019058451056480408e-01
1.941000000000000000e+03 7.394921779632568359e+00 4.122097969055175781e+00 2.501726557966321707e-04 1.120835149777121842e-04 1.086768534150905907e-04 1.101305970223620534e-04
1.942000000000000000e+03 9.028058052062988281e+00 4.186874389648437500e+00 3.592726716306060553e-04 3.747937444131821394e-05 1.190256152767688036e-04 5.089681508252397180e-05
1.943000000000000000e+03 6.797856807708740234e+00 6.247320175170898438e+00 -4.112779279239475727e-04 1.163460474344901741e-04 -8.847956632962450385e-05 -1.898763293866068125e-04
1.944000000000000000e+03 1.103597736358642578e+01 -5.112106800079345703e+00 -3.091106414794921875e-01 1.156661808490753174e-01 -5.803333595395088196e-02 -1.615107953548431396e-01
1.945000000000000000e+03 1.178137397766113281e+01 -5.194577693939208984e+00 -3.120361268520355225e-01 1.079652756452560425e-01 -6.122125312685966492e-02 -1.422273069620132446e-01
1.946000000000000000e+03 1.073398780822753906e+01 4.053937911987304688e+00 3.017767448909580708e-04 1.154389683506451547e-04 1.251647190656512976e-04 -1.591333711985498667e-04
1.947000000000000000e+03 8.114773750305175781e+00 4.947858333587646484e+00 3.635512839537113905e-04 3.520872269291430712e-05 1.196280063595622778e-04 9.991510887630283833e-05
1.948000000000000000e+03 1.165797233581542969e+01 4.579360961914062500e+00 2.092171489493921399e-04 2.185817866120487452e-04 1.283396850340068340e-04 -2.205935306847095490e-04
1.949000000000000000e+03 8.041337966918945312e+00 -4.163645744323730469e+00 -2.724172770977020264e-01 6.338335573673248291e-02 -6.271018087863922119e-02 -2.103925198316574097e-01
1.950000000000000000e+03 6.651888847351074219e+00 -6.525978565216064453e+00 -1.598415076732635498e-01 4.858638718724250793e-02 -3.337653353810310364e-02 -3.038932383060455322e-01
1.951000000000000000e+03 2.079862594604492188e+01 -5.716459751129150391e+00 -2.941365242004394531e-01 -1.249075829982757568e-01 -1.257132291793823242e-01 -1.277024000883102417e-01
1.952000000000000000e+03 1.661291694641113281e+01 -5.709442615509033203e+00 -2.799840271472930908e-01 -2.113730646669864655e-02 -9.033640474081039429e-02 -4.796776548027992249e-02
1.953000000000000000e+03 6.972731018066406250e+01 -9.289855957031250000e+00 -9.745066612958908081e-02 6.734566688537597656e-01 1.728018075227737427e-01 2.899549305438995361e-01
1.954000000000000000e+03 6.971618652343750000e+01 -9.870396614074707031e+00 -1.293231397867202759e-01 4.754198193550109863e-01 1.038290038704872131e-01 4.102401137351989746e-01
1.955000000000000000e+03 1.254363059997558594e+01 -5.288316726684570312e+00 -3.147774934768676758e-01 9.954983741044998169e-02 -6.456829607486724854e-02 -1.218639090657234192e-01
1.956000000000000000e+03 4.351447582244873047e+00 -5.233125209808349609e+00 -1.070637032389640808e-01 -8.387181907892227173e-02 -5.728065595030784607e-02 -2.582620084285736084e-01
1.957000000000000000e+03 4.503850936889648438e+00 -4.113173484802246094e+00 -1.279157400131225586e-01 -5.120797455310821533e-02 -5.373711511492729187e-02 -2.117031961679458618e-01
1.958000000000000000e+03 3.950734376907348633e+00 -6.672395229339599609e+00 -7.808753103017807007e-02 -1.481334716081619263e-01 -6.786630302667617798e-02 -2.905094623565673828e-01
1.959000000000000000e+03 4.533931732177734375e+00 -4.663669586181640625e+00 -1.245873793959617615e-01 -6.329529732465744019e-02 -5.636480450630187988e-02 -2.380701750516891479e-01
1.960000000000000000e+03 5.178200721740722656e+00 -4.784511089324951172e+00 -1.438947767019271851e-01 -3.597836941480636597e-02 -5.396194383502006531e-02 -2.512437105178833008e-01
1.961000000000000000e+03 6.609841346740722656e+00 -4.898025512695312500e+00 -1.983129382133483887e-01 2.802298218011856079e-02 -5.108698830008506775e-02 -2.553544640541076660e-01
1.962000000000000000e+03 6.637704849243164062e+00 -5.696299552917480469e+00 -1.809348464012145996e-01 3.687519580125808716e-02 -4.321789368987083435e-02 -2.855685353279113770e-01
1.963000000000000000e+03 6.952030181884765625e+01 -8.654069900512695312e+00 -1.733449399471282959e-01 7.349435091018676758e-01 1.684795618057250977e-01 2.507984936237335205e-01
1.964000000000000000e+03 1.578431129455566406e+01 -5.675851821899414062e+00 -2.854759097099304199e-01 7.977900095283985138e-03 -8.324940502643585205e-02 -5.469626933336257935e-02
1.965000000000000000e+03 7.346526145935058594e+00 -4.925950527191162109e+00 -2.239731401205062866e-01 5.605366826057434082e-02 -5.037584155797958374e-02 -2.500812113285064697e-01
1.966000000000000000e+03 8.835787773132324219e+00 5.873706817626953125e+00 4.660803824663162231e-04 -4.080947473994456232e-05 1.275812683161348104e-04 7.537690544268116355e-05
1.967000000000000000e+03 1.901144599914550781e+01 -4.979461669921875000e+00 -3.884566426277160645e-01 -8.084733784198760986e-02 -1.407911926507949829e-01 -6.102724745869636536e-02
1.968000000000000000e+03 1.413826465606689453e+01 -5.503767490386962891e+00 -3.045875132083892822e-01 6.285253912210464478e-02 -7.252049446105957031e-02 -8.171801269054412842e-02
1.969000000000000000e+03 1.495802021026611328e+01 -5.607378482818603516e+00 -2.914446890354156494e-01 3.436422720551490784e-02 -7.712414115667343140e-02 -6.575719267129898071e-02
1.970000000000000000e+03 1.911606216430664062e+01 -5.730163097381591797e+00 -2.766673266887664795e-01 -9.427379816770553589e-02 -1.112823411822319031e-01 -6.604494899511337280e-02
1.971000000000000000e+03 7.170529937744140625e+01 -1.002897548675537109e+01 3.945482373237609863e-01 1.741099357604980469e+00 6.406942605972290039e-01 -4.906887114048004150e-01
1.972000000000000000e+03 6.923915863037109375e+01 -7.897233486175537109e+00 -3.299572169780731201e-01 7.485007047653198242e-01 1.255630403757095337e-01 2.592519521713256836e-01
1.973000000000000000e+03 2.243646430969238281e+01 -5.729703903198242188e+00 -3.223622441291809082e-01 -1.640031337738037109e-01 -1.459096074104309082e-01 -2.465192973613739014e-01
1.974000000000000000e+03 1.087387561798095703e+01 4.890848159790039062e+00 -3.236384072806686163e-04 -1.226227905135601759e-04 -1.338783622486516833e-04 2.538669214118272066e-04
1.975000000000000000e+03 1.827725601196289062e+01 -5.732075691223144531e+00 -2.738325595855712891e-01 -7.638129591941833496e-02 -1.050641536712646484e-01 -5.386109650135040283e-02
1.976000000000000000e+03 2.297158622741699219e+01 -1.384138298034667969e+01 6.767302155494689941e-01 -3.144308030605316162e-01 1.086898297071456909e-01 2.119501531124114990e-01
1.977000000000000000e+03 3.203353881835937500e+01 -1.542611503601074219e+01 6.451027393341064453e-01 4.746117591857910156e-01 3.359143435955047607e-01 4.104018807411193848e-01
1.978000000000000000e+03 3.245114135742187500e+01 -1.351340961456298828e+01 1.496560335159301758e+00 1.104340910911560059e+00 7.802703380584716797e-01 3.637457191944122314e-01
1.979000000000000000e+03 2.494224548339843750e+01 -5.084529876708984375e+00 -5.054453611373901367e-01 -2.741495668888092041e-01 -2.338784784078598022e-01 -5.248867273330688477e-01
1.980000000000000000e+03 2.237189865112304688e+01 -4.900955677032470703e+00 -4.964832365512847900e-01 -9.447730332612991333e-02 -1.772881597280502319e-01 -2.176793664693832397e-01
1.981000000000000000e+03 7.190970611572265625e+01 -1.088704988360404968e-01 -4.489768147468566895e-01 4.413704395294189453e+00 1.189418315887451172e+00 -1.306307554244995117e+00
1.982000000000000000e+03 2.162221336364746094e+01 -5.715318202972412109e+00 -3.084339201450347900e-01 -1.442346572875976562e-01 -1.358005702495574951e-01 -1.843856275081634521e-01
1.983000000000000000e+03 2.085411453247070312e+01 -6.493371963500976562e+00 -1.558946818113327026e-01 -1.709095835685729980e-01 -9.804127365350723267e-02 -1.378832459449768066e-01
1.984000000000000000e+03 7.690052795410156250e+01 -7.043639183044433594e+00 -8.368437886238098145e-01 9.722562789916992188e+00 2.665715694427490234e+00 -6.052844598889350891e-02
1.985000000000000000e+03 1.797085571289062500e+01 -1.354966735839843750e+01 6.901822686195373535e-01 -1.224260106682777405e-01 1.703268736600875854e-01 5.940191075205802917e-02
1.986000000000000000e+03 1.645459556579589844e+01 -1.347570991516113281e+01 7.253369092941284180e-01 -1.489607524126768112e-02 2.131322622299194336e-01 6.056478247046470642e-02
1.987000000000000000e+03 7.156373596191406250e+01 -1.962836837768554688e+01 8.720340579748153687e-02 1.888963222503662109e+00 5.928500294685363770e-01 1.973570324480533600e-02
1.988000000000000000e+03 7.368177032470703125e+01 -2.038936042785644531e+01 -3.097378611564636230e-01 5.425729274749755859e+00 1.534797430038452148e+00 9.419698268175125122e-02
1.989000000000000000e+03 2.575102996826171875e+01 -1.436398220062255859e+01 6.766908168792724609e-01 -3.084089159965515137e-01 1.104845628142356873e-01 4.919924437999725342e-01
1.990000000000000000e+03 7.689667510986328125e+01 -1.953944396972656250e+01 -8.262297511100769043e-01 1.047661018371582031e+01 2.895113945007324219e+00 -5.837221741676330566e-01
1.991000000000000000e+03 7.701075744628906250e+01 -1.742563629150390625e+01 -1.927835226058959961e+00 1.244007587432861328e+01 3.153672218322753906e+00 -1.150268673896789551e+00
1.992000000000000000e+03 6.968089294433593750e+01 -5.931236267089843750e+00 -6.201822757720947266e-01 1.837741732597351074e+00 3.652678430080413818e-01 -2.474097162485122681e-01
1.993000000000000000e+03 6.798174285888671875e+01 -7.334026336669921875e+00 -6.112214922904968262e-01 -1.351870596408843994e-01 -2.239225655794143677e-01 5.859228968620300293e-01
1.994000000000000000e+03 6.737980842590332031e+00 -1.360341167449951172e+01 2.506378889083862305e-01 3.440421819686889648e-01 1.784040182828903198e-01 -1.804124116897583008e-01
1.995000000000000000e+03 6.865924835205078125e+01 -5.045104026794433594e+00 -9.098348617553710938e-01 1.285684704780578613e+00 1.127549633383750916e-01 -1.082305088639259338e-01
1.996000000000000000e+03 6.436685085296630859e+00 -1.635473251342773438e+01 5.937142372131347656e-01 6.112568378448486328e-01 3.614913225173950195e-01 1.164355278015136719e-01
1.997000000000000000e+03 4.662490844726562500e+01 5.583229064941406250e+00 -3.391767442226409912e-01 1.620850086212158203e+00 3.845019936561584473e-01 1.554499506950378418e+00
1.998000000000000000e+03 4.804530715942382812e+01 4.345804214477539062e+00 -1.737414479255676270e+00 -2.595131099224090576e-01 -5.990782380104064941e-01 5.810589194297790527e-01
1.999000000000000000e+03 4.530337905883789062e+01 6.934216976165771484e+00 8.297144770622253418e-01 3.803619861602783203e+00 1.390000343322753906e+00 2.298641681671142578e+00
2.000000000000000000e+03 7.034239196777343750e+01 -9.925261497497558594e+00 1.098833605647087097e-02 8.051283359527587891e-01 2.448350042104721069e-01 2.149851918220520020e-01
2.001000000000000000e+03 4.813387680053710938e+01 -2.922121620178222656e+01 1.534761786460876465e-01 1.392606616020202637e+00 4.638248383998870850e-01 -6.960085034370422363e-01
2.002000000000000000e+03 4.545043182373046875e+01 3.991118669509887695e+00 -2.309422254562377930e+00 2.319597721099853516e+00 3.052624408155679703e-03 2.074480533599853516e+00
2.003000000000000000e+03 3.997367477416992188e+01 -2.131661415100097656e+01 4.837163165211677551e-02 7.009860992431640625e+00 2.117469787597656250e+00 6.125790476799011230e-01
2.004000000000000000e+03 4.023199081420898438e+01 -2.298458576202392578e+00 -5.669869184494018555e-01 1.020852279663085938e+01 2.892460823059082031e+00 8.159542083740234375e-01
2.005000000000000000e+03 3.931314086914062500e+01 -9.835036993026733398e-01 -2.028228044509887695e+00 9.200415611267089844e+00 2.151656150817871094e+00 3.914962112903594971e-01
2.006000000000000000e+03 5.929603576660156250e+01 1.899982810020446777e+00 -2.652618408203125000e+00 -4.084334075450897217e-01 -9.183155894279479980e-01 1.109334453940391541e-01
2.007000000000000000e+03 5.571090316772460938e+01 2.921401977539062500e+00 -3.030246734619140625e+00 -4.486957192420959473e-02 -9.225348830223083496e-01 1.426326632499694824e-01
2.008000000000000000e+03 7.608970642089843750e+01 -2.465227317810058594e+01 -3.068053424358367920e-01 8.886506080627441406e+00 2.573909997940063477e+00 2.239792048931121826e-02
2.009000000000000000e+03 1.234396553039550781e+01 -1.300495147705078125e+01 6.386597156524658203e-01 3.642028272151947021e-01 3.008587658405303955e-01 9.974014014005661011e-02
2.010000000000000000e+03 1.322089004516601562e+01 -1.343122005462646484e+01 7.459050416946411133e-01 3.017268478870391846e-01 3.142895698547363281e-01 7.552989572286605835e-02
2.011000000000000000e+03 1.698216056823730469e+01 4.455659389495849609e+00 -2.036295918514952064e-04 -1.646582531975582242e-04 -1.104863476939499378e-04 -2.609873190522193909e-04
2.012000000000000000e+03 1.350995349884033203e+01 1.192995071411132812e+01 -5.006102728657424450e-04 -2.022543339990079403e-04 -2.108593762386590242e-04 -4.347712092567235231e-05
2.013000000000000000e+03 1.308807659149169922e+01 1.322448158264160156e+01 3.574386064428836107e-04 2.083400177070870996e-04 1.697335974313318729e-04 8.533195068594068289e-05
2.014000000000000000e+03 1.734681320190429688e+01 -1.274521541595458984e+01 6.261613368988037109e-01 -7.757879048585891724e-02 1.645747721195220947e-01 7.060222327709197998e-02
2.015000000000000000e+03 7.464250946044921875e+01 3.351711273193359375e+01 7.119063287973403931e-02 3.077055692672729492e+00 9.444739222526550293e-01 -1.313374787569046021e-01
2.016000000000000000e+03 7.221778106689453125e+01 -2.222782516479492188e+01 -3.179452121257781982e-01 3.092024803161621094e+00 8.322238922119140625e-01 -1.211177632212638855e-01
2.017000000000000000e+03 7.157496643066406250e+01 -2.042110633850097656e+01 -1.792219653725624084e-02 1.934297800064086914e+00 5.749126672744750977e-01 -5.895546078681945801e-02
2.018000000000000000e+03 7.450479125976562500e+01 -3.117576980590820312e+01 -1.952850818634033203e-01 6.935327053070068359e+00 2.022012710571289062e+00 6.418312788009643555e-01
2.019000000000000000e+03 7.624336242675781250e+01 -2.187256050109863281e+01 -4.196573793888092041e-01 9.176795005798339844e+00 2.627141237258911133e+00 -2.537808120250701904e-01
2.020000000000000000e+03 7.393199920654296875e+01 -2.340501976013183594e+01 -4.601953327655792236e-01 5.786952972412109375e+00 1.598027348518371582e+00 -8.695442229509353638e-02
2.021000000000000000e+03 4.348297500610351562e+01 -2.951653099060058594e+01 -2.094616182148456573e-02 3.293871879577636719e+00 9.818776845932006836e-01 -8.432319760322570801e-01
2.022000000000000000e+03 4.562517166137695312e+01 -2.690419387817382812e+01 3.282109797000885010e-01 2.331993818283081055e+00 7.980614900588989258e-01 -9.323424696922302246e-01
2.023000000000000000e+03 7.373337554931640625e+01 2.243551826477050781e+01 2.307950109243392944e-01 3.455335617065429688e+00 1.105839252471923828e+00 -6.411439776420593262e-01
2.024000000000000000e+03 7.527680969238281250e+01 2.525691223144531250e+01 1.199411526322364807e-01 3.373707056045532227e+00 1.048094511032104492e+00 -3.965681493282318115e-01
2.025000000000000000e+03 7.529479980468750000e+01 1.950057792663574219e+01 1.545186787843704224e-01 3.846557617187500000e+00 1.200322866439819336e+00 -6.959658265113830566e-01
2.026000000000000000e+03 7.436914825439453125e+01 1.738212466239929199e+00 -1.684775203466415405e-01 5.942863941192626953e+00 1.732316017150878906e+00 -1.319986820220947266e+00
2.027000000000000000e+03 7.425698089599609375e+01 4.573791921138763428e-01 -2.623825669288635254e-01 5.977112293243408203e+00 1.714418888092041016e+00 -1.244262337684631348e+00
2.028000000000000000e+03 7.553485870361328125e+01 1.255774021148681641e+01 1.263152062892913818e-01 4.829327106475830078e+00 1.486692786216735840e+00 -1.051168680191040039e+00
2.029000000000000000e+03 7.410019683837890625e+01 1.523921012878417969e+01 2.272934317588806152e-01 4.100722789764404297e+00 1.298404932022094727e+00 -1.091541767120361328e+00
2.030000000000000000e+03 7.440835571289062500e+01 8.632149696350097656e+00 1.080556809902191162e-01 5.021707057952880859e+00 1.538928866386413574e+00 -1.373878002166748047e+00
2.031000000000000000e+03 7.383534240722656250e+01 2.545876121520996094e+01 1.900582313537597656e-01 3.308138370513916016e+00 1.049458980560302734e+00 -4.627350866794586182e-01
2.032000000000000000e+03 7.538661193847656250e+01 2.662468910217285156e+01 1.025856509804725647e-01 3.298615694046020508e+00 1.020360350608825684e+00 -3.308776021003723145e-01
2.033000000000000000e+03 7.402778625488281250e+01 2.688435554504394531e+01 1.636349856853485107e-01 3.254294395446777344e+00 1.025378823280334473e+00 -3.828329443931579590e-01
2.034000000000000000e+03 7.434145355224609375e+01 1.121494960784912109e+01 1.630119830369949341e-01 4.661528110504150391e+00 1.447361946105957031e+00 -1.294591903686523438e+00
2.035000000000000000e+03 7.394426727294921875e+01 1.801567077636718750e+01 2.441184669733047485e-01 3.799078464508056641e+00 1.212959051132202148e+00 -9.215750694274902344e-01
2.036000000000000000e+03 7.551831054687500000e+01 5.789974212646484375e+00 4.351011011749505997e-03 6.025132656097412109e+00 1.808845162391662598e+00 -1.230716824531555176e+00
2.037000000000000000e+03 7.299178314208984375e+01 4.496454715728759766e+00 -8.585492521524429321e-02 4.840656757354736328e+00 1.426440477371215820e+00 -1.563410520553588867e+00
2.038000000000000000e+03 7.599850463867187500e+01 2.971058845520019531e+01 7.087903469800949097e-02 3.150999069213867188e+00 9.665634036064147949e-01 -1.982055753469467163e-01
2.039000000000000000e+03 7.422965240478515625e+01 7.348426342010498047e+00 5.205531790852546692e-02 5.105089187622070312e+00 1.547143340110778809e+00 -1.441412925720214844e+00
2.040000000000000000e+03 7.065338134765625000e+01 3.518904113769531250e+01 1.399874389171600342e-01 3.134164094924926758e+00 9.822455048561096191e-01 -1.244180649518966675e-01
2.041000000000000000e+03 7.289239501953125000e+01 -3.034293365478515625e+01 -4.444428682327270508e-01 4.815646171569824219e+00 1.311360955238342285e+00 5.992425084114074707e-01
2.042000000000000000e+03 7.134901428222656250e+01 -2.717035102844238281e+01 -8.570167422294616699e-01 2.433616161346435547e+00 4.729798734188079834e-01 -6.607814878225326538e-02
2.043000000000000000e+03 6.686891937255859375e+01 -1.006387591361999512e+00 -1.358162522315979004e+00 1.032264590263366699e+00 -9.776937961578369141e-02 -6.382989883422851562e-01
2.044000000000000000e+03 7.545200347900390625e+01 -3.881925106048583984e+00 -3.432677686214447021e-01 7.430744647979736328e+00 2.126243114471435547e+00 -7.835314869880676270e-01
2.045000000000000000e+03 7.369808959960937500e+01 -3.224703979492187500e+01 -1.699021458625793457e-01 6.021537780761718750e+00 1.755490660667419434e+00 7.473970651626586914e-01
2.046000000000000000e+03 7.222045898437500000e+01 -2.888585853576660156e+01 -6.661432385444641113e-01 3.947913169860839844e+00 9.845309853553771973e-01 3.354669511318206787e-01
2.047000000000000000e+03 7.417436218261718750e+01 1.387975406646728516e+01 2.110710591077804565e-01 4.276581287384033203e+00 1.346295714378356934e+00 -1.170038819313049316e+00
2.048000000000000000e+03 7.377382659912109375e+01 2.093128776550292969e+01 2.422395199537277222e-01 3.550507783889770508e+00 1.137824177742004395e+00 -7.361720800399780273e-01
2.049000000000000000e+03 7.681053924560546875e+01 -5.862679481506347656e+00 -5.128099918365478516e-01 9.145811080932617188e+00 2.589900255203247070e+00 -3.012970685958862305e-01
2.050000000000000000e+03 7.424739074707031250e+01 4.476910114288330078e+00 -5.554884672164916992e-02 5.526321411132812500e+00 1.641231775283813477e+00 -1.426267862319946289e+00
2.051000000000000000e+03 7.204906463623046875e+01 -3.165067481994628906e+01 -2.874411046504974365e-01 4.044993400573730469e+00 1.127265810966491699e+00 6.252998113632202148e-01
2.052000000000000000e+03 4.708170700073242188e+01 2.180788612365722656e+01 8.156820535659790039e-01 4.838579177856445312e+00 1.696278452873229980e+00 9.686045050621032715e-01
2.053000000000000000e+03 4.724872970581054688e+01 2.464116668701171875e+01 7.192084789276123047e-01 4.569482326507568359e+00 1.586607217788696289e+00 6.149634122848510742e-01
2.054000000000000000e+03 1.108558559417724609e+01 2.734261322021484375e+01 1.972321653738617897e-03 -1.425646314601181075e-05 5.874195485375821590e-04 -3.153271391056478024e-04
2.055000000000000000e+03 4.924242973327636719e+00 2.753423500061035156e+01 -1.297103473916649818e-03 4.322538152337074280e-04 -2.594548859633505344e-04 -3.082149196416139603e-04
2.056000000000000000e+03 6.216981410980224609e+00 2.773774528503417969e+01 6.701397360302507877e-04 -4.878318286500871181e-04 5.469237657962366939e-05 7.899231859482824802e-04
2.057000000000000000e+03 1.930690002441406250e+01 -1.237006378173828125e+01 5.962219238281250000e-01 -2.003561854362487793e-01 1.187597215175628662e-01 7.234746962785720825e-02
2.058000000000000000e+03 4.779367446899414062e+01 1.885843086242675781e+01 1.244964838027954102e+00 4.523108005523681641e+00 1.730421900749206543e+00 1.418710708618164062e+00
2.059000000000000000e+03 7.394782257080078125e+01 -6.687690615653991699e-01 -2.903867363929748535e-01 5.874674320220947266e+00 1.675286293029785156e+00 -1.179643869400024414e+00
2.060000000000000000e+03 7.426841735839843750e+01 -2.153234481811523438e+00 -3.451058268547058105e-01 6.285150527954101562e+00 1.782013416290283203e+00 -1.054870724678039551e+00
2.061000000000000000e+03 5.350556850433349609e+00 -9.678980827331542969e+00 -4.452262818813323975e-02 -2.548662386834621429e-02 -2.100277505815029144e-02 -3.642834722995758057e-01
2.062000000000000000e+03 9.264665603637695312e+00 2.384130287170410156e+01 -1.386010670103132725e-03 -3.499373269733041525e-05 -4.263013252057135105e-04 6.096059805713593960e-04
2.063000000000000000e+03 1.119247150421142578e+01 2.381665420532226562e+01 -5.387642522691749036e-05 2.837963111232966185e-04 6.897596904309466481e-05 -1.260031567653641105e-04
2.064000000000000000e+03 2.677282905578613281e+01 -4.223411560058593750e+00 -9.797816276550292969e-01 -4.292313456535339355e-01 -4.227038919925689697e-01 -7.250144481658935547e-01
2.065000000000000000e+03 2.797450256347656250e+01 -5.515064716339111328e+00 -1.633254885673522949e-01 -7.228131890296936035e-01 -2.658416032791137695e-01 -8.057790398597717285e-01
2.066000000000000000e+03 4.690516662597656250e+01 2.040869712829589844e+01 9.158636927604675293e-01 4.942962646484375000e+00 1.757647991180419922e+00 1.192206144332885742e+00
2.067000000000000000e+03 1.190013122558593750e+01 1.569385814666748047e+01 -1.643681025598198175e-04 -2.366231783526018262e-04 -1.202973871841095388e-04 3.555993607733398676e-04
2.068000000000000000e+03 6.566236972808837891e+00 1.515793418884277344e+01 7.608780288137495518e-04 -9.725486052047926933e-06 2.253457641927525401e-04 -2.374767245783004910e-05
2.069000000000000000e+03 4.324401855468750000e+00 2.041194343566894531e+01 9.319136152043938637e-04 -2.797580975766322808e-07 2.794901665765792131e-04 -1.391507248627021909e-05
2.070000000000000000e+03 4.185202598571777344e+00 1.497747135162353516e+01 7.243353757075965405e-04 -1.719010924716712907e-06 2.167849161196500063e-04 6.839959496574010700e-06
2.071000000000000000e+03 7.131890296936035156e+00 2.845832633972167969e+01 8.713696734048426151e-04 4.799512680619955063e-04 4.053962766192853451e-04 -5.290828994475305080e-04
2.072000000000000000e+03 4.829145908355712891e+00 2.607166862487792969e+01 1.350552542135119438e-03 -1.525554689578711987e-04 3.593991277739405632e-04 -1.169233582913875580e-04
2.073000000000000000e+03 6.950839519500732422e+00 -1.233331012725830078e+01 1.666443347930908203e-01 2.994320094585418701e-01 1.398229002952575684e-01 -2.355969846248626709e-01
2.074000000000000000e+03 6.625912189483642578e+00 3.011628532409667969e+01 1.412932993844151497e-03 3.050902705581393093e-05 4.330326046328991652e-04 -9.168974065687507391e-05
2.075000000000000000e+03 7.390372467041015625e+01 -2.461352348327636719e+01 -4.367741346359252930e-01 5.854046821594238281e+00 1.625181794166564941e+00 -2.594337984919548035e-02
2.076000000000000000e+03 5.365433216094970703e+00 1.635246467590332031e+01 8.289179531857371330e-04 -3.128088064840994775e-05 2.392911119386553764e-04 1.165895355370594189e-05
2.077000000000000000e+03 5.358059406280517578e+00 1.372369003295898438e+01 6.650611176155507565e-04 1.390601664752466604e-05 2.036901423707604408e-04 3.811392616626108065e-06
2.078000000000000000e+03 5.572884082794189453e+00 2.169630432128906250e+01 1.006908947601914406e-03 3.947496952605433762e-05 3.139151667710393667e-04 -8.752863504923880100e-05
2.079000000000000000e+03 5.379254817962646484e+00 1.766913414001464844e+01 -8.737387834116816521e-04 3.809221379924565554e-05 -2.506939636077731848e-04 -1.264196544070728123e-05
2.080000000000000000e+03 5.482604503631591797e+00 2.034109878540039062e+01 -9.418847621418535709e-04 -2.455562389513943344e-05 -2.899321261793375015e-04 3.536639997037127614e-05
2.081000000000000000e+03 8.171459197998046875e+00 3.525129318237304688e+01 1.009278930723667145e-03 -1.047770547302206978e-05 2.996403782162815332e-04 -4.940885701216757298e-04
2.082000000000000000e+03 3.570748519897460938e+01 -1.537132263183593750e+01 3.975825309753417969e-01 5.025860786437988281e+00 1.627032995223999023e+00 -1.393885165452957153e-01
2.083000000000000000e+03 4.285665035247802734e+00 9.671338081359863281e+00 4.858662432525306940e-04 1.208610115099872928e-06 1.461224601371213794e-04 6.439044955186545849e-05
2.084000000000000000e+03 5.475341320037841797e+00 9.951696395874023438e+00 -5.554949748329818249e-04 7.081355761329177767e-06 -1.645240990910679102e-04 -3.884083707816898823e-05
2.085000000000000000e+03 5.524499893188476562e+00 -1.324821853637695312e+01 1.715108603239059448e-01 1.211676150560379028e-01 8.780354261398315430e-02 -2.782136201858520508e-01
2.086000000000000000e+03 5.683952808380126953e+00 8.840946197509765625e+00 5.445891874842345715e-04 -5.798682104796171188e-05 1.459807099308818579e-04 5.328527186065912247e-05
2.087000000000000000e+03 7.564928436279296875e+01 -2.038846015930175781e+01 -6.441832780838012695e-01 8.604200363159179688e+00 2.388005018234252930e+00 -1.516018956899642944e-01
2.088000000000000000e+03 4.874492168426513672e+00 -7.003647327423095703e+00 -1.031607165932655334e-01 -8.741937577724456787e-02 -5.717402696609497070e-02 -3.277876675128936768e-01
2.089000000000000000e+03 4.734454631805419922e+00 -7.803043365478515625e+00 -8.332170546054840088e-02 -1.032446697354316711e-01 -5.596991255879402161e-02 -3.342147171497344971e-01
2.090000000000000000e+03 5.790942668914794922e+00 -7.336902141571044922e+00 -1.158598065376281738e-01 1.010825298726558685e-02 -3.172546625137329102e-02 -3.362490236759185791e-01
2.091000000000000000e+03 5.466947174072265625e+01 3.390344858169555664e+00 -2.902383804321289062e+00 2.156337536871433258e-02 -8.642461299896240234e-01 6.047582626342773438e-02
2.092000000000000000e+03 5.375212097167968750e+01 5.617414951324462891e+00 -1.409457564353942871e+00 9.799176454544067383e-02 -3.934397101402282715e-01 -1.740951836109161377e-01
2.093000000000000000e+03 5.455124282836914062e+01 4.989049911499023438e+00 -1.734912633895874023e+00 3.810666874051094055e-02 -5.090417861938476562e-01 -1.940402984619140625e-01
2.094000000000000000e+03 1.300996398925781250e+01 7.780436515808105469e+00 -5.575937102548778057e-04 -2.474650391377508640e-04 -2.415176277281716466e-04 2.296846505487337708e-04
2.095000000000000000e+03 4.069969940185546875e+01 -2.501309776306152344e+01 4.721209704875946045e-01 5.193861007690429688e+00 1.699794530868530273e+00 -1.912175565958023071e-01
2.096000000000000000e+03 4.547560119628906250e+01 1.004669857025146484e+01 1.987683415412902832e+00 4.763628482818603516e+00 2.025393486022949219e+00 2.584744453430175781e+00
2.097000000000000000e+03 4.564928436279296875e+01 1.156649303436279297e+01 1.992650032043457031e+00 5.034722328186035156e+00 2.108211755752563477e+00 2.573109865188598633e+00
2.098000000000000000e+03 6.913303852081298828e+00 -9.765861511230468750e+00 -4.058581963181495667e-02 1.486205160617828369e-01 3.241040930151939392e-02 -3.199922740459442139e-01
2.099000000000000000e+03 6.653611755371093750e+01 -2.317896127700805664e+00 -1.650148153305053711e+00 4.905775785446166992e-01 -3.478711843490600586e-01 -1.675412505865097046e-01
2.100000000000000000e+03 1.309459114074707031e+01 9.017423629760742188e+00 5.815421463921666145e-04 2.104391460306942463e-04 2.375943877268582582e-04 -1.808019296731799841e-04
2.101000000000000000e+03 1.391643619537353516e+01 1.057839965820312500e+01 5.581023870036005974e-04 1.819243479985743761e-04 2.220080205006524920e-04 4.599420935846865177e-05
2.102000000000000000e+03 6.210207366943359375e+01 2.134611606597900391e+00 -1.773814558982849121e+00 -1.238701269030570984e-01 -5.693054199218750000e-01 -4.222353398799896240e-01
2.103000000000000000e+03 6.134007263183593750e+01 -1.859243065118789673e-01 -3.156234025955200195e+00 -6.944484710693359375e-01 -1.155204772949218750e+00 5.515516400337219238e-01
2.104000000000000000e+03 4.529675292968750000e+01 1.620447540283203125e+01 1.291346669197082520e+00 5.919492721557617188e+00 2.163251876831054688e+00 1.950224757194519043e+00
2.105000000000000000e+03 4.661035156250000000e+01 1.606470298767089844e+01 1.523708939552307129e+00 4.921774864196777344e+00 1.933645248413085938e+00 1.906219244003295898e+00
2.106000000000000000e+03 2.578931045532226562e+01 -4.149467945098876953e+00 -9.273212552070617676e-01 -2.656553983688354492e-01 -3.578929901123046875e-01 -5.953296422958374023e-01
2.107000000000000000e+03 4.896992874145507812e+01 2.570868873596191406e+01 8.012222647666931152e-01 4.105644226074218750e+00 1.472059965133666992e+00 6.552650332450866699e-01
2.108000000000000000e+03 3.754776000976562500e+01 -1.035590267181396484e+01 1.620640754699707031e+00 7.590197086334228516e+00 2.763251304626464844e+00 6.286353468894958496e-01
2.109000000000000000e+03 3.640940093994140625e+01 -1.281394672393798828e+01 1.328965306282043457e+00 5.908425807952880859e+00 2.171217441558837891e+00 2.214456498622894287e-01
2.110000000000000000e+03 1.560405158996582031e+01 4.812226295471191406e+00 -2.674239840416703373e-05 -3.091399094046209939e-06 -8.950139090302400291e-06 -1.228444161824882030e-04
2.111000000000000000e+03 4.588746261596679688e+01 1.303700542449951172e+01 1.861392855644226074e+00 5.104800701141357422e+00 2.089858055114746094e+00 2.392776250839233398e+00
2.112000000000000000e+03 3.452246093750000000e+01 -1.560841751098632812e+01 2.283215671777725220e-01 2.885353803634643555e+00 9.341025948524475098e-01 -1.625051498413085938e-01
2.113000000000000000e+03 3.964479827880859375e+01 -1.932070350646972656e+01 -1.678897291421890259e-01 8.051102638244628906e+00 2.364964008331298828e+00 7.114457488059997559e-01
2.114000000000000000e+03 7.295010375976562500e+01 -2.254641342163085938e+01 -4.263896346092224121e-01 4.300980567932128906e+00 1.162377357482910156e+00 -1.423341482877731323e-01
2.115000000000000000e+03 6.093621826171875000e+01 2.391746520996093750e+00 -1.998752355575561523e+00 -2.416696101427078247e-01 -6.721265912055969238e-01 -2.593284845352172852e-01
2.116000000000000000e+03 1.122083759307861328e+01 2.548335838317871094e+01 1.100794877856969833e-03 4.905904061160981655e-04 4.774155677296221256e-04 -6.597395986318588257e-04
2.117000000000000000e+03 7.034667015075683594e+00 2.426929855346679688e+01 -1.107880380004644394e-03 -5.545169187826104462e-05 -3.489996015559881926e-04 7.918413757579401135e-05
2.118000000000000000e+03 5.940029525756835938e+01 3.932904958724975586e+00 -1.630142211914062500e+00 -1.597372889518737793e-01 -5.369638204574584961e-01 -3.669500946998596191e-01
2.119000000000000000e+03 5.724941253662109375e+01 3.574132680892944336e+00 -2.281471967697143555e+00 -1.773750334978103638e-01 -7.376541495323181152e-01 -7.522217184305191040e-02
2.120000000000000000e+03 9.581995010375976562e+00 -5.762222766876220703e+00 -2.453299015760421753e-01 1.319678276777267456e-01 -3.400862589478492737e-02 -2.163475900888442993e-01
2.121000000000000000e+03 4.631779098510742188e+01 1.450682544708251953e+01 1.721068143844604492e+00 4.938983917236328125e+00 1.998015642166137695e+00 2.131311655044555664e+00
2.122000000000000000e+03 5.303760910034179688e+01 6.417583465576171875e+00 -7.325873970985412598e-01 1.535800993442535400e-01 -1.737021803855895996e-01 -1.504860669374465942e-01
2.123000000000000000e+03 1.254844284057617188e+01 3.506938171386718750e+01 -3.292905166745185852e-04 -1.439081039279699326e-03 -5.305114900693297386e-04 3.452361852396279573e-04
2.124000000000000000e+03 9.533227920532226562e+00 3.219056701660156250e+01 -7.585225393995642662e-04 -7.243897416628897190e-04 -4.448737017810344696e-04 4.255829262547194958e-04
2.125000000000000000e+03 2.791583442687988281e+01 -1.273922824859619141e+01 1.183234930038452148e+00 -4.353545010089874268e-01 2.243641167879104614e-01 5.228686332702636719e-01
2.126000000000000000e+03 4.778089141845703125e+01 7.136911869049072266e+00 6.706185340881347656e-01 1.464738845825195312e+00 6.406072378158569336e-01 1.317665815353393555e+00
2.127000000000000000e+03 5.154142761230468750e+01 7.319128513336181641e+00 -1.581376232206821442e-02 3.423777520656585693e-01 9.796919673681259155e-02 1.298312991857528687e-01
2.128000000000000000e+03 4.533822631835937500e+01 8.485569000244140625e+00 1.634205818176269531e+00 4.275547027587890625e+00 1.772925972938537598e+00 2.531966686248779297e+00
2.129000000000000000e+03 6.759675598144531250e+01 -4.125791931152343750e+01 1.206330657005310059e+00 1.161331295967102051e+00 7.102985978126525879e-01 7.769725471735000610e-02
2.130000000000000000e+03 5.545011520385742188e+01 6.029915809631347656e+00 -1.007288098335266113e+00 6.610304862260818481e-02 -2.823555171489715576e-01 -2.947979271411895752e-01
2.131000000000000000e+03 4.536688613891601562e+01 5.432476043701171875e+00 -3.721939027309417725e-01 3.106488227844238281e+00 8.202882409095764160e-01 2.267947673797607422e+00
2.132000000000000000e+03 4.033992767333984375e+01 -2.320709419250488281e+01 4.012160003185272217e-01 5.988633155822753906e+00 1.916954755783081055e+00 2.387695461511611938e-01
2.133000000000000000e+03 1.485341548919677734e+01 3.581215286254882812e+01 -1.176777805085293949e-04 1.501972903497517109e-03 4.152885230723768473e-04 -1.774795353412628174e-03
2.134000000000000000e+03 1.141558647155761719e+01 1.963803863525390625e+01 1.163261826150119305e-03 1.422767963958904147e-04 3.916615678463131189e-04 -9.991718980018049479e-05
2.135000000000000000e+03 6.478810310363769531e+00 1.767101478576660156e+01 8.851725724525749683e-04 -4.409816028783097863e-05 2.523223229218274355e-04 1.009849947877228260e-04
2.136000000000000000e+03 3.961260604858398438e+01 -2.415684318542480469e+01 6.370443105697631836e-01 5.920538425445556641e+00 1.967274785041809082e+00 2.835903167724609375e-01
2.137000000000000000e+03 3.687292098999023438e+01 -5.614274501800537109e+00 9.790647029876708984e-01 6.073501110076904297e+00 2.115769863128662109e+00 8.861657977104187012e-01
2.138000000000000000e+03 1.173763942718505859e+01 1.398316383361816406e+01 2.309927804162725806e-04 8.250039536505937576e-05 9.404795127920806408e-05 -1.489247952122241259e-04
2.139000000000000000e+03 6.773699188232421875e+01 -3.629904937744140625e+01 5.281866192817687988e-01 1.003916740417480469e+00 4.596309959888458252e-01 2.369086742401123047e-01
2.140000000000000000e+03 7.079146575927734375e+01 -3.190141296386718750e+01 -3.943507373332977295e-01 2.715939760208129883e+00 6.964767575263977051e-01 5.101320743560791016e-01
2.141000000000000000e+03 3.908221435546875000e+01 -2.975010681152343750e+01 -3.922069445252418518e-02 4.707778453826904297e+00 1.400567293167114258e+00 -3.225449919700622559e-01
2.142000000000000000e+03 3.736941909790039062e+01 -3.358792066574096680e+00 -5.310509204864501953e-01 6.469896793365478516e+00 1.781653761863708496e+00 7.503268122673034668e-01
2.143000000000000000e+03 3.867693710327148438e+01 -3.454732179641723633e+00 -2.357558906078338623e-01 8.524596214294433594e+00 2.486651897430419922e+00 8.790748119354248047e-01
2.144000000000000000e+03 2.825127220153808594e+01 -8.417224884033203125e+00 1.093697309494018555e+00 -6.145654916763305664e-01 1.437395513057708740e-01 -2.544770240783691406e-01
2.145000000000000000e+03 3.153009796142578125e+01 -5.888700485229492188e+00 8.037054538726806641e-01 -9.518855065107345581e-02 2.125550806522369385e-01 -3.333321511745452881e-01
2.146000000000000000e+03 6.547541618347167969e+00 1.253249931335449219e+01 6.748250452801585197e-04 1.584369601914659142e-05 2.072006172966212034e-04 2.114922381224459969e-06
2.147000000000000000e+03 2.577398300170898438e+01 -1.228936100006103516e+01 9.672876596450805664e-01 -5.004869103431701660e-01 1.400402188301086426e-01 3.237849175930023193e-01
2.148000000000000000e+03 2.166208648681640625e+01 -6.523766994476318359e+00 -1.413064450025558472e-01 -1.999882459640502930e-01 -1.023884117603302002e-01 -1.842689216136932373e-01
2.149000000000000000e+03 3.569389724731445312e+01 -5.007328510284423828e+00 5.947300195693969727e-01 4.073881626129150391e+00 1.400583505630493164e+00 6.114475727081298828e-01
2.150000000000000000e+03 3.043525695800781250e+01 -6.667843341827392578e+00 9.083186984062194824e-01 -4.177766442298889160e-01 1.471626162528991699e-01 -4.117723405361175537e-01
2.151000000000000000e+03 3.324349212646484375e+01 -6.825316905975341797e+00 1.445080995559692383e+00 1.417591571807861328e+00 8.588017225265502930e-01 1.089011058211326599e-01
2.152000000000000000e+03 4.002557373046875000e+01 -3.167997932434082031e+01 -4.018254578113555908e-01 4.165294647216796875e+00 1.129040837287902832e+00 -4.465894401073455811e-01
2.153000000000000000e+03 7.206275177001953125e+01 4.091949462890625000e+01 5.907478183507919312e-02 3.093488454818725586e+00 9.457689523696899414e-01 -2.298565022647380829e-02
2.154000000000000000e+03 3.897303390502929688e+01 -2.630587005615234375e+01 7.282755374908447266e-01 5.568664073944091797e+00 1.889081835746765137e+00 1.134238764643669128e-01
2.155000000000000000e+03 3.809061050415039062e+01 -6.007173538208007812e+00 1.258371472358703613e+00 8.123499870300292969e+00 2.814561367034912109e+00 9.012458920478820801e-01
2.156000000000000000e+03 3.776572418212890625e+01 -7.364123344421386719e+00 1.599403381347656250e+00 7.767673969268798828e+00 2.810123205184936523e+00 1.009660005569458008e+00
2.157000000000000000e+03 4.892426490783691406e+00 -3.490156936645507812e+01 -5.393965542316436768e-02 5.195572972297668457e-02 -5.951785715296864510e-04 1.368076656945049763e-03
2.158000000000000000e+03 8.450706481933593750e+00 1.735732650756835938e+01 4.638651444111019373e-04 4.549150762613862753e-04 2.756340545602142811e-04 -2.640904858708381653e-04
2.159000000000000000e+03 1.147185802459716797e+01 2.113631248474121094e+01 -1.035069930367171764e-03 -1.736470003379508853e-04 -3.626150719355791807e-04 -4.110300778847886249e-06
2.160000000000000000e+03 7.252008819580078125e+01 -2.737661933898925781e+01 -7.100967168807983398e-01 4.183104991912841797e+00 1.041902422904968262e+00 1.424692124128341675e-01
2.161000000000000000e+03 4.795469284057617188e+01 2.939825248718261719e+01 5.351406335830688477e-01 4.074026584625244141e+00 1.382750153541564941e+00 4.626892805099487305e-01
2.162000000000000000e+03 4.753326797485351562e+01 3.316179656982421875e+01 1.092036142945289612e-01 3.904739379882812500e+00 1.204182863235473633e+00 3.540343046188354492e-01
2.163000000000000000e+03 1.270296859741210938e+01 2.967925834655761719e+01 2.165343612432479858e-03 3.048495273105800152e-04 7.410579710267484188e-04 5.459666135720908642e-04
2.164000000000000000e+03 1.024344825744628906e+01 2.620572662353515625e+01 -1.552540576085448265e-03 -8.888111187843605876e-05 -4.924265085719525814e-04 5.657122819684445858e-04
2.165000000000000000e+03 7.366443634033203125e+01 -3.062737846374511719e+01 -3.516637682914733887e-01 5.958381652832031250e+00 1.682015299797058105e+00 6.366965770721435547e-01
2.166000000000000000e+03 6.469738769531250000e+01 1.276953935623168945e+00 -1.420320272445678711e+00 4.834592640399932861e-01 -2.810583114624023438e-01 -7.392400503158569336e-01
2.167000000000000000e+03 6.338848876953125000e+01 1.768604993820190430e+00 -1.611168384552001953e+00 1.188021153211593628e-01 -4.477098882198333740e-01 -5.949137210845947266e-01
2.168000000000000000e+03 7.324724578857421875e+01 -3.437963104248046875e+01 6.052862852811813354e-02 5.460433006286621094e+00 1.656288504600524902e+00 7.775088548660278320e-01
2.169000000000000000e+03 1.533172225952148438e+01 3.832959747314453125e+01 1.461391220800578594e-04 -2.342556836083531380e-03 -6.589253316633403301e-04 -4.516092012636363506e-04
2.170000000000000000e+03 1.199693584442138672e+01 2.458793640136718750e+01 -2.811708254739642143e-04 -8.289051475003361702e-04 -3.330227918922901154e-04 8.789780986262485385e-05
2.171000000000000000e+03 1.026545238494873047e+01 2.249541091918945312e+01 -9.780954569578170776e-04 -1.325365592492744327e-04 -3.331895859446376562e-04 4.965437692590057850e-04
2.172000000000000000e+03 4.503668594360351562e+01 3.774409484863281250e+01 -3.879805207252502441e-01 3.458829164505004883e+00 9.212545752525329590e-01 9.261615574359893799e-03
2.173000000000000000e+03 1.461831378936767578e+01 -3.752402877807617188e+01 -1.001898050308227539e-01 -2.018950283527374268e-01 -9.062545001506805420e-02 2.793243899941444397e-02
2.174000000000000000e+03 2.164033699035644531e+01 -4.104408645629882812e+01 -1.905733905732631683e-02 2.152830660343170166e-01 5.886771902441978455e-02 1.993140764534473419e-02
2.175000000000000000e+03 4.659973144531250000e+01 3.528838348388671875e+01 -1.710317283868789673e-01 3.801417827606201172e+00 1.089115858078002930e+00 2.333375960588455200e-01
2.176000000000000000e+03 4.307138442993164062e+01 -2.699774551391601562e+01 2.612807154655456543e-01 3.604364395141601562e+00 1.159693598747253418e+00 -8.347838521003723145e-01
2.177000000000000000e+03 5.323505783081054688e+01 -3.839481735229492188e+01 -1.295797824859619141e-01 6.098157167434692383e-01 1.440707743167877197e-01 -3.924291431903839111e-01
2.178000000000000000e+03 6.242997741699218750e+01 -3.711248397827148438e+01 4.115388691425323486e-01 -8.751410245895385742e-01 -1.390806585550308228e-01 -5.563653111457824707e-01
2.179000000000000000e+03 2.815415954589843750e+01 -4.113411712646484375e+01 -3.266127109527587891e-01 1.345289707183837891e+00 3.056030869483947754e-01 1.253191530704498291e-01
2.180000000000000000e+03 3.255936050415039062e+01 -4.126574325561523438e+01 -8.325991034507751465e-01 2.635238409042358398e+00 5.407918095588684082e-01 1.181509494781494141e-01
2.181000000000000000e+03 7.415872955322265625e+01 -1.071716308593750000e+01 8.096722364425659180e-01 5.609799861907958984e+00 1.925841689109802246e+00 -3.298844575881958008e+00
2.182000000000000000e+03 7.542314910888671875e+01 -1.004731559753417969e+01 -1.270930290222167969e+00 1.058545875549316406e+01 2.794358491897583008e+00 -2.550419807434082031e+00
2.183000000000000000e+03 7.352964019775390625e+01 -1.606408882141113281e+01 8.787552714347839355e-01 3.144551277160644531e+00 1.206992030143737793e+00 1.652763128280639648e+00
2.184000000000000000e+03 7.280208587646484375e+01 -1.708845520019531250e+01 5.812624096870422363e-01 2.715403556823730469e+00 9.889997839927673340e-01 7.706307172775268555e-01
2.185000000000000000e+03 7.411672973632812500e+01 -1.596870708465576172e+01 7.695823907852172852e-01 4.843794822692871094e+00 1.684013247489929199e+00 2.527628183364868164e+00
2.186000000000000000e+03 7.401535034179687500e+01 -1.788622474670410156e+01 -1.798759251832962036e-01 5.837296485900878906e+00 1.697226166725158691e+00 1.086435079574584961e+00
2.187000000000000000e+03 7.453975677490234375e+01 -1.607754707336425781e+01 2.702186405658721924e-01 6.799881935119628906e+00 2.121030092239379883e+00 2.922517776489257812e+00
2.188000000000000000e+03 7.565154266357421875e+01 -1.613648223876953125e+01 -1.478855013847351074e+00 1.237262821197509766e+01 3.268131971359252930e+00 2.430901288986206055e+00
2.189000000000000000e+03 7.495523071289062500e+01 -1.045493412017822266e+01 -3.536598384380340576e-01 9.045365333557128906e+00 2.607511520385742188e+00 -3.556813001632690430e+00
2.190000000000000000e+03 7.602291107177734375e+01 -1.111535453796386719e+01 -1.773292779922485352e+00 1.524571228027343750e+01 4.041726112365722656e+00 -2.872434139251708984e+00
2.191000000000000000e+03 7.568460845947265625e+01 -1.067463588714599609e+01 -1.441199898719787598e+00 1.272235965728759766e+01 3.384348154067993164e+00 -3.239755630493164062e+00
2.192000000000000000e+03 7.641123199462890625e+01 -8.453732490539550781e+00 -1.540729641914367676e+00 1.047563266754150391e+01 2.680470943450927734e+00 -3.344255685806274414e-01
2.193000000000000000e+03 7.276734161376953125e+01 -1.098280334472656250e+01 7.975020408630371094e-01 2.051958560943603516e+00 8.548381924629211426e-01 -1.170486092567443848e+00
2.194000000000000000e+03 7.595494079589843750e+01 -1.612814712524414062e+01 -1.920053720474243164e+00 1.361889076232910156e+01 3.509650945663452148e+00 1.757429718971252441e+00
2.195000000000000000e+03 7.602950286865234375e+01 -1.070096111297607422e+01 -1.926126718521118164e+00 1.390726184844970703e+01 3.594340562820434570e+00 -2.385942935943603516e+00
2.196000000000000000e+03 7.701071166992187500e+01 -1.631550788879394531e+01 -2.394100189208984375e+00 1.456978225708007812e+01 3.652704477310180664e+00 -1.591179728507995605e+00
2.197000000000000000e+03 1.030961704254150391e+01 -5.803495407104492188e+00 -2.551891207695007324e-01 1.405018419027328491e-01 -3.440618142485618591e-02 -1.930740773677825928e-01
2.198000000000000000e+03 1.104031467437744141e+01 -5.874866962432861328e+00 -2.560170292854309082e-01 1.363375633955001831e-01 -3.590383753180503845e-02 -1.698190718889236450e-01
2.199000000000000000e+03 7.677748870849609375e+01 -7.967328548431396484e+00 -1.183719277381896973e+00 1.016490173339843750e+01 2.694354534149169922e+00 4.644069820642471313e-02
2.200000000000000000e+03 7.523658752441406250e+01 -1.846299743652343750e+01 -1.010762691497802734e+00 8.756283760070800781e+00 2.323656320571899414e+00 4.781060218811035156e-01
2.201000000000000000e+03 7.263446044921875000e+01 -9.678672790527343750e+00 4.850413203239440918e-01 3.185935497283935547e+00 1.101293087005615234e+00 -1.348505377769470215e+00
2.202000000000000000e+03 7.278886413574218750e+01 -2.188836479187011719e+01 -2.670933306217193604e-01 4.038315296173095703e+00 1.131366610527038574e+00 -8.919603377580642700e-02
2.203000000000000000e+03 7.318028259277343750e+01 -2.104803466796875000e+01 -2.709636688232421875e-01 4.640009880065917969e+00 1.310713887214660645e+00 4.238247126340866089e-02
2.204000000000000000e+03 6.024239540100097656e+00 4.845400810241699219e+00 -1.434914447600021958e-04 -7.775479025440290570e-05 -6.637386832153424621e-05 2.995490467583294958e-05
2.205000000000000000e+03 6.398710727691650391e+00 7.010101795196533203e+00 4.768116050399839878e-04 -1.513854367658495903e-04 9.762784611666575074e-05 1.602687116246670485e-04
2.206000000000000000e+03 1.178055763244628906e+01 -5.955413341522216797e+00 -2.558858990669250488e-01 1.309039145708084106e-01 -3.749459609389305115e-02 -1.484325677156448364e-01
2.207000000000000000e+03 7.597226715087890625e+01 -5.923115730285644531e+00 -6.058012843132019043e-01 8.432588577270507812e+00 2.348036289215087891e+00 -5.722206234931945801e-01
2.208000000000000000e+03 7.611837005615234375e+01 -7.846145153045654297e+00 -1.058172225952148438e+00 9.415579795837402344e+00 2.507222414016723633e+00 -5.728101134300231934e-01
2.209000000000000000e+03 7.726963806152343750e+01 -1.082189273834228516e+01 -1.960060596466064453e+00 1.475671768188476562e+01 3.838997125625610352e+00 1.857025980949401855e+00
2.210000000000000000e+03 6.631504535675048828e+00 4.742199420928955078e+00 2.466687001287937164e-04 1.102583337342366576e-04 1.070781072485260665e-04 1.489846035838127136e-04
2.211000000000000000e+03 6.443497657775878906e+00 5.283998012542724609e+00 -2.173764514736831188e-04 1.088843600882682949e-05 -6.194640445755794644e-05 -2.271057310281321406e-04
2.212000000000000000e+03 8.985734939575195312e+00 5.024428367614746094e+00 -4.170600150246173143e-04 -2.701505945879034698e-05 -1.332225219812244177e-04 -6.704370753141120076e-05
2.213000000000000000e+03 7.127200126647949219e+00 5.542888641357421875e+00 3.637986374087631702e-04 -3.146231756545603275e-05 9.970089740818366408e-05 1.755394478095695376e-04
2.214000000000000000e+03 1.263211345672607422e+01 5.566407203674316406e+00 -1.872374414233490825e-04 1.628647441975772381e-04 -7.311810804822016507e-06 -3.302892437204718590e-04
2.215000000000000000e+03 1.234931087493896484e+01 4.527086734771728516e+00 -2.790874277707189322e-04 -1.013710716506466269e-04 -1.141375541919842362e-04 3.145961454720236361e-05
2.216000000000000000e+03 1.253852176666259766e+01 -6.038582324981689453e+00 -2.491208165884017944e-01 1.196399182081222534e-01 -3.884426876902580261e-02 -1.266129314899444580e-01
2.217000000000000000e+03 1.332798004150390625e+01 -6.147964954376220703e+00 -2.405822277069091797e-01 1.052822619676589966e-01 -4.058998823165893555e-02 -1.023480221629142761e-01
2.218000000000000000e+03 7.294533538818359375e+01 -1.021141433715820312e+01 6.923814415931701660e-01 3.155820846557617188e+00 1.154460668563842773e+00 -1.603006720542907715e+00
2.219000000000000000e+03 7.032973480224609375e+01 -8.465256690979003906e+00 -6.364521384239196777e-02 1.459876179695129395e+00 4.188693165779113770e-01 -8.762410283088684082e-02
2.220000000000000000e+03 5.005868911743164062e+00 -6.221482276916503906e+00 -1.156484708189964294e-01 -5.748088285326957703e-02 -5.193880572915077209e-02 -3.044834136962890625e-01
2.221000000000000000e+03 8.825506210327148438e+00 -4.968085289001464844e+00 -2.677668333053588867e-01 9.818176180124282837e-02 -5.087552219629287720e-02 -2.199464291334152222e-01
2.222000000000000000e+03 8.952736854553222656e+00 -7.357688903808593750e+00 -1.572209894657135010e-01 1.683063060045242310e-01 3.325592959299683571e-03 -2.512694001197814941e-01
2.223000000000000000e+03 5.883018493652343750e+00 -4.853948593139648438e+00 -1.744638532400131226e-01 -3.225331194698810577e-03 -5.330675467848777771e-02 -2.595525681972503662e-01
2.224000000000000000e+03 1.719914627075195312e+01 -9.513910293579101562e+00 2.281292527914047241e-01 -5.353455245494842529e-02 5.237840861082077026e-02 1.461204327642917633e-02
2.225000000000000000e+03 1.500616645812988281e+01 -7.315388679504394531e+00 -9.545012563467025757e-02 6.602712720632553101e-02 -8.826899342238903046e-03 -4.817458242177963257e-02
2.226000000000000000e+03 7.942973136901855469e+00 5.731743812561035156e+00 -4.283538437448441982e-04 3.989720426034182310e-05 -1.165369903901591897e-04 -1.166157380794174969e-04
2.227000000000000000e+03 1.755821990966796875e+01 -6.512729644775390625e+00 -1.661863625049591064e-01 -5.902763456106185913e-02 -6.756420433521270752e-02 -4.415753483772277832e-02
2.228000000000000000e+03 1.744298553466796875e+01 -5.725958347320556641e+00 -2.748750448226928711e-01 -4.715199023485183716e-02 -9.660811722278594971e-02 -4.461074620485305786e-02
2.229000000000000000e+03 2.003435134887695312e+01 -6.484469413757324219e+00 -1.591450124979019165e-01 -1.407722681760787964e-01 -8.997518569231033325e-02 -9.571686387062072754e-02
2.230000000000000000e+03 1.995953178405761719e+01 -5.724003791809082031e+00 -2.844098210334777832e-01 -1.140160188078880310e-01 -1.195277497172355652e-01 -9.382322430610656738e-02
2.231000000000000000e+03 1.130620670318603516e+01 5.620613098144531250e+00 2.474177745170891285e-05 1.114590340876020491e-04 4.086024273419752717e-05 -4.569806624203920364e-04
2.232000000000000000e+03 7.382832050323486328e+00 -5.720647335052490234e+00 -2.024866342544555664e-01 7.307112216949462891e-02 -3.882465511560440063e-02 -2.717909514904022217e-01
2.233000000000000000e+03 8.087124824523925781e+00 -4.946403980255126953e+00 -2.478785216808319092e-01 8.098842203617095947e-02 -5.006702989339828491e-02 -2.354237586259841919e-01
2.234000000000000000e+03 7.677680969238281250e+01 -9.021948814392089844e+00 -1.772081732749938965e+00 1.139174938201904297e+01 2.885900259017944336e+00 3.420877456665039062e-02
2.235000000000000000e+03 7.037899780273437500e+01 -5.514360904693603516e+00 -5.758472084999084473e-01 2.577981948852539062e+00 6.006404161453247070e-01 -4.833669960498809814e-01
2.236000000000000000e+03 1.415205287933349609e+01 -6.294819831848144531e+00 -2.170838564634323120e-01 8.033206313848495483e-02 -4.102553799748420715e-02 -7.949470728635787964e-02
2.237000000000000000e+03 1.500697040557861328e+01 -6.442412853240966797e+00 -2.005053907632827759e-01 4.702276363968849182e-02 -4.604478925466537476e-02 -6.216135993599891663e-02
2.238000000000000000e+03 2.059582328796386719e+01 -1.258384799957275391e+01 6.291455626487731934e-01 -2.755591273307800293e-01 1.060759350657463074e-01 8.555772155523300171e-02
2.239000000000000000e+03 7.104096984863281250e+01 -9.274663925170898438e+00 1.701313257217407227e-01 1.582385659217834473e+00 5.257551074028015137e-01 -2.514406442642211914e-01
2.240000000000000000e+03 1.920898246765136719e+01 -6.487102985382080078e+00 -1.626340448856353760e-01 -1.182382628321647644e-01 -8.426169306039810181e-02 -7.194110751152038574e-02
2.241000000000000000e+03 1.067613887786865234e+01 6.309182643890380859e+00 2.968421322293579578e-04 -7.271059439517557621e-05 6.723945989506319165e-05 3.230969014111906290e-04
2.242000000000000000e+03 1.244547939300537109e+01 1.167969417572021484e+01 5.366592667996883392e-04 1.574672933202236891e-04 2.082379651255905628e-04 -1.717127743177115917e-04
2.243000000000000000e+03 8.070467948913574219e+00 -1.266737365722656250e+01 2.637858092784881592e-01 4.055828154087066650e-01 2.008105814456939697e-01 -1.624530851840972900e-01
2.244000000000000000e+03 9.134139060974121094e+00 -1.286948585510253906e+01 3.545278906822204590e-01 4.981396794319152832e-01 2.558002769947052002e-01 -4.992535710334777832e-02
2.245000000000000000e+03 7.207799530029296875e+01 -1.812380218505859375e+01 3.516537845134735107e-01 2.211692333221435547e+00 7.690038681030273438e-01 2.996864318847656250e-01
2.246000000000000000e+03 7.165425872802734375e+01 -1.901303291320800781e+01 1.896286904811859131e-01 1.860404253005981445e+00 6.150098443031311035e-01 7.306096702814102173e-02
2.247000000000000000e+03 7.299514770507812500e+01 -8.293199539184570312e+00 -5.499059334397315979e-02 4.624988079071044922e+00 1.370999336242675781e+00 -1.373080849647521973e+00
2.248000000000000000e+03 7.381172943115234375e+01 -2.596190834045410156e+01 -5.527173280715942383e-01 5.799665927886962891e+00 1.574084639549255371e+00 8.324109017848968506e-02
2.249000000000000000e+03 7.156852722167968750e+01 -2.568761634826660156e+01 -6.926635503768920898e-01 2.534951925277709961e+00 5.526865124702453613e-01 -1.921509802341461182e-01
2.250000000000000000e+03 7.777675628662109375e+01 -1.758935737609863281e+01 -1.381620407104492188e+00 1.190573215484619141e+01 3.157233476638793945e+00 -1.959616065025329590e+00
2.251000000000000000e+03 6.597783660888671875e+01 7.552923560142517090e-01 -1.248445153236389160e+00 9.391002655029296875e-01 -9.280348569154739380e-02 -8.876307606697082520e-01
2.252000000000000000e+03 1.244890117645263672e+01 -1.121353054046630859e+01 3.062945902347564697e-01 2.984247803688049316e-01 1.814158111810684204e-01 1.273688685614615679e-04
2.253000000000000000e+03 1.031171894073486328e+01 -1.193397521972656250e+01 2.820349335670471191e-01 4.329926073551177979e-01 2.145082652568817139e-01 -5.614723265171051025e-02
2.254000000000000000e+03 7.674611568450927734e+00 6.521498203277587891e+00 4.835746076423674822e-04 -1.111969686462543905e-04 1.117132924264296889e-04 1.172791162389330566e-04
2.255000000000000000e+03 1.043337917327880859e+01 -1.096133995056152344e+01 1.860215514898300171e-01 3.630819320678710938e-01 1.647310405969619751e-01 -1.063952967524528503e-01
2.256000000000000000e+03 2.009626388549804688e+01 -7.978227138519287109e+00 8.472729474306106567e-02 -2.032831013202667236e-01 -3.556674346327781677e-02 -7.935795187950134277e-02
2.257000000000000000e+03 1.912306022644042969e+01 -1.344741916656494141e+01 6.674924492835998535e-01 -1.831780970096588135e-01 1.452943086624145508e-01 6.988938152790069580e-02
2.258000000000000000e+03 1.685831260681152344e+01 -7.349406719207763672e+00 -6.108913570642471313e-02 -2.997485361993312836e-02 -2.731919661164283752e-02 -3.196191415190696716e-02
2.259000000000000000e+03 7.617219543457031250e+01 -1.992174339294433594e+01 -7.160120606422424316e-01 9.513307571411132812e+00 2.639188528060913086e+00 -2.955996990203857422e-01
2.260000000000000000e+03 7.571028900146484375e+01 -1.739429855346679688e+01 -1.593574881553649902e+00 1.072830867767333984e+01 2.740420103073120117e+00 7.870540022850036621e-01
2.261000000000000000e+03 3.743835067749023438e+01 -1.757524490356445312e+01 -4.333431720733642578e-01 7.178003311157226562e+00 2.023398160934448242e+00 4.003588259220123291e-01
2.262000000000000000e+03 7.580032348632812500e+01 -4.876538276672363281e+00 -4.447000324726104736e-01 7.991239547729492188e+00 2.263961791992187500e+00 -6.511557102203369141e-01
2.263000000000000000e+03 2.404091072082519531e+01 -5.851786613464355469e+00 -2.746651172637939453e-01 -2.762641906738281250e-01 -1.652787923812866211e-01 -4.067399799823760986e-01
2.264000000000000000e+03 2.323713302612304688e+01 -5.765864849090576172e+00 -3.222615718841552734e-01 -2.121916413307189941e-01 -1.603359580039978027e-01 -3.302789032459259033e-01
2.265000000000000000e+03 7.514783477783203125e+01 -2.086364173889160156e+01 -5.034723877906799316e-01 7.858639717102050781e+00 2.206550121307373047e+00 -7.285106182098388672e-02
2.266000000000000000e+03 6.061959457397460938e+01 4.508312702178955078e+00 -1.138596415519714355e+00 4.881312698125839233e-02 -3.269349634647369385e-01 -6.815130710601806641e-01
2.267000000000000000e+03 6.990029907226562500e+01 -6.788476467132568359e+00 -4.482574462890625000e-01 1.752363085746765137e+00 3.912316858768463135e-01 -1.785636395215988159e-01
2.268000000000000000e+03 7.280382537841796875e+01 -2.452214622497558594e+01 -5.493742823600769043e-01 4.237058639526367188e+00 1.106305360794067383e+00 -1.014602482318878174e-01
2.269000000000000000e+03 2.040662002563476562e+01 -1.360350418090820312e+01 6.702593564987182617e-01 -2.444140911102294922e-01 1.277535706758499146e-01 9.454210847616195679e-02
2.270000000000000000e+03 5.456332206726074219e+00 6.538500785827636719e+00 -3.065743949264287949e-04 1.038448972394689918e-04 -6.081885294406674802e-05 -2.172547538066282868e-04
2.271000000000000000e+03 4.927611827850341797e+00 7.396264553070068359e+00 4.251031205058097839e-04 -1.194457654491998255e-04 9.169721306534484029e-05 1.565502607263624668e-04
2.272000000000000000e+03 4.145840835571289062e+01 -2.412155532836914062e+01 3.207357823848724365e-01 5.130679607391357422e+00 1.635424613952636719e+00 -3.789703547954559326e-01
2.273000000000000000e+03 9.096282005310058594e+00 2.685536193847656250e+01 1.681761699728667736e-03 4.818920569960027933e-05 5.189852672629058361e-04 -5.200179875828325748e-04
2.274000000000000000e+03 2.487351799011230469e+01 -6.051774978637695312e+00 -1.846682727336883545e-01 -3.818852603435516357e-01 -1.699660569429397583e-01 -5.011759400367736816e-01
2.275000000000000000e+03 5.465015792846679688e+01 6.562559604644775391e+00 -6.561558246612548828e-01 1.309980154037475586e-01 -1.575473546981811523e-01 -2.716326117515563965e-01
2.276000000000000000e+03 5.540179824829101562e+01 4.427270889282226562e+00 -2.006537437438964844e+00 9.497791528701782227e-03 -5.991119146347045898e-01 -1.308692991733551025e-01
2.277000000000000000e+03 1.562993335723876953e+01 -1.133411502838134766e+01 4.286585152149200439e-01 6.419683992862701416e-02 1.478566080331802368e-01 6.162376701831817627e-02
2.278000000000000000e+03 5.222180557250976562e+01 3.078345108032226562e+01 4.916329979896545410e-01 3.591059923171997070e+00 1.224807858467102051e+00 4.804641008377075195e-01
2.279000000000000000e+03 4.796132659912109375e+01 3.119821357727050781e+01 3.354529142379760742e-01 3.988098382949829102e+00 1.297065377235412598e+00 4.307801425457000732e-01
2.280000000000000000e+03 1.484590816497802734e+01 -1.199060821533203125e+01 5.074273347854614258e-01 1.369357705116271973e-01 1.933089345693588257e-01 6.974161416292190552e-02
2.281000000000000000e+03 1.133150291442871094e+01 -1.201020431518554688e+01 3.996934294700622559e-01 3.913698494434356689e-01 2.373189777135848999e-01 5.260247737169265747e-03
2.282000000000000000e+03 4.413223266601562500e+01 3.876830101013183594e+00 -2.280282258987426758e+00 4.746775150299072266e+00 7.399479150772094727e-01 2.585266351699829102e+00
2.283000000000000000e+03 7.305399322509765625e+01 -3.129505348205566406e+01 -3.016261756420135498e-01 5.147759914398193359e+00 1.453840136528015137e+00 6.569320559501647949e-01
2.284000000000000000e+03 7.014855194091796875e+01 -7.650923252105712891e+00 -2.356896251440048218e-01 1.665616631507873535e+00 4.289780855178833008e-01 -1.610798090696334839e-01
2.285000000000000000e+03 6.776014709472656250e+01 -2.616809844970703125e+00 -1.299691081047058105e+00 1.186747193336486816e+00 -3.388315439224243164e-02 -4.118858873844146729e-01
2.286000000000000000e+03 6.805583190917968750e+01 -1.382321119308471680e+00 -1.140228152275085449e+00 1.673896670341491699e+00 1.601005345582962036e-01 -7.894179224967956543e-01
2.287000000000000000e+03 1.321427631378173828e+01 3.334974288940429688e+01 9.247162961401045322e-04 6.624116213060915470e-04 4.761383752338588238e-04 -8.093635551631450653e-04
2.288000000000000000e+03 7.236971855163574219e+00 3.155903053283691406e+01 -1.219976693391799927e-03 -1.192659401567652822e-04 -4.017727915197610855e-04 1.081031496141804382e-05
2.289000000000000000e+03 7.503006744384765625e+01 -2.326038551330566406e+01 -3.922649919986724854e-01 7.434070110321044922e+00 2.112541437149047852e+00 -9.531068056821823120e-02
2.290000000000000000e+03 8.890213966369628906e+00 2.886071395874023438e+01 1.208735862746834755e-03 5.488916649483144283e-04 5.272882408462464809e-04 -5.532881477847695351e-04
2.291000000000000000e+03 4.780466079711914062e+01 5.747735500335693359e+00 -4.890238642692565918e-01 8.018116950988769531e-01 9.383635222911834717e-02 1.083957314491271973e+00
2.292000000000000000e+03 7.267938995361328125e+01 -2.586875152587890625e+01 -6.088605523109436035e-01 4.188670158386230469e+00 1.073942899703979492e+00 -1.254702080041170120e-02
2.293000000000000000e+03 7.098621368408203125e+01 1.777499961853027344e+01 4.678697288036346436e-01 3.292371034622192383e+00 1.128072261810302734e+00 -1.111518383026123047e+00
2.294000000000000000e+03 7.270603942871093750e+01 1.514186477661132812e+01 3.209166526794433594e-01 3.791040420532226562e+00 1.233587145805358887e+00 -1.226226568222045898e+00
2.295000000000000000e+03 7.184728240966796875e+01 1.109059429168701172e+01 2.872664332389831543e-01 3.812775611877441406e+00 1.230012655258178711e+00 -1.548512458801269531e+00
2.296000000000000000e+03 7.334244537353515625e+01 8.827897071838378906e+00 1.340017467737197876e-01 4.606971740722656250e+00 1.422292113304138184e+00 -1.508380889892578125e+00
2.297000000000000000e+03 7.314604949951171875e+01 7.171845436096191406e-01 -3.176509737968444824e-01 5.165523052215576172e+00 1.454361677169799805e+00 -1.343642711639404297e+00
2.298000000000000000e+03 7.186524200439453125e+01 3.079128742218017578e+00 -2.229081392288208008e-01 4.272809028625488281e+00 1.214970231056213379e+00 -1.561265230178833008e+00
2.299000000000000000e+03 4.070354461669921875e+01 -2.910609817504882812e+01 7.214936614036560059e-02 4.389629840850830078e+00 1.338533759117126465e+00 -5.729567408561706543e-01
2.300000000000000000e+03 3.402122497558593750e+01 -1.432383251190185547e+01 1.177538394927978516e+00 2.561020135879516602e+00 1.121567487716674805e+00 7.093088328838348389e-02
2.301000000000000000e+03 1.081796550750732422e+01 3.358549499511718750e+01 1.116982195526361465e-03 5.917730159126222134e-04 5.126265459693968296e-04 -1.250345143489539623e-03
2.302000000000000000e+03 7.413454437255859375e+01 5.947497844696044922e+00 4.279811400920152664e-03 5.261487483978271484e+00 1.579730153083801270e+00 -1.469351053237915039e+00
2.303000000000000000e+03 7.425704956054687500e+01 1.253665828704833984e+01 1.896818280220031738e-01 4.460189819335937500e+00 1.394961595535278320e+00 -1.234044432640075684e+00
2.304000000000000000e+03 2.585835266113281250e+01 -5.235665798187255859e+00 -4.726651012897491455e-01 -4.137432575225830078e-01 -2.659225165843963623e-01 -6.607447266578674316e-01
2.305000000000000000e+03 7.385172271728515625e+01 1.945576667785644531e+01 2.472717911005020142e-01 3.668013811111450195e+00 1.174585700035095215e+00 -8.295679688453674316e-01
2.306000000000000000e+03 7.719248771667480469e+00 -1.034661006927490234e+01 1.659237220883369446e-02 2.403346598148345947e-01 7.707811146974563599e-02 -2.795935869216918945e-01
2.307000000000000000e+03 3.750971984863281250e+01 -8.832633018493652344e+00 1.746113419532775879e+00 7.581476211547851562e+00 2.798276901245117188e+00 7.885604500770568848e-01
2.308000000000000000e+03 3.457506179809570312e+01 -1.184411144256591797e+01 1.722471594810485840e+00 3.277994155883789062e+00 1.500139713287353516e+00 2.287092804908752441e-01
2.309000000000000000e+03 8.004127502441406250e+00 2.275120353698730469e+01 -1.179965329356491566e-03 -3.894207475241273642e-05 -3.656722255982458591e-04 3.355754597578197718e-04
2.310000000000000000e+03 6.087565898895263672e+00 2.578539466857910156e+01 -1.004962017759680748e-03 -2.690861874725669622e-04 -3.822144644800573587e-04 5.866597639396786690e-04
2.311000000000000000e+03 7.492903900146484375e+01 -2.951994419097900391e+00 -3.485110402107238770e-01 6.855285644531250000e+00 1.952032327651977539e+00 -9.209107160568237305e-01
2.312000000000000000e+03 5.504087448120117188e+00 -8.173100471496582031e+00 -9.707609564065933228e-02 -1.858372054994106293e-02 -3.469794616103172302e-02 -3.581115901470184326e-01
2.313000000000000000e+03 4.856256961822509766e+00 -8.638609886169433594e+00 -6.852333247661590576e-02 -9.692357480525970459e-02 -4.963407292962074280e-02 -3.626084625720977783e-01
2.314000000000000000e+03 5.362883567810058594e+00 1.504465484619140625e+01 -7.569578010588884354e-04 1.256306313734967262e-05 -2.233184204669669271e-04 2.923642568930517882e-06
2.315000000000000000e+03 7.515948295593261719e+00 1.766683387756347656e+01 -6.850543431937694550e-04 -1.094012332032434642e-04 -2.383366809226572514e-04 -2.022386615863069892e-04
2.316000000000000000e+03 4.939363098144531250e+01 2.730818557739257812e+01 7.396932244300842285e-01 3.940910100936889648e+00 1.404181003570556641e+00 5.860545039176940918e-01
2.317000000000000000e+03 4.715588378906250000e+01 2.320256805419921875e+01 7.625000476837158203e-01 4.716259956359863281e+00 1.643628001213073730e+00 8.068552613258361816e-01
2.318000000000000000e+03 6.570265293121337891e+00 1.383363151550292969e+01 -6.734154885634779930e-04 -2.062500425381585956e-05 -2.082121500279754400e-04 3.983904207416344434e-06
2.319000000000000000e+03 5.352103710174560547e+00 1.241631126403808594e+01 -6.206537946127355099e-04 -1.766745117492973804e-05 -1.914963650051504374e-04 -1.705562317511066794e-05
2.320000000000000000e+03 6.538506984710693359e+00 1.894909858703613281e+01 -8.509428589604794979e-04 -7.549085421487689018e-05 -2.779301139526069164e-04 -2.852850229828618467e-05
2.321000000000000000e+03 5.416574954986572266e+00 1.900157546997070312e+01 9.125494398176670074e-04 5.291954039421398193e-06 2.753524167928844690e-04 1.081567643268499523e-05
2.322000000000000000e+03 7.114652252197265625e+01 -3.357815933227539062e+01 -6.558276712894439697e-02 3.195222377777099609e+00 9.388918876647949219e-01 6.924085617065429688e-01
2.323000000000000000e+03 5.825668334960937500e+01 3.487559080123901367e+00 -2.063245534896850586e+00 -1.987591683864593506e-01 -6.786013841629028320e-01 -1.604654341936111450e-01
2.324000000000000000e+03 6.100379943847656250e+01 3.395273208618164062e+00 -1.458009958267211914e+00 -6.466250121593475342e-02 -4.568017423152923584e-01 -5.475535988807678223e-01
2.325000000000000000e+03 3.994707489013671875e+01 -2.583584213256835938e+01 5.407891869544982910e-01 5.211616516113281250e+00 1.725721597671508789e+00 -1.772398799657821655e-01
2.326000000000000000e+03 9.825774192810058594e+00 8.880741119384765625e+00 -4.313921381253749132e-04 -1.011559215839952230e-04 -1.597644150024279952e-04 3.425918112043291330e-05
2.327000000000000000e+03 6.920368957519531250e+01 -1.703708529472351074e+00 -9.302399754524230957e-01 2.387606382369995117e+00 4.372099041938781738e-01 -9.086735844612121582e-01
2.328000000000000000e+03 2.966238021850585938e+01 -7.756361484527587891e+00 1.193860888481140137e+00 -4.515183269977569580e-01 2.227027714252471924e-01 -3.028177618980407715e-01
2.329000000000000000e+03 7.280834197998046875e+01 -3.400398254394531250e+00 -4.703572392463684082e-01 5.106949329376220703e+00 1.390977621078491211e+00 -1.020035982131958008e+00
2.330000000000000000e+03 7.032282829284667969e+00 8.196842193603515625e+00 6.361008854582905769e-04 -1.532168389530852437e-04 1.448652183171361685e-04 5.576072362600825727e-05
2.331000000000000000e+03 1.209433174133300781e+01 1.289088535308837891e+01 -4.147776053287088871e-04 -1.844590442487969995e-04 -1.797709992388263345e-04 1.915894681587815285e-04
2.332000000000000000e+03 5.850473880767822266e+00 -6.438676357269287109e+00 -1.447748392820358276e-01 8.982505278254393488e-06 -4.342975467443466187e-02 -3.123512566089630127e-01
2.333000000000000000e+03 6.771764755249023438e+00 9.140987396240234375e+00 -6.487694918178021908e-04 8.592900121584534645e-05 -1.688521588221192360e-04 -2.358294113946612924e-05
2.334000000000000000e+03 6.050200653076171875e+01 1.365002155303955078e+00 -2.568916320800781250e+00 -4.669269621372222900e-01 -9.107529520988464355e-01 9.706556797027587891e-02
2.335000000000000000e+03 5.401277923583984375e+01 7.118990898132324219e+00 -3.573441207408905029e-01 2.106915712356567383e-01 -4.399576783180236816e-02 -1.657742559909820557e-01
2.336000000000000000e+03 4.853822708129882812e+01 2.161522865295410156e+01 1.045070290565490723e+00 4.266909122467041016e+00 1.593593835830688477e+00 1.034640192985534668e+00
2.337000000000000000e+03 4.771889495849609375e+01 2.773508071899414062e+01 6.344895362854003906e-01 4.218545436859130859e+00 1.455910444259643555e+00 4.866654872894287109e-01
2.338000000000000000e+03 2.673976707458496094e+01 -1.339650249481201172e+01 9.524906277656555176e-01 -4.315761625766754150e-01 1.562743335962295532e-01 4.926735162734985352e-01
2.339000000000000000e+03 2.230927276611328125e+01 -9.984932899475097656e+00 5.242542028427124023e-01 -3.997037112712860107e-01 3.736515715718269348e-02 -1.883450709283351898e-02
2.340000000000000000e+03 7.733575344085693359e+00 1.259687042236328125e+01 -7.875168230384588242e-04 1.851851266110315919e-05 -2.306994865648448467e-04 7.738636486465111375e-05
2.341000000000000000e+03 1.024827861785888672e+01 2.117988967895507812e+01 9.197973995469510555e-04 2.600548614282160997e-04 3.539556637406349182e-04 -3.114051651209592819e-04
2.342000000000000000e+03 2.617018508911132812e+01 -9.753654479980468750e+00 9.380919337272644043e-01 -6.335276365280151367e-01 9.136928617954254150e-02 -4.201698675751686096e-02
2.343000000000000000e+03 3.218534469604492188e+01 -7.110667705535888672e+00 1.424878478050231934e+00 7.097613811492919922e-01 6.403919458389282227e-01 2.443645894527435303e-02
2.344000000000000000e+03 4.669277572631835938e+01 1.003804397583007812e+01 1.888071179389953613e+00 3.489274740219116211e+00 1.613203763961791992e+00 2.167278766632080078e+00
2.345000000000000000e+03 3.416687393188476562e+01 -5.621483802795410156e+00 8.459047079086303711e-01 1.953514099121093750e+00 8.398256301879882812e-01 2.259922921657562256e-01
2.346000000000000000e+03 2.314945602416992188e+01 -1.178751754760742188e+01 7.111647129058837891e-01 -4.298140108585357666e-01 8.440522104501724243e-02 1.347339749336242676e-01
2.347000000000000000e+03 2.183955955505371094e+01 -1.272443866729736328e+01 6.610204577445983887e-01 -3.304078280925750732e-01 9.918379038572311401e-02 1.304374039173126221e-01
2.348000000000000000e+03 1.406284713745117188e+01 6.972670555114746094e+00 7.328813808271661401e-06 2.033833879977464676e-04 6.321366527117788792e-05 -1.421747583663091063e-04
2.349000000000000000e+03 3.524037933349609375e+01 -6.164976119995117188e+00 1.242887258529663086e+00 3.421341419219970703e+00 1.399268627166748047e+00 5.837035179138183594e-01
2.350000000000000000e+03 5.233166885375976562e+01 9.987409591674804688e+00 1.154089450836181641e+00 7.940353751182556152e-01 5.844374299049377441e-01 3.532324731349945068e-01
2.351000000000000000e+03 3.585150909423828125e+01 -1.137032318115234375e+01 1.698026657104492188e+00 4.899130344390869141e+00 1.979147195816040039e+00 3.731539547443389893e-01
2.352000000000000000e+03 4.957305145263671875e+01 1.775181388854980469e+01 1.596236586570739746e+00 3.568810701370239258e+00 1.549514174461364746e+00 1.380396485328674316e+00
2.353000000000000000e+03 1.116080856323242188e+01 1.474521732330322266e+01 3.499622398521751165e-04 3.788687754422426224e-04 2.186493074987083673e-04 -5.011100438423454762e-04
2.354000000000000000e+03 8.888980865478515625e+00 1.259560489654541016e+01 9.158949251286685467e-04 -3.965101132052950561e-05 2.628731599543243647e-04 -2.546651230659335852e-04
2.355000000000000000e+03 3.727209091186523438e+01 -4.463572502136230469e+00 4.969434142112731934e-01 6.568397521972656250e+00 2.119602203369140625e+00 6.580032706260681152e-01
2.356000000000000000e+03 4.693844604492187500e+01 -3.026512145996093750e+01 2.348397299647331238e-02 1.872355699539184570e+00 5.687518715858459473e-01 -7.560047507286071777e-01
2.357000000000000000e+03 4.718064117431640625e+01 -3.379919433593750000e+01 -2.669664919376373291e-01 1.943082809448242188e+00 5.028348565101623535e-01 -6.635242700576782227e-01
2.358000000000000000e+03 4.840641021728515625e+01 1.470011138916015625e+01 1.871880292892456055e+00 3.607092380523681641e+00 1.643691778182983398e+00 1.766677141189575195e+00
2.359000000000000000e+03 4.801724243164062500e+01 1.623011207580566406e+01 1.648465394973754883e+00 4.091989517211914062e+00 1.722136378288269043e+00 1.724949240684509277e+00
2.360000000000000000e+03 4.687578964233398438e+01 1.281824779510498047e+01 1.956125020980834961e+00 4.257683277130126953e+00 1.864142417907714844e+00 2.197293996810913086e+00
2.361000000000000000e+03 1.053784179687500000e+01 2.457189178466796875e+01 -1.264404039829969406e-03 -2.676572767086327076e-04 -4.596184007823467255e-04 6.124537321738898754e-04
2.362000000000000000e+03 6.873353576660156250e+01 3.185962677001953125e+01 2.907309234142303467e-01 3.114263296127319336e+00 1.021498203277587891e+00 -1.965598911046981812e-01
2.363000000000000000e+03 3.055030822753906250e+01 -8.603534698486328125e+00 1.562466859817504883e+00 -1.046977862715721130e-01 4.373307228088378906e-01 -4.102248698472976685e-02
2.364000000000000000e+03 6.893978881835937500e+01 -2.856683969497680664e+00 -9.905081987380981445e-01 2.005015611648559570e+00 3.043521940708160400e-01 -6.214851737022399902e-01
2.365000000000000000e+03 4.661389160156250000e+01 8.534054756164550781e+00 1.500544190406799316e+00 3.007925033569335938e+00 1.352540731430053711e+00 1.995109558105468750e+00
2.366000000000000000e+03 2.979593467712402344e+01 -1.279088497161865234e+01 1.424127936363220215e+00 -2.410775423049926758e-01 3.549151420593261719e-01 6.000899672508239746e-01
2.367000000000000000e+03 5.782532119750976562e+01 4.445335865020751953e+00 -1.542105793952941895e+00 -1.177500337362289429e-01 -4.979567527770996094e-01 -3.167496919631958008e-01
2.368000000000000000e+03 5.695637512207031250e+01 4.936600208282470703e+00 -1.436737060546875000e+00 -4.561274871230125427e-02 -4.447049498558044434e-01 -3.226534128189086914e-01
2.369000000000000000e+03 2.164336776733398438e+01 -7.319742202758789062e+00 1.457703113555908203e-02 -2.533657252788543701e-01 -7.163660973310470581e-02 -1.709748208522796631e-01
2.370000000000000000e+03 4.657057952880859375e+01 7.046154975891113281e+00 7.625044584274291992e-01 2.423265695571899414e+00 9.557310938835144043e-01 1.915618062019348145e+00
2.371000000000000000e+03 6.819084167480468750e+00 -3.814213943481445312e+01 2.216227166354656219e-02 -7.601463049650192261e-02 -1.615570858120918274e-02 -1.394960843026638031e-02
2.372000000000000000e+03 4.884491729736328125e+01 5.959328174591064453e+00 -3.753713071346282959e-01 3.183762729167938232e-01 -1.709851436316967010e-02 6.605712771415710449e-01
2.373000000000000000e+03 3.684092712402343750e+01 -1.655564689636230469e+01 -2.141367346048355103e-01 6.404942512512207031e+00 1.857241749763488770e+00 3.441130816936492920e-01
2.374000000000000000e+03 1.982130813598632812e+01 3.987714767456054688e+01 1.477230805903673172e-03 -9.640853852033615112e-03 -2.449086867272853851e-03 -5.636343732476234436e-03
2.375000000000000000e+03 7.237096405029296875e+01 1.937418174743652344e+01 3.539128303527832031e-01 3.459575176239013672e+00 1.144046425819396973e+00 -9.303659200668334961e-01
2.376000000000000000e+03 3.661234664916992188e+01 -3.481396102905273438e+01 -8.607573509216308594e-01 3.878612756729125977e+00 9.053565859794616699e-01 2.329702526330947876e-01
2.377000000000000000e+03 3.849691390991210938e+01 -3.424127960205078125e+01 -7.944391369819641113e-01 3.933646202087402344e+00 9.417620897293090820e-01 -8.324240893125534058e-02
2.378000000000000000e+03 7.166072845458984375e+01 2.947485733032226562e+01 2.294732332229614258e-01 3.142030477523803711e+00 1.011451125144958496e+00 -3.160466551780700684e-01
2.379000000000000000e+03 7.409836578369140625e+01 3.009430313110351562e+01 1.309750676155090332e-01 3.149389266967773438e+00 9.841093420982360840e-01 -2.431985288858413696e-01
2.380000000000000000e+03 7.082996368408203125e+01 -3.843684387207031250e+01 7.363446354866027832e-01 3.566830396652221680e+00 1.290952563285827637e+00 4.716390371322631836e-01
2.381000000000000000e+03 4.085942459106445312e+01 -2.690626144409179688e+01 3.584424257278442383e-01 4.698654651641845703e+00 1.517129182815551758e+00 -4.462381303310394287e-01
2.382000000000000000e+03 4.201663589477539062e+01 -2.814991569519042969e+01 1.617155075073242188e-01 3.943846225738525391e+00 1.231668472290039062e+00 -7.266344428062438965e-01
2.383000000000000000e+03 2.019369506835937500e+01 -3.828910827636718750e+01 -7.476352900266647339e-02 1.039254851639270782e-02 -1.931129395961761475e-02 2.896197140216827393e-02
2.384000000000000000e+03 5.862077331542968750e+01 -3.720272827148437500e+01 1.991124078631401062e-02 -5.189893245697021484e-01 -1.497234255075454712e-01 -6.246493458747863770e-01
2.385000000000000000e+03 4.446965026855468750e+01 -2.800778007507324219e+01 1.996591389179229736e-01 2.837094545364379883e+00 9.110261201858520508e-01 -9.257990717887878418e-01
2.386000000000000000e+03 7.397295379638671875e+01 -1.024129295349121094e+01 5.116830468177795410e-01 5.499926090240478516e+00 1.803482770919799805e+00 -2.784616231918334961e+00
2.387000000000000000e+03 7.392829132080078125e+01 -1.637679862976074219e+01 5.645980834960937500e-01 4.671204566955566406e+00 1.570740818977355957e+00 2.071202993392944336e+00
2.388000000000000000e+03 7.525176239013671875e+01 -8.648891448974609375e+00 -1.088072180747985840e+00 8.894642829895019531e+00 2.341971158981323242e+00 -1.465959310531616211e+00
2.389000000000000000e+03 7.438929748535156250e+01 -9.303535461425781250e+00 -4.032952487468719482e-01 7.105469226837158203e+00 2.010652065277099609e+00 -2.342046022415161133e+00
2.390000000000000000e+03 7.440995788574218750e+01 -1.660337257385253906e+01 -1.869692653417587280e-02 6.757294178009033203e+00 2.021579027175903320e+00 2.306661605834960938e+00
2.391000000000000000e+03 7.327856445312500000e+01 -1.725208473205566406e+01 3.711725175380706787e-01 3.994240999221801758e+00 1.309624075889587402e+00 1.103846192359924316e+00
2.392000000000000000e+03 7.663986968994140625e+01 -1.071930694580078125e+01 -2.365142107009887695e+00 1.518151664733886719e+01 3.844912290573120117e+00 -2.130927592515945435e-01
2.393000000000000000e+03 7.305538940429687500e+01 -1.073723220825195312e+01 8.890294432640075684e-01 2.710129022598266602e+00 1.079747557640075684e+00 -1.679332852363586426e+00
2.394000000000000000e+03 7.350302124023437500e+01 -1.079001140594482422e+01 1.027989029884338379e+00 3.546494960784912109e+00 1.372345209121704102e+00 -2.330366134643554688e+00
2.395000000000000000e+03 7.589430999755859375e+01 -1.700405311584472656e+01 -1.859006404876708984e+00 1.161507415771484375e+01 2.926820278167724609e+00 8.774044513702392578e-01
2.396000000000000000e+03 7.599642944335937500e+01 -8.767145156860351562e+00 -1.465189814567565918e+00 1.028129386901855469e+01 2.644831180572509766e+00 -8.217006325721740723e-01
2.397000000000000000e+03 7.376609039306640625e+01 -1.681134414672851562e+01 4.267602264881134033e-01 4.603281497955322266e+00 1.509012579917907715e+00 1.719667196273803711e+00
2.398000000000000000e+03 7.638610839843750000e+01 -1.662120628356933594e+01 -2.283802032470703125e+00 1.339017581939697266e+01 3.331912279129028320e+00 8.949285745620727539e-02
2.399000000000000000e+03 7.672755432128906250e+01 -1.649474525451660156e+01 -2.319857120513916016e+00 1.410078430175781250e+01 3.534278154373168945e+00 -7.318943142890930176e-01
2.400000000000000000e+03 9.602701187133789062e+00 -6.511928558349609375e+00 -2.061535567045211792e-01 1.592642664909362793e-01 -1.406678743660449982e-02 -2.264412045478820801e-01
2.401000000000000000e+03 1.320678997039794922e+01 -7.494393348693847656e+00 -1.161785349249839783e-01 1.417155116796493530e-01 7.661094423383474350e-03 -9.607741236686706543e-02
2.402000000000000000e+03 7.397157287597656250e+01 -9.727637290954589844e+00 1.124580428004264832e-01 5.854072093963623047e+00 1.789959073066711426e+00 -2.464853048324584961e+00
2.403000000000000000e+03 7.309606170654296875e+01 -1.113007164001464844e+01 1.065929055213928223e+00 2.183017253875732422e+00 9.746838808059692383e-01 -1.641695976257324219e+00
2.404000000000000000e+03 1.102663516998291016e+01 -6.643214225769042969e+00 -2.021140307188034058e-01 1.622655242681503296e-01 -1.195455063134431839e-02 -1.728268116712570190e-01
2.405000000000000000e+03 5.995539188385009766e+00 5.837504386901855469e+00 2.158462157240137458e-04 -6.848565681139007211e-05 4.420816912897862494e-05 2.390012668911367655e-04
2.406000000000000000e+03 7.602303314208984375e+01 -6.968763351440429688e+00 -9.095997810363769531e-01 8.910593986511230469e+00 2.400298357009887695e+00 -5.599421262741088867e-01
2.407000000000000000e+03 7.507036590576171875e+01 -9.953984260559082031e+00 -8.200224637985229492e-01 9.457842826843261719e+00 2.591346025466918945e+00 -2.806227922439575195e+00
2.408000000000000000e+03 7.375719451904296875e+01 -2.091622352600097656e+01 -3.206209242343902588e-01 5.473685741424560547e+00 1.545919418334960938e+00 4.499921575188636780e-02
2.409000000000000000e+03 7.411182403564453125e+01 -3.653079748153686523e+00 -4.008087515830993652e-01 6.252328395843505859e+00 1.755455851554870605e+00 -9.724962115287780762e-01
2.410000000000000000e+03 7.517913818359375000e+01 -5.947748661041259766e+00 -6.341322660446166992e-01 7.643413066864013672e+00 2.102784156799316406e+00 -7.773688435554504395e-01
2.411000000000000000e+03 7.284997558593750000e+01 -1.809012031555175781e+01 2.158171683549880981e-01 3.502136945724487305e+00 1.115386247634887695e+00 5.568553209304809570e-01
2.412000000000000000e+03 7.261207580566406250e+01 -1.846218681335449219e+01 1.690467596054077148e-01 3.098747253417968750e+00 9.803382158279418945e-01 4.111453294754028320e-01
2.413000000000000000e+03 7.169074249267578125e+01 -9.369337081909179688e+00 3.017970025539398193e-01 2.269233942031860352e+00 7.713092565536499023e-01 -6.592329740524291992e-01
2.414000000000000000e+03 1.196466064453125000e+01 6.206119060516357422e+00 5.341334690456278622e-05 -1.823870697990059853e-04 -3.869211650453507900e-05 4.869820841122418642e-04
2.415000000000000000e+03 1.177307033538818359e+01 -6.729179382324218750e+00 -1.952620744705200195e-01 1.516864299774169922e-01 -1.307269372045993805e-02 -1.508174240589141846e-01
2.416000000000000000e+03 7.289775085449218750e+01 -2.339045524597167969e+01 -4.296570122241973877e-01 4.296805858612060547e+00 1.160144686698913574e+00 -1.519142836332321167e-01
2.417000000000000000e+03 7.175749969482421875e+01 -8.820293426513671875e+00 1.511743515729904175e-01 2.718773603439331055e+00 8.609843850135803223e-01 -7.518352866172790527e-01
2.418000000000000000e+03 1.328584575653076172e+01 -6.860750198364257812e+00 -1.686613410711288452e-01 1.246885806322097778e-01 -1.319182943552732468e-02 -9.674800187349319458e-02
2.419000000000000000e+03 1.105214786529541016e+01 7.367307662963867188e+00 4.246433963999152184e-04 1.633431384107097983e-04 1.763959589879959822e-04 2.239654568256810308e-04
2.420000000000000000e+03 5.884807109832763672e+00 -5.628927230834960938e+00 -1.559728085994720459e-01 -2.708161482587456703e-03 -4.760429263114929199e-02 -2.846775949001312256e-01
2.421000000000000000e+03 1.199544620513916016e+01 5.107726573944091797e+00 1.081933587556704879e-04 -1.612180494703352451e-04 -1.590740794199518859e-05 3.365597513038665056e-04
2.422000000000000000e+03 8.749519348144531250e+00 -9.238416671752929688e+00 -3.683909773826599121e-02 2.408064603805541992e-01 6.119021028280258179e-02 -2.546392977237701416e-01
2.423000000000000000e+03 8.127010345458984375e+00 -5.733598232269287109e+00 -2.191288322210311890e-01 9.965469688177108765e-02 -3.584223985671997070e-02 -2.563662827014923096e-01
2.424000000000000000e+03 2.109766387939453125e+01 -1.062402248382568359e+01 4.991245269775390625e-01 -3.205009996891021729e-01 5.358705669641494751e-02 2.137524634599685669e-02
2.425000000000000000e+03 7.487545013427734375e+00 -7.279262065887451172e+00 -1.495290100574493408e-01 1.168926730751991272e-01 -9.790900163352489471e-03 -3.013453483581542969e-01
2.426000000000000000e+03 2.324025344848632812e+01 -6.645647048950195312e+00 -9.021808207035064697e-02 -2.997022867202758789e-01 -1.169761121273040771e-01 -3.217104971408843994e-01
2.427000000000000000e+03 2.396527862548828125e+01 -6.680881500244140625e+00 -6.745168566703796387e-02 -3.482997119426727295e-01 -1.247254163026809692e-01 -3.820613622665405273e-01
2.428000000000000000e+03 1.672372245788574219e+01 -6.526051521301269531e+00 -1.713574230670928955e-01 -2.028824947774410248e-02 -5.749370530247688293e-02 -3.962663188576698303e-02
2.429000000000000000e+03 1.587185382843017578e+01 -6.519834041595458984e+00 -1.840501725673675537e-01 1.454917527735233307e-02 -5.085029825568199158e-02 -4.852309450507164001e-02
2.430000000000000000e+03 8.858014106750488281e+00 -5.746175289154052734e+00 -2.348125129938125610e-01 1.205631196498870850e-01 -3.427481651306152344e-02 -2.364474833011627197e-01
2.431000000000000000e+03 1.623173332214355469e+01 -8.313571929931640625e+00 4.967579245567321777e-02 1.036748941987752914e-02 1.801298372447490692e-02 -1.541479676961898804e-02
2.432000000000000000e+03 7.233922576904296875e+01 -2.043089103698730469e+01 -9.901689738035202026e-02 3.237056970596313477e+00 9.414120316505432129e-01 5.196639150381088257e-02
2.433000000000000000e+03 1.848850631713867188e+01 -7.264455795288085938e+00 -5.413298308849334717e-02 -1.063222512602806091e-01 -4.813656955957412720e-02 -4.986535757780075073e-02
2.434000000000000000e+03 1.410032844543457031e+01 -7.052865505218505859e+00 -1.435376405715942383e-01 1.010454893112182617e-01 -1.274764351546764374e-02 -7.490278780460357666e-02
2.435000000000000000e+03 1.238033485412597656e+01 -1.208873081207275391e+01 4.493540823459625244e-01 3.394967019557952881e-01 2.366552352905273438e-01 3.074963018298149109e-02
2.436000000000000000e+03 1.768930816650390625e+01 -7.302705764770507812e+00 -5.738448351621627808e-02 -7.042334973812103271e-02 -3.834234923124313354e-02 -3.635278344154357910e-02
2.437000000000000000e+03 1.838278007507324219e+01 -6.497330188751220703e+00 -1.636208295822143555e-01 -8.780109137296676636e-02 -7.542657852172851562e-02 -5.180113017559051514e-02
2.438000000000000000e+03 9.791969299316406250e+00 6.007121086120605469e+00 -5.252509727142751217e-04 9.307605796493589878e-05 -1.296524715144187212e-04 -1.178931925096549094e-04
2.439000000000000000e+03 9.467306137084960938e+00 6.921274185180664062e+00 5.017428775317966938e-04 -5.327620601747184992e-05 1.345399941783398390e-04 1.503780949860811234e-04
2.440000000000000000e+03 1.176939773559570312e+01 7.303506374359130859e+00 -5.358746275305747986e-04 -1.130715463659726083e-04 -1.946838456206023693e-04 2.514163206797093153e-04
2.441000000000000000e+03 1.136310958862304688e+01 6.749586105346679688e+00 -1.552102039568126202e-04 1.288895873585715890e-04 -7.896185707068070769e-06 -4.766314814332872629e-04
2.442000000000000000e+03 7.249919891357421875e+01 -2.118778038024902344e+01 -1.767356991767883301e-01 3.666061162948608398e+00 1.046797633171081543e+00 2.292735688388347626e-02
2.443000000000000000e+03 7.401090240478515625e+01 -2.148102569580078125e+01 -4.575414359569549561e-01 5.798991203308105469e+00 1.602434992790222168e+00 -7.937689870595932007e-02
2.444000000000000000e+03 7.280310058593750000e+01 -1.917929077148437500e+01 -3.716758638620376587e-02 3.766872167587280273e+00 1.118911385536193848e+00 3.383246958255767822e-01
2.445000000000000000e+03 7.036816406250000000e+01 -9.224559783935546875e+00 2.206699363887310028e-02 1.148559451103210449e+00 3.511879444122314453e-01 2.804071083664894104e-02
2.446000000000000000e+03 6.610718250274658203e+00 1.018144702911376953e+01 6.597152678295969963e-04 -1.628151949262246490e-05 1.930301368702203035e-04 6.910304364282637835e-06
2.447000000000000000e+03 7.709988403320312500e+01 -1.677163887023925781e+01 -2.164646148681640625e+00 1.347865200042724609e+01 3.394201517105102539e+00 -1.475841164588928223e+00
2.448000000000000000e+03 1.187042045593261719e+01 9.120223999023437500e+00 -4.918233607895672321e-04 -2.143624442396685481e-04 -2.118557458743453026e-04 1.458099868614226580e-04
2.449000000000000000e+03 7.586286163330078125e+01 -9.545050621032714844e+00 -1.692036390304565430e+00 1.119694137573242188e+01 2.851471424102783203e+00 -1.417298793792724609e+00
2.450000000000000000e+03 7.629729461669921875e+01 -9.354549407958984375e+00 -1.887776970863342285e+00 1.155149269104003906e+01 2.899114608764648438e+00 -7.202998399734497070e-01
2.451000000000000000e+03 6.695312976837158203e+00 -7.438406467437744141e+00 -1.307330727577209473e-01 7.032720744609832764e-02 -1.812176033854484558e-02 -3.223057985305786133e-01
2.452000000000000000e+03 7.439166259765625000e+01 -5.053528308868408203e+00 -5.131317973136901855e-01 6.557468414306640625e+00 1.813300967216491699e+00 -9.046208262443542480e-01
2.453000000000000000e+03 6.968412780761718750e+01 -5.092468261718750000e+00 -7.184069156646728516e-01 2.091459751129150391e+00 4.119158387184143066e-01 -3.797439634799957275e-01
2.454000000000000000e+03 2.877293777465820312e+01 -6.968800544738769531e+00 8.042740821838378906e-01 -6.373416781425476074e-01 5.007972940802574158e-02 -4.934907555580139160e-01
2.455000000000000000e+03 7.374472808837890625e+01 -2.244849205017089844e+01 -3.839920759201049805e-01 5.486326217651367188e+00 1.530700206756591797e+00 -8.923345059156417847e-02
2.456000000000000000e+03 7.480429840087890625e+01 -2.175386619567871094e+01 -5.546433925628662109e-01 7.095955371856689453e+00 1.962393522262573242e+00 7.556158304214477539e-02
2.457000000000000000e+03 7.625621795654296875e+01 -1.877576828002929688e+01 -1.181141614913940430e+00 1.026893424987792969e+01 2.726337671279907227e+00 -3.116407692432403564e-01
2.458000000000000000e+03 2.579178237915039062e+01 -6.382800579071044922e+00 5.110781267285346985e-02 -5.275424122810363770e-01 -1.429303884506225586e-01 -5.636686682701110840e-01
2.459000000000000000e+03 2.243186759948730469e+01 -7.440724849700927734e+00 8.212529867887496948e-02 -3.095298111438751221e-01 -6.822135299444198608e-02 -2.094564586877822876e-01
2.460000000000000000e+03 2.246201324462890625e+01 -6.580736637115478516e+00 -1.171847730875015259e-01 -2.474281638860702515e-01 -1.093838810920715332e-01 -2.554528117179870605e-01
2.461000000000000000e+03 2.784855079650878906e+01 -6.574114799499511719e+00 4.386743009090423584e-01 -7.241259813308715820e-01 -8.563549816608428955e-02 -6.402121782302856445e-01
2.462000000000000000e+03 2.684536552429199219e+01 -5.363052845001220703e+00 -3.791999220848083496e-01 -5.454421639442443848e-01 -2.773926258087158203e-01 -7.446178793907165527e-01
2.463000000000000000e+03 7.638302612304687500e+01 -1.720092773437500000e+01 -2.027206897735595703e+00 1.226897239685058594e+01 3.072529554367065430e+00 -5.112288519740104675e-02
2.464000000000000000e+03 2.083014106750488281e+01 -7.989733695983886719e+00 1.049820557236671448e-01 -2.385118752717971802e-01 -4.005894437432289124e-02 -1.082088947296142578e-01
2.465000000000000000e+03 2.310077285766601562e+01 -1.279956626892089844e+01 7.198479771614074707e-01 -3.790122270584106445e-01 1.022507324814796448e-01 1.822376251220703125e-01
2.466000000000000000e+03 1.025609588623046875e+01 2.364179229736328125e+01 1.417109393514692783e-03 -6.170347478473559022e-05 4.066217516083270311e-04 -6.466758786700665951e-04
2.467000000000000000e+03 6.858937740325927734e+00 2.291839599609375000e+01 1.129257027059793472e-03 4.439241820364259183e-05 3.520948521327227354e-04 -1.838598400354385376e-04
2.468000000000000000e+03 7.295211029052734375e+01 1.247742462158203125e+01 2.631186544895172119e-01 4.075811386108398438e+00 1.301679015159606934e+00 -1.384106516838073730e+00
2.469000000000000000e+03 7.145074462890625000e+01 -7.931119441986083984e+00 -5.233865603804588318e-02 2.775784015655517578e+00 8.170335888862609863e-01 -6.251424551010131836e-01
2.470000000000000000e+03 4.855058670043945312e+01 2.305226325988769531e+01 9.407545924186706543e-01 4.247832775115966797e+00 1.556576132774353027e+00 8.534880280494689941e-01
2.471000000000000000e+03 5.039500427246093750e+01 2.502085685729980469e+01 9.605666995048522949e-01 3.758366346359252930e+00 1.415679931640625000e+00 7.189272046089172363e-01
2.472000000000000000e+03 7.245689392089843750e+01 8.779038429260253906e+00 1.522525250911712646e-01 4.153033733367919922e+00 1.291585803031921387e+00 -1.615093350410461426e+00
2.473000000000000000e+03 1.705410766601562500e+01 -8.156751632690429688e+00 4.350929334759712219e-02 -4.296774044632911682e-02 1.624664437258616090e-04 -1.856359839439392090e-02
2.474000000000000000e+03 6.548358440399169922e+00 1.131224155426025391e+01 -6.749343010596930981e-04 -9.097801921598147601e-06 -2.052096242550760508e-04 2.358118308620760217e-06
2.475000000000000000e+03 7.317198944091796875e+01 -2.928088188171386719e+01 -4.985334277153015137e-01 5.158773899078369141e+00 1.398072123527526855e+00 4.696367979049682617e-01
2.476000000000000000e+03 7.389114379882812500e+01 -2.866779518127441406e+01 -5.298626422882080078e-01 6.048626899719238281e+00 1.655629277229309082e+00 3.859154582023620605e-01
2.477000000000000000e+03 1.326796913146972656e+01 -1.176567173004150391e+01 4.183469414710998535e-01 2.933231592178344727e-01 2.135010212659835815e-01 4.871539399027824402e-02
2.478000000000000000e+03 1.178617954254150391e+01 -7.552996158599853516e+00 -1.309995204210281372e-01 1.860938817262649536e-01 1.652830839157104492e-02 -1.412952095270156860e-01
2.479000000000000000e+03 3.492103576660156250e+01 -1.346728801727294922e+01 1.269993543624877930e+00 3.743712186813354492e+00 1.504111766815185547e+00 1.223881691694259644e-01
2.480000000000000000e+03 3.595986557006835938e+01 -1.403221225738525391e+01 9.209228157997131348e-01 5.100705146789550781e+00 1.806488394737243652e+00 1.458880770951509476e-02
2.481000000000000000e+03 5.613988113403320312e+01 5.354346275329589844e+00 -1.301043868064880371e+00 5.825363332405686378e-04 -3.901384174823760986e-01 -3.027271628379821777e-01
2.482000000000000000e+03 5.707501602172851562e+01 5.916913032531738281e+00 -9.435355067253112793e-01 1.933689042925834656e-02 -2.772595882415771484e-01 -4.264557063579559326e-01
2.483000000000000000e+03 7.354171752929687500e+01 -2.860999584197998047e+00 -4.508341550827026367e-01 5.673398494720458984e+00 1.566769361495971680e+00 -1.052471518516540527e+00
2.484000000000000000e+03 6.789424133300781250e+01 2.751375913619995117e+00 -5.876879692077636719e-01 2.124471426010131836e+00 4.610350131988525391e-01 -1.448075056076049805e+00
2.485000000000000000e+03 1.023754787445068359e+01 1.515501022338867188e+01 -9.477104758843779564e-04 -1.450036361347883940e-04 -3.278142248746007681e-04 4.950265865772962570e-04
2.486000000000000000e+03 7.279804992675781250e+01 5.947506904602050781e+00 -2.631688956171274185e-03 4.591059684753417969e+00 1.376528501510620117e+00 -1.602218627929687500e+00
2.487000000000000000e+03 6.755414581298828125e+01 1.526160001754760742e+00 -8.162538409233093262e-01 1.832263350486755371e+00 3.048028349876403809e-01 -1.259171247482299805e+00
2.488000000000000000e+03 6.198219776153564453e+00 -8.944780349731445312e+00 -6.718230247497558594e-02 7.714074850082397461e-02 2.987533807754516602e-03 -3.446930348873138428e-01
2.489000000000000000e+03 5.042189407348632812e+01 8.466012954711914062e+00 7.603947520256042480e-01 7.778874635696411133e-01 4.614846706390380859e-01 6.341159343719482422e-01
2.490000000000000000e+03 8.786407470703125000e+00 1.863772201538085938e+01 -7.283059530891478062e-04 -4.021507338620722294e-04 -3.391370119061321020e-04 2.666870423126965761e-04
2.491000000000000000e+03 6.505616664886474609e+00 1.642408943176269531e+01 -9.256873745471239090e-04 1.304445322602987289e-04 -2.385728439548984170e-04 -4.007788447779603302e-05
2.492000000000000000e+03 7.661018371582031250e+00 1.884846115112304688e+01 6.897012935951352119e-04 2.873231715057045221e-04 2.931073540821671486e-04 -5.864160266355611384e-05
2.493000000000000000e+03 3.335654449462890625e+01 -8.754786491394042969e+00 1.899737000465393066e+00 1.870887398719787598e+00 1.131187319755554199e+00 2.965975105762481689e-01
2.494000000000000000e+03 7.309460449218750000e+01 7.869855403900146484e+00 9.414959698915481567e-02 4.565010070800781250e+00 1.397747874259948730e+00 -1.558868408203125000e+00
2.495000000000000000e+03 7.180931854248046875e+01 4.462899684906005859e+00 -1.186472922563552856e-01 4.169598102569580078e+00 1.215285181999206543e+00 -1.636244535446166992e+00
2.496000000000000000e+03 3.142108345031738281e+01 -1.201944255828857422e+01 1.788006186485290527e+00 5.750709772109985352e-01 7.089231610298156738e-01 4.334811270236968994e-01
2.497000000000000000e+03 6.225589370727539062e+01 3.503999471664428711e+00 -1.201730251312255859e+00 1.923352479934692383e-01 -3.028185069561004639e-01 -7.826373577117919922e-01
2.498000000000000000e+03 6.000430297851562500e+01 2.911460638046264648e+00 -1.956783771514892578e+00 -2.600474655628204346e-01 -6.650493741035461426e-01 -2.622295022010803223e-01
2.499000000000000000e+03 6.366508483886718750e+01 3.224789381027221680e+00 -1.041334390640258789e+00 4.806461036205291748e-01 -1.682064980268478394e-01 -9.579979777336120605e-01
2.500000000000000000e+03 7.290676116943359375e+00 -1.124066543579101562e+01 5.717325210571289062e-02 2.555356323719024658e-01 9.381266683340072632e-02 -2.805523574352264404e-01
2.501000000000000000e+03 3.347105789184570312e+01 -1.329889297485351562e+01 1.486655354499816895e+00 2.030720233917236328e+00 1.055212736129760742e+00 2.909176945686340332e-01
2.502000000000000000e+03 7.281927490234375000e+01 1.379704856872558594e+01 2.973181307315826416e-01 3.918738603591918945e+00 1.264816999435424805e+00 -1.308706641197204590e+00
2.503000000000000000e+03 7.161140441894531250e+01 1.236154556274414062e+01 3.442094624042510986e-01 3.665521383285522461e+00 1.202919244766235352e+00 -1.483142733573913574e+00
2.504000000000000000e+03 3.641633224487304688e+01 -6.905685424804687500e+00 1.510308861732482910e+00 5.454927444458007812e+00 2.089570999145507812e+00 7.717896699905395508e-01
2.505000000000000000e+03 7.350882053375244141e+00 7.335634708404541016e+00 -5.677700391970574856e-04 1.614214997971430421e-04 -1.219045516336336732e-04 -9.330687316833063960e-05
2.506000000000000000e+03 7.782931804656982422e+00 9.351511001586914062e+00 7.520642247982323170e-04 -1.354957203147932887e-04 1.849705586209893227e-04 -4.683141014538705349e-05
2.507000000000000000e+03 5.261678695678710938e+01 7.527934074401855469e+00 -1.106197461485862732e-01 2.728880643844604492e-01 4.868049919605255127e-02 -1.334521826356649399e-02
2.508000000000000000e+03 7.084020996093750000e+01 1.925983428955078125e+01 4.759574234485626221e-01 3.232076168060302734e+00 1.112410068511962891e+00 -9.933712482452392578e-01
2.509000000000000000e+03 5.884763717651367188e+01 5.142365932464599609e+00 -1.129960298538208008e+00 2.666176296770572662e-03 -3.381882309913635254e-01 -5.244662165641784668e-01
2.510000000000000000e+03 1.132564449310302734e+01 1.149283981323242188e+01 -6.035462720319628716e-04 -1.245823805220425129e-04 -2.184385957662016153e-04 2.904970897361636162e-04
2.511000000000000000e+03 9.608263969421386719e+00 2.504610252380371094e+01 1.569544547237455845e-03 1.775387936504557729e-04 5.241250037215650082e-04 -6.229297723621129990e-04
2.512000000000000000e+03 3.604145050048828125e+01 -8.376721382141113281e+00 1.844158053398132324e+00 4.988786220550537109e+00 2.049883365631103516e+00 7.063381671905517578e-01
2.513000000000000000e+03 3.436450576782226562e+01 -9.212001800537109375e+00 2.068276882171630859e+00 2.926444053649902344e+00 1.498416185379028320e+00 4.479495286941528320e-01
2.514000000000000000e+03 2.768445968627929688e+01 -1.160661125183105469e+01 1.249628186225891113e+00 -5.110299587249755859e-01 2.215794622898101807e-01 3.301909267902374268e-01
2.515000000000000000e+03 2.542300605773925781e+01 -9.037217140197753906e+00 7.067877054214477539e-01 -5.924691557884216309e-01 3.429554775357246399e-02 -1.542576402425765991e-01
2.516000000000000000e+03 1.107244110107421875e+01 1.267262935638427734e+01 6.391869974322617054e-04 1.286603073822334409e-04 2.303541841683909297e-04 -3.793450596276670694e-04
2.517000000000000000e+03 3.440603637695312500e+01 -6.748107910156250000e+00 1.488854885101318359e+00 2.672673225402832031e+00 1.248458504676818848e+00 3.879012167453765869e-01
2.518000000000000000e+03 6.932443237304687500e+01 2.857950019836425781e+01 3.544588685035705566e-01 3.085240125656127930e+00 1.031909704208374023e+00 -3.541760444641113281e-01
2.519000000000000000e+03 7.226058959960937500e+01 2.090377616882324219e+01 3.501228392124176025e-01 3.376975774765014648e+00 1.118129611015319824e+00 -8.196444511413574219e-01
2.520000000000000000e+03 3.247891616821289062e+01 -1.226679039001464844e+01 1.763786196708679199e+00 1.227135658264160156e+00 8.972765803337097168e-01 4.194730818271636963e-01
2.521000000000000000e+03 7.206780242919921875e+01 1.873931050300598145e+00 -3.282215297222137451e-01 4.411687850952148438e+00 1.225039839744567871e+00 -1.490869402885437012e+00
2.522000000000000000e+03 6.721035766601562500e+01 2.700631618499755859e-01 -1.099047541618347168e+00 1.477594733238220215e+00 1.135641261935234070e-01 -9.820114374160766602e-01
2.523000000000000000e+03 9.313197135925292969e+00 -1.181916904449462891e+01 2.392636090517044067e-01 4.048827588558197021e-01 1.932439059019088745e-01 -1.292610317468643188e-01
2.524000000000000000e+03 5.016125869750976562e+01 1.379390335083007812e+01 1.922561407089233398e+00 2.499112606048583984e+00 1.326502203941345215e+00 1.335186719894409180e+00
2.525000000000000000e+03 4.734517669677734375e+01 1.394153308868408203e+01 1.861137151718139648e+00 4.111433506011962891e+00 1.791771292686462402e+00 2.008124113082885742e+00
2.526000000000000000e+03 4.795812225341796875e+01 1.011470222473144531e+01 1.757066249847412109e+00 2.501984834671020508e+00 1.277715325355529785e+00 1.703658461570739746e+00
2.527000000000000000e+03 4.789743041992187500e+01 8.594440460205078125e+00 1.347409486770629883e+00 2.015771389007568359e+00 1.008954286575317383e+00 1.548168778419494629e+00
2.528000000000000000e+03 7.163330841064453125e+01 5.793738842010498047e+00 -2.501898072659969330e-02 4.022658824920654297e+00 1.199291944503784180e+00 -1.683150410652160645e+00
2.529000000000000000e+03 5.655211257934570312e+01 6.910561561584472656e+00 -4.082910418510437012e-01 1.155494451522827148e-01 -8.782247453927993774e-02 -4.516001939773559570e-01
2.530000000000000000e+03 6.769455909729003906e+00 3.527780151367187500e+01 -1.563956757308915257e-04 -2.180773008149117231e-04 -1.123418915085494518e-04 -7.911566062830388546e-04
2.531000000000000000e+03 7.248060226440429688e+00 2.561705207824707031e+01 1.056093722581863403e-03 6.898937863297760487e-05 3.375249216333031654e-04 2.066627348540350795e-04
2.532000000000000000e+03 8.185531616210937500e+00 2.408370018005371094e+01 1.467388239689171314e-03 -3.110126272076740861e-05 4.308860807213932276e-04 -3.277653595432639122e-04
2.533000000000000000e+03 7.142079925537109375e+01 1.367701530456542969e+01 3.884394466876983643e-01 3.552477121353149414e+00 1.182274937629699707e+00 -1.410006284713745117e+00
2.534000000000000000e+03 4.099809265136718750e+01 -3.405297851562500000e+01 -6.986976861953735352e-01 3.677366495132446289e+00 8.936006426811218262e-01 -5.160852074623107910e-01
2.535000000000000000e+03 4.724769592285156250e+01 -3.141584777832031250e+01 -6.544505059719085693e-02 1.828766226768493652e+00 5.289963483810424805e-01 -7.278599143028259277e-01
2.536000000000000000e+03 2.446893119812011719e+01 -1.277346038818359375e+01 7.884275913238525391e-01 -4.313506484031677246e-01 1.071230694651603699e-01 2.770271003246307373e-01
2.537000000000000000e+03 9.961105346679687500e+00 1.834990692138671875e+01 9.060312877409160137e-04 3.501519677229225636e-04 3.768549649976193905e-04 -2.559399581514298916e-04
2.538000000000000000e+03 7.218382263183593750e+01 2.249315834045410156e+01 3.338404297828674316e-01 3.307802200317382812e+00 1.092492818832397461e+00 -7.082186341285705566e-01
2.539000000000000000e+03 4.778762054443359375e+01 1.766492462158203125e+01 1.419171571731567383e+00 4.378675937652587891e+00 1.739354252815246582e+00 1.573099017143249512e+00
2.540000000000000000e+03 4.868916702270507812e+01 1.837821578979492188e+01 1.441547036170959473e+00 4.014970779418945312e+00 1.636955261230468750e+00 1.417609453201293945e+00
2.541000000000000000e+03 7.813510894775390625e+00 2.957977104187011719e+01 -8.536498644389212132e-04 -5.399512592703104019e-04 -4.180803371127694845e-04 2.395917399553582072e-04
2.542000000000000000e+03 8.006799697875976562e+00 2.763847351074218750e+01 -7.307305349968373775e-04 -5.053489003330469131e-04 -3.708238364197313786e-04 6.895487895235419273e-04
2.543000000000000000e+03 7.105394744873046875e+01 2.785541725158691406e+01 2.932416498661041260e-01 3.141437053680419922e+00 1.030403614044189453e+00 -3.994975388050079346e-01
2.544000000000000000e+03 1.016314315795898438e+01 1.978344917297363281e+01 -9.192264988087117672e-04 -2.855281345546245575e-04 -3.614263841882348061e-04 2.822037786245346069e-04
2.545000000000000000e+03 2.504806709289550781e+01 -1.136999130249023438e+01 8.917927145957946777e-01 -5.554206967353820801e-01 1.009116098284721375e-01 1.217351481318473816e-01
2.546000000000000000e+03 1.564954662322998047e+01 -1.276603794097900391e+01 6.414023041725158691e-01 5.901395902037620544e-02 2.101248800754547119e-01 7.929423451423645020e-02
2.547000000000000000e+03 1.645467758178710938e+01 -1.204012870788574219e+01 5.312492251396179199e-01 -9.307560510933399200e-03 1.565824896097183228e-01 6.713245064020156860e-02
2.548000000000000000e+03 3.129894828796386719e+01 -7.726341247558593750e+00 1.517971992492675781e+00 1.682074815034866333e-01 5.058538317680358887e-01 -3.853452578186988831e-02
2.549000000000000000e+03 8.477540969848632812e+00 2.548142242431640625e+01 -1.519732410088181496e-03 1.412719393556471914e-05 -4.516815824899822474e-04 3.399218549020588398e-04
2.550000000000000000e+03 7.022511291503906250e+01 3.025325775146484375e+01 2.884558439254760742e-01 3.109308242797851562e+00 1.019329309463500977e+00 -2.867963910102844238e-01
2.551000000000000000e+03 4.973440551757812500e+01 1.520389652252197266e+01 1.853440523147583008e+00 3.018321990966796875e+00 1.461528778076171875e+00 1.443261504173278809e+00
2.552000000000000000e+03 4.932789993286132812e+01 1.652901268005371094e+01 1.701087832450866699e+00 3.440767765045166016e+00 1.542556643486022949e+00 1.458047986030578613e+00
2.553000000000000000e+03 4.970253372192382812e+01 6.528103828430175781e+00 -1.455762833356857300e-01 3.376901745796203613e-01 5.763416737318038940e-02 4.050480723381042480e-01
2.554000000000000000e+03 7.096579742431640625e+01 3.291177749633789062e+01 1.744683235883712769e-01 3.136065959930419922e+00 9.931602478027343750e-01 -1.734447181224822998e-01
2.555000000000000000e+03 8.564585685729980469e+00 3.085725212097167969e+01 1.298373681493103504e-03 4.618328239303082228e-04 5.280619370751082897e-04 -5.908631719648838043e-04
2.556000000000000000e+03 1.174557113647460938e+01 3.245579147338867188e+01 9.478881838731467724e-05 -1.476090168580412865e-03 -4.143904079683125019e-04 1.126404240494593978e-04
2.557000000000000000e+03 1.669295501708984375e+01 4.109135437011718750e+01 -3.661777591332793236e-03 3.460605861619114876e-03 -6.035146361682564020e-05 -2.854469930753111839e-03
2.558000000000000000e+03 7.563713073730468750e+01 -9.081251144409179688e+00 -1.451007366180419922e+00 1.004142379760742188e+01 2.577124834060668945e+00 -1.335131645202636719e+00
2.559000000000000000e+03 7.487669372558593750e+01 -1.691379737854003906e+01 -6.757448315620422363e-01 8.417204856872558594e+00 2.322438001632690430e+00 2.075898408889770508e+00
2.560000000000000000e+03 7.418638610839843750e+01 -1.706661415100097656e+01 -8.468361943960189819e-02 6.234649181365966797e+00 1.844989657402038574e+00 1.765961170196533203e+00
2.561000000000000000e+03 7.331504058837890625e+01 -1.841264533996582031e+01 -1.008094288408756256e-02 4.541660785675048828e+00 1.359473943710327148e+00 6.085477471351623535e-01
2.562000000000000000e+03 7.531743621826171875e+01 -1.716857337951660156e+01 -1.267323017120361328e+00 9.778133392333984375e+00 2.553243160247802734e+00 1.455942988395690918e+00
2.563000000000000000e+03 7.501716613769531250e+01 -1.963669586181640625e+01 -6.203980445861816406e-01 7.740795135498046875e+00 2.136119127273559570e+00 1.493226587772369385e-01
2.564000000000000000e+03 7.304692840576171875e+01 -2.038977622985839844e+01 -1.815280616283416748e-01 4.478667736053466797e+00 1.289141893386840820e+00 1.954323500394821167e-01
2.565000000000000000e+03 1.030602264404296875e+01 -6.545784473419189453e+00 -2.065150588750839233e-01 1.659372448921203613e-01 -1.217334438115358353e-02 -1.979380697011947632e-01
2.566000000000000000e+03 7.351789855957031250e+01 -9.599676132202148438e+00 2.833492457866668701e-01 4.840467929840087891e+00 1.537145137786865234e+00 -2.047445774078369141e+00
2.567000000000000000e+03 7.381008911132812500e+01 -1.731102561950683594e+01 8.825150132179260254e-02 5.225024700164794922e+00 1.593982815742492676e+00 1.361229181289672852e+00
2.568000000000000000e+03 7.443531036376953125e+01 -5.898979187011718750e+00 -5.539971590042114258e-01 6.720561981201171875e+00 1.849969387054443359e+00 -9.759418964385986328e-01
2.569000000000000000e+03 7.237182617187500000e+01 -1.017614173889160156e+01 5.765438079833984375e-01 2.303491830825805664e+00 8.640106320381164551e-01 -9.952907562255859375e-01
2.570000000000000000e+03 7.348693084716796875e+01 -1.020064258575439453e+01 6.529027223587036133e-01 4.246025085449218750e+00 1.469678401947021484e+00 -2.260813713073730469e+00
2.571000000000000000e+03 7.563774108886718750e+01 -1.647011566162109375e+01 -1.562169790267944336e+00 1.161880207061767578e+01 3.016989707946777344e+00 1.937137126922607422e+00
2.572000000000000000e+03 7.219455718994140625e+01 -9.204122543334960938e+00 3.217146694660186768e-01 2.930013418197631836e+00 9.755184054374694824e-01 -1.020732402801513672e+00
2.573000000000000000e+03 1.254238224029541016e+01 6.880805492401123047e+00 2.509485057089477777e-04 1.584687270224094391e-04 1.228251639986410737e-04 -4.274283710401505232e-04
2.574000000000000000e+03 8.576553344726562500e+00 6.727329254150390625e+00 -5.156444967724382877e-04 9.667337144492194057e-05 -1.256913383258506656e-04 -9.290163143305107951e-05
2.575000000000000000e+03 7.564431762695312500e+01 -1.918967819213867188e+01 -8.919011354446411133e-01 9.033773422241210938e+00 2.442561626434326172e+00 1.280435547232627869e-02
2.576000000000000000e+03 7.299390411376953125e+01 -1.974529647827148438e+01 -1.224246695637702942e-01 4.226893901824951172e+00 1.231340765953063965e+00 2.889486253261566162e-01
2.577000000000000000e+03 1.252206420898437500e+01 -6.773401260375976562e+00 -1.916123628616333008e-01 1.475191563367843628e-01 -1.322796009480953217e-02 -1.251270622014999390e-01
2.578000000000000000e+03 7.477886962890625000e+01 -8.243560791015625000e+00 -8.396984934806823730e-01 7.865916728973388672e+00 2.107865571975708008e+00 -1.495046138763427734e+00
2.579000000000000000e+03 7.434671783447265625e+01 -2.209747505187988281e+01 -3.483001589775085449e-01 6.458154201507568359e+00 1.832956194877624512e+00 -1.709199994802474976e-01
2.580000000000000000e+03 1.393450641632080078e+01 -7.737851619720458984e+00 -8.127580583095550537e-02 1.275053918361663818e-01 1.386887766420841217e-02 -6.765185296535491943e-02
2.581000000000000000e+03 8.894131660461425781e+00 -6.529860019683837891e+00 -1.956063807010650635e-01 1.395394653081893921e-01 -1.682007685303688049e-02 -2.476677149534225464e-01
2.582000000000000000e+03 8.168499946594238281e+00 -6.521069526672363281e+00 -1.894849389791488647e-01 1.257662624120712280e-01 -1.911560073494911194e-02 -2.672907412052154541e-01
2.583000000000000000e+03 1.596043014526367188e+01 -7.417809486389160156e+00 -6.791596859693527222e-02 2.016974054276943207e-02 -1.432386972010135651e-02 -3.267728537321090698e-02
2.584000000000000000e+03 7.367106628417968750e+01 -6.584293842315673828e+00 -4.916822314262390137e-01 5.893404006958007812e+00 1.620516419410705566e+00 -1.102879881858825684e+00
2.585000000000000000e+03 7.469564056396484375e+01 -4.365862369537353516e+00 -4.447191655635833740e-01 6.788226604461669922e+00 1.903052210807800293e+00 -8.971426486968994141e-01
2.586000000000000000e+03 1.552638339996337891e+01 -8.738189697265625000e+00 8.182451874017715454e-02 5.637978762388229370e-02 4.146129265427589417e-02 -6.775138434022665024e-03
2.587000000000000000e+03 1.094753932952880859e+01 8.145853042602539062e+00 -4.731138178613036871e-04 -2.405699924565851688e-04 -2.141051372746005654e-04 -5.116914690006524324e-05
2.588000000000000000e+03 7.179790496826171875e+01 -4.882553100585937500e+00 -5.352581143379211426e-01 3.969248294830322266e+00 1.030197024345397949e+00 -8.828474283218383789e-01
2.589000000000000000e+03 1.928613281250000000e+01 -7.241875171661376953e+00 -4.578256607055664062e-02 -1.385066211223602295e-01 -5.528675764799118042e-02 -6.458580493927001953e-02
2.590000000000000000e+03 2.086255073547363281e+01 -7.255290985107421875e+00 -1.631127670407295227e-02 -2.075829058885574341e-01 -6.716825067996978760e-02 -1.255879998207092285e-01
2.591000000000000000e+03 2.007778930664062500e+01 -7.237150192260742188e+00 -3.577583283185958862e-02 -1.748274862766265869e-01 -6.318099796772003174e-02 -9.419956058263778687e-02
2.592000000000000000e+03 1.030050182342529297e+01 7.150905132293701172e+00 -3.916201530955731869e-04 -6.949315138626843691e-05 -1.383339840685948730e-04 -2.446453727316111326e-04
2.593000000000000000e+03 8.192523956298828125e+00 -7.307898521423339844e+00 -1.536628305912017822e-01 1.517256498336791992e-01 -5.811545997858047485e-04 -2.754182517528533936e-01
2.594000000000000000e+03 7.137576293945312500e+01 -2.276371002197265625e+00 -5.750681757926940918e-01 3.969340085983276367e+00 1.018281579017639160e+00 -1.054414272308349609e+00
2.595000000000000000e+03 7.058982086181640625e+01 -8.761523365974426270e-01 -6.548590660095214844e-01 3.426946163177490234e+00 8.316261172294616699e-01 -1.189619541168212891e+00
2.596000000000000000e+03 2.327663230895996094e+01 -7.599159240722656250e+00 1.753458678722381592e-01 -3.891709744930267334e-01 -6.414753198623657227e-02 -2.698746621608734131e-01
2.597000000000000000e+03 1.934735870361328125e+01 -7.983813285827636719e+00 6.956093013286590576e-02 -1.652289479970932007e-01 -2.870040386915206909e-02 -5.516816675662994385e-02
2.598000000000000000e+03 7.456093597412109375e+01 -2.117927742004394531e+01 -4.846230745315551758e-01 6.736874580383300781e+00 1.875675439834594727e+00 1.431357301771640778e-02
2.599000000000000000e+03 7.454077148437500000e+01 -2.017357254028320312e+01 -5.239896178245544434e-01 6.867671489715576172e+00 1.903104543685913086e+00 1.455344408750534058e-01
2.600000000000000000e+03 1.940169143676757812e+01 -8.698101043701171875e+00 1.747697144746780396e-01 -1.889381706714630127e-01 -4.250537604093551636e-03 -4.266161099076271057e-02
2.601000000000000000e+03 1.802873229980468750e+01 -8.935231208801269531e+00 1.720971763134002686e-01 -1.065680384635925293e-01 1.965874247252941132e-02 -6.069523282349109650e-03
2.602000000000000000e+03 1.713702392578125000e+01 -1.132068729400634766e+01 4.554075002670288086e-01 -5.090072005987167358e-02 1.213520392775535583e-01 5.945386737585067749e-02
2.603000000000000000e+03 7.199845886230468750e+01 -3.497450828552246094e+00 -5.354887247085571289e-01 4.350661754608154297e+00 1.144551992416381836e+00 -9.633056521415710449e-01
2.604000000000000000e+03 7.255540466308593750e+01 -5.481023311614990234e+00 -4.729957878589630127e-01 4.711204528808593750e+00 1.271462559700012207e+00 -9.345909357070922852e-01
2.605000000000000000e+03 1.078327846527099609e+01 9.076648712158203125e+00 4.898530896753072739e-04 1.553428592160344124e-04 1.935587933985516429e-04 -5.149594653630629182e-05
2.606000000000000000e+03 9.127877235412597656e+00 2.258767318725585938e+01 1.231908099725842476e-03 8.398922363994643092e-05 3.947692166548222303e-04 -5.102001596242189407e-04
2.607000000000000000e+03 7.111666870117187500e+01 -8.555631637573242188e+00 4.202246665954589844e-02 2.162186622619628906e+00 6.612626910209655762e-01 -4.525847136974334717e-01
2.608000000000000000e+03 2.083534240722656250e+01 -1.159494590759277344e+01 5.681164264678955078e-01 -2.959959506988525391e-01 8.163615316152572632e-02 7.083683460950851440e-02
2.609000000000000000e+03 2.200162315368652344e+01 -1.173914527893066406e+01 6.382921934127807617e-01 -3.710247576236724854e-01 8.018022030591964722e-02 8.282160758972167969e-02
2.610000000000000000e+03 5.449745559692382812e+01 8.565903663635253906e+00 3.392156660556793213e-01 3.480307161808013916e-01 2.061739116907119751e-01 -1.675542742013931274e-01
2.611000000000000000e+03 7.429398345947265625e+01 -7.431795120239257812e+00 -5.849297046661376953e-01 6.828081607818603516e+00 1.872945547103881836e+00 -1.270752191543579102e+00
2.612000000000000000e+03 7.354500579833984375e+01 -7.326736450195312500e+00 -3.778868317604064941e-01 5.648700237274169922e+00 1.581243991851806641e+00 -1.251872062683105469e+00
2.613000000000000000e+03 3.202665328979492188e+01 -8.611779212951660156e+00 1.747453093528747559e+00 8.135555982589721680e-01 7.683026194572448730e-01 1.428803056478500366e-01
2.614000000000000000e+03 2.324313735961914062e+01 -1.075707817077636719e+01 6.744893193244934082e-01 -4.700379669666290283e-01 6.133540719747543335e-02 3.084209933876991272e-02
2.615000000000000000e+03 1.191708278656005859e+01 8.097633361816406250e+00 5.709286197088658810e-04 2.815271436702460051e-04 2.557367261033505201e-04 -6.104831118136644363e-05
2.616000000000000000e+03 1.162471199035644531e+01 1.029510307312011719e+01 5.676811560988426208e-04 9.680263610789552331e-05 1.993451442103832960e-04 -2.327869733562693000e-04
2.617000000000000000e+03 6.005756378173828125e+00 7.862928390502929688e+00 -5.359388305805623531e-04 1.313592947553843260e-04 -1.213738578371703625e-04 -1.042080621118657291e-04
2.618000000000000000e+03 2.421776008605957031e+01 -1.175361061096191406e+01 8.360596299171447754e-01 -5.002411007881164551e-01 1.007455661892890930e-01 1.626226305961608887e-01
2.619000000000000000e+03 2.538998413085937500e+01 -7.437825679779052734e+00 3.370361626148223877e-01 -5.601733326911926270e-01 -6.694114953279495239e-02 -4.267194569110870361e-01
2.620000000000000000e+03 2.463315582275390625e+01 -6.909534454345703125e+00 9.624239057302474976e-02 -4.509762823581695557e-01 -1.064201667904853821e-01 -4.236088395118713379e-01
2.621000000000000000e+03 1.142107295989990234e+01 -1.107086753845214844e+01 2.169353067874908447e-01 3.551695644855499268e-01 1.716314554214477539e-01 -5.401341617107391357e-02
2.622000000000000000e+03 8.925573348999023438e+00 8.649293899536132812e+00 5.840245285071432590e-04 -6.209094135556370020e-05 1.565800776006653905e-04 -9.012989903567358851e-05
2.623000000000000000e+03 6.987467956542968750e+01 -4.129943847656250000e+00 -7.743631601333618164e-01 2.471677541732788086e+00 5.091943740844726562e-01 -5.722216963768005371e-01
2.624000000000000000e+03 7.068975830078125000e+01 4.481197357177734375e+00 -1.567588895559310913e-01 3.616488933563232422e+00 1.037919044494628906e+00 -1.676187396049499512e+00
2.625000000000000000e+03 6.503796386718750000e+01 2.621154785156250000e+00 -9.823769330978393555e-01 8.678117394447326660e-01 -3.436955064535140991e-02 -1.085687637329101562e+00
2.626000000000000000e+03 4.913745880126953125e+01 1.184676265716552734e+01 1.911867022514343262e+00 2.372260093688964844e+00 1.285238146781921387e+00 1.500046253204345703e+00
2.627000000000000000e+03 1.811452674865722656e+01 -1.193087387084960938e+01 5.396428108215332031e-01 -1.330426931381225586e-01 1.219800412654876709e-01 6.286358833312988281e-02
2.628000000000000000e+03 1.968183898925781250e+01 -1.135643672943115234e+01 5.104379057884216309e-01 -2.328682988882064819e-01 8.327087759971618652e-02 4.994340986013412476e-02
2.629000000000000000e+03 1.407788372039794922e+01 -1.113331508636474609e+01 3.611833453178405762e-01 1.959175169467926025e-01 1.671302616596221924e-01 4.270500317215919495e-02
2.630000000000000000e+03 1.251039314270019531e+01 -9.430643081665039062e+00 7.821869850158691406e-02 2.355406731367111206e-01 9.412781149148941040e-02 -6.981123983860015869e-02
2.631000000000000000e+03 3.081340599060058594e+01 -1.034569358825683594e+01 1.778536915779113770e+00 1.926727294921875000e-01 5.913628935813903809e-01 2.571918964385986328e-01
2.632000000000000000e+03 7.292716979980468750e+01 -3.478126823902130127e-01 -3.805485069751739502e-01 5.078328132629394531e+00 1.409333944320678711e+00 -1.292796969413757324e+00
2.633000000000000000e+03 7.215051269531250000e+01 8.862348794937133789e-01 -3.698972761631011963e-01 4.535205364227294922e+00 1.249592423439025879e+00 -1.404914259910583496e+00
2.634000000000000000e+03 8.001099586486816406e+00 8.443109512329101562e+00 -6.854481180198490620e-04 1.626985467737540603e-04 -1.568248699186369777e-04 2.691532608878333122e-05
2.635000000000000000e+03 3.352571105957031250e+01 -7.874076843261718750e+00 1.757318615913391113e+00 1.860461711883544922e+00 1.085334062576293945e+00 2.742022573947906494e-01
2.636000000000000000e+03 8.315692901611328125e+00 -1.160908317565917969e+01 1.507805585861206055e-01 3.677150607109069824e-01 1.555486917495727539e-01 -1.847827136516571045e-01
2.637000000000000000e+03 7.095260620117187500e+01 -7.371932029724121094e+00 -2.293364256620407104e-01 2.476983547210693359e+00 6.742941737174987793e-01 -4.626951515674591064e-01
2.638000000000000000e+03 7.318424987792968750e+01 -5.651658058166503906e+00 -4.724878668785095215e-01 5.345806121826171875e+00 1.461995482444763184e+00 -9.853963255882263184e-01
2.639000000000000000e+03 7.021420478820800781e+00 -8.338856697082519531e+00 -1.002876758575439453e-01 1.138365045189857483e-01 4.064647480845451355e-03 -3.196974396705627441e-01
2.640000000000000000e+03 7.829422473907470703e+00 -7.912825584411621094e+00 -1.163752302527427673e-01 1.550745218992233276e-01 1.160978712141513824e-02 -2.933028340339660645e-01
2.641000000000000000e+03 9.577316284179687500e+00 -9.070472717285156250e+00 -5.006898939609527588e-02 2.592995762825012207e-01 6.276917457580566406e-02 -2.111404240131378174e-01
2.642000000000000000e+03 7.024539184570312500e+01 1.217206287384033203e+01 4.193486273288726807e-01 3.263881206512451172e+00 1.104969024658203125e+00 -1.551565647125244141e+00
2.643000000000000000e+03 7.212956237792968750e+01 9.880499839782714844e+00 2.251367717981338501e-01 3.979598999023437500e+00 1.261420726776123047e+00 -1.586997628211975098e+00
2.644000000000000000e+03 6.924923706054687500e+01 1.912128639221191406e+01 6.074357032775878906e-01 2.981258392333984375e+00 1.076608180999755859e+00 -1.020834088325500488e+00
2.645000000000000000e+03 7.111948394775390625e+01 1.637779045104980469e+01 4.534156620502471924e-01 3.365636587142944336e+00 1.145715713500976562e+00 -1.217570662498474121e+00
2.646000000000000000e+03 2.425844383239746094e+01 -1.083148574829101562e+01 7.421141266822814941e-01 -5.106514692306518555e-01 6.943879276514053345e-02 4.830704629421234131e-02
2.647000000000000000e+03 2.660236167907714844e+01 -1.126519966125488281e+01 1.134543776512145996e+00 -5.844003558158874512e-01 1.650430411100387573e-01 2.248633205890655518e-01
2.648000000000000000e+03 2.871249198913574219e+01 -1.198831462860107422e+01 1.409539222717285156e+00 -4.225973784923553467e-01 2.960825562477111816e-01 4.587113857269287109e-01
2.649000000000000000e+03 3.545526504516601562e+01 -1.237424373626708984e+01 1.614016652107238770e+00 4.474991798400878906e+00 1.826702594757080078e+00 2.544721961021423340e-01
2.650000000000000000e+03 3.499578475952148438e+01 -1.081139183044433594e+01 1.879855036735534668e+00 3.824580907821655273e+00 1.711330771446228027e+00 3.387899994850158691e-01
2.651000000000000000e+03 1.092497634887695312e+01 1.377834320068359375e+01 -6.865040631964802742e-04 -1.990649470826610923e-04 -2.656707074493169785e-04 5.301792407408356667e-04
2.652000000000000000e+03 7.696113586425781250e+00 1.032614898681640625e+01 -7.856954471208155155e-04 1.791444083210080862e-05 -2.303343062521889806e-04 5.667000368703156710e-05
2.653000000000000000e+03 8.933992385864257812e+00 1.393566322326660156e+01 -1.029934384860098362e-03 6.935426790732890368e-05 -2.881740219891071320e-04 2.516999084036797285e-04
2.654000000000000000e+03 8.904121398925781250e+00 1.134808540344238281e+01 -7.798897568136453629e-04 -7.612050103489309549e-05 -2.568030613474547863e-04 2.698689932003617287e-04
2.655000000000000000e+03 6.838284301757812500e+01 -1.542060673236846924e-01 -9.383980631828308105e-01 2.078222751617431641e+00 3.419474065303802490e-01 -1.083130240440368652e+00
2.656000000000000000e+03 7.784206867218017578e+00 2.012184333801269531e+01 -8.313173893839120865e-04 -2.207172656198963523e-04 -3.156104066874831915e-04 2.171975647797808051e-04
2.657000000000000000e+03 6.628831863403320312e+00 2.024802017211914062e+01 9.006214677356183529e-04 1.272405643248930573e-04 3.083586052525788546e-04 -8.876389620127156377e-05
2.658000000000000000e+03 3.557209396362304688e+01 -9.723491668701171875e+00 1.940998077392578125e+00 4.681842327117919922e+00 1.986852169036865234e+00 4.870626926422119141e-01
2.659000000000000000e+03 7.603026390075683594e+00 -9.077242851257324219e+00 -5.544592440128326416e-02 1.824830621480941772e-01 3.811114281415939331e-02 -3.040474057197570801e-01
2.660000000000000000e+03 8.166626930236816406e+00 -9.642469406127929688e+00 -3.283987939357757568e-02 2.318985909223556519e-01 5.971761420369148254e-02 -2.729127109050750732e-01
2.661000000000000000e+03 8.584114074707031250e+00 -1.069504451751708984e+01 6.409241259098052979e-02 3.149545192718505859e-01 1.137140765786170959e-01 -2.269713878631591797e-01
2.662000000000000000e+03 7.649158477783203125e+00 1.660278892517089844e+01 7.636417285539209843e-04 -2.757326292339712381e-04 1.463727239752188325e-04 3.507578512653708458e-04
2.663000000000000000e+03 7.889472961425781250e+00 2.143112564086914062e+01 1.017860602587461472e-03 1.475352764828130603e-04 3.496187564451247454e-04 -2.955429954454302788e-04
2.664000000000000000e+03 3.271059417724609375e+01 -8.067962646484375000e+00 1.740190625190734863e+00 1.099572777748107910e+00 8.519290685653686523e-01 1.423354297876358032e-01
2.665000000000000000e+03 7.838018894195556641e+00 1.535954284667968750e+01 -7.927792030386626720e-04 7.772936442052014172e-06 -2.355018805246800184e-04 -4.247262768330983818e-05
2.666000000000000000e+03 6.190774917602539062e+01 4.929414749145507812e+00 -7.474253773689270020e-01 3.272625505924224854e-01 -1.260488480329513550e-01 -9.386775493621826172e-01
2.667000000000000000e+03 7.030709838867187500e+01 -1.988412261009216309e+00 -7.337007522583007812e-01 3.135125398635864258e+00 7.204273939132690430e-01 -9.876914024353027344e-01
2.668000000000000000e+03 9.711009979248046875e+00 3.008783912658691406e+01 -7.355712004937231541e-04 -8.840082446113228798e-04 -4.858738393522799015e-04 2.637897850945591927e-04
2.669000000000000000e+03 4.203981018066406250e+01 -3.087402725219726562e+01 -2.194623202085494995e-01 3.654763460159301758e+00 1.030590295791625977e+00 -7.363698482513427734e-01
2.670000000000000000e+03 7.060713958740234375e+01 5.678041458129882812e+00 -5.613895133137702942e-02 3.542429447174072266e+00 1.045887112617492676e+00 -1.715635061264038086e+00
2.671000000000000000e+03 9.522477149963378906e+00 1.689515686035156250e+01 -9.842974832281470299e-04 -1.823672791942954063e-04 -3.499994054436683655e-04 2.216914144810289145e-04
2.672000000000000000e+03 5.554928207397460938e+01 9.288993835449218750e+00 5.594714283943176270e-01 4.434398114681243896e-01 3.008733689785003662e-01 -2.998020350933074951e-01
2.673000000000000000e+03 1.013642501831054688e+01 1.135002994537353516e+01 7.197939557954668999e-04 7.664138684049248695e-05 2.389306027907878160e-04 -2.413009351585060358e-04
2.674000000000000000e+03 7.004856872558593750e+01 -3.068660736083984375e+00 -7.619773745536804199e-01 2.812630891799926758e+00 6.151961088180541992e-01 -7.749323248863220215e-01
2.675000000000000000e+03 7.227422332763671875e+01 -2.714865446090698242e+00 -5.103489756584167480e-01 4.642251968383789062e+00 1.239570856094360352e+00 -1.044290542602539062e+00
2.676000000000000000e+03 4.792863082885742188e+01 1.157827949523925781e+01 1.955398797988891602e+00 3.003847122192382812e+00 1.487773776054382324e+00 1.859849214553833008e+00
2.677000000000000000e+03 3.177674674987792969e+01 -1.087502002716064453e+01 1.948363542556762695e+00 7.268421649932861328e-01 8.025617003440856934e-01 3.759356737136840820e-01
2.678000000000000000e+03 5.828561019897460938e+01 6.357345104217529297e+00 -5.966904163360595703e-01 1.175117939710617065e-01 -1.437535881996154785e-01 -6.082625985145568848e-01
2.679000000000000000e+03 8.956865310668945312e+00 1.995993423461914062e+01 8.246441720984876156e-04 3.322001139167696238e-04 3.470532828941941261e-04 -3.061308234464377165e-04
2.680000000000000000e+03 1.092798328399658203e+01 3.646977615356445312e+01 1.239085220731794834e-03 -3.906741912942379713e-04 2.545233292039483786e-04 -9.618378244340419769e-04
2.681000000000000000e+03 8.266008377075195312e+00 3.303459930419921875e+01 1.486113178543746471e-03 -5.700255132978782058e-05 4.287332121748477221e-04 -8.440492092631757259e-04
2.682000000000000000e+03 3.464805603027343750e+01 -7.975439548492431641e+00 1.791529297828674316e+00 3.048884391784667969e+00 1.452124118804931641e+00 4.355777204036712646e-01
2.683000000000000000e+03 6.998571777343750000e+01 1.351535987854003906e+01 4.875366687774658203e-01 3.151636838912963867e+00 1.091752052307128906e+00 -1.466206192970275879e+00
2.684000000000000000e+03 5.364888763427734375e+01 7.968575954437255859e+00 1.740070525556802750e-03 2.808558046817779541e-01 8.477876335382461548e-02 -1.120289266109466553e-01
2.685000000000000000e+03 1.052540969848632812e+01 -1.003133487701416016e+01 6.332964450120925903e-02 3.216349482536315918e-01 1.154893785715103149e-01 -1.349647641181945801e-01
2.686000000000000000e+03 1.194072246551513672e+01 2.850369644165039062e+01 -1.604408840648829937e-03 -3.158877661917358637e-04 -5.760889616794884205e-04 1.572616383782587945e-05
2.687000000000000000e+03 4.890536499023437500e+01 7.133564949035644531e+00 3.673925399780273438e-01 8.371865153312683105e-01 3.613737225532531738e-01 8.753108382225036621e-01
2.688000000000000000e+03 7.068648529052734375e+01 2.085018730163574219e+01 4.711915552616119385e-01 3.177871704101562500e+00 1.094718933105468750e+00 -8.693074584007263184e-01
2.689000000000000000e+03 6.906412506103515625e+01 2.076662063598632812e+01 6.067128181457519531e-01 2.968102693557739258e+00 1.072444677352905273e+00 -8.788238167762756348e-01
2.690000000000000000e+03 6.950637817382812500e+01 -5.330542922019958496e-01 -7.942347526550292969e-01 2.729868888854980469e+00 5.806902050971984863e-01 -1.148416280746459961e+00
2.691000000000000000e+03 3.138094902038574219e+01 -9.368118286132812500e+00 1.870192885398864746e+00 4.182399213314056396e-01 6.865298151969909668e-01 1.862587034702301025e-01
2.692000000000000000e+03 7.068027496337890625e+01 2.610885620117187500e+01 3.578922748565673828e-01 3.132150411605834961e+00 1.047012805938720703e+00 -4.958432614803314209e-01
2.693000000000000000e+03 7.053591918945312500e+01 2.430757331848144531e+01 4.140914380550384521e-01 3.129375696182250977e+00 1.063040137290954590e+00 -6.110088825225830078e-01
2.694000000000000000e+03 5.055787277221679688e+01 7.167488098144531250e+00 8.886671066284179688e-02 4.229408204555511475e-01 1.535422652959823608e-01 2.789689600467681885e-01
2.695000000000000000e+03 7.706163406372070312e+00 1.139508724212646484e+01 7.591670146211981773e-04 2.783282252494245768e-05 2.360999496886506677e-04 -7.966181874508038163e-05
2.696000000000000000e+03 6.124782180786132812e+01 6.261566638946533203e+00 -3.824362456798553467e-01 4.164008796215057373e-01 1.018939074128866196e-02 -9.880855679512023926e-01
2.697000000000000000e+03 6.941529846191406250e+01 1.762017059326171875e+01 5.972512364387512207e-01 3.009634017944335938e+00 1.082065582275390625e+00 -1.145387649536132812e+00
2.698000000000000000e+03 6.957606506347656250e+01 1.622544097900390625e+01 5.750821232795715332e-01 3.039575815200805664e+00 1.084397435188293457e+00 -1.259912490844726562e+00
2.699000000000000000e+03 5.733592224121093750e+01 8.709659576416015625e+00 2.982290685176849365e-01 3.753593564033508301e-01 2.020765244960784912e-01 -5.591605305671691895e-01
2.700000000000000000e+03 7.059943389892578125e+01 1.087124633789062500e+01 3.418640792369842529e-01 3.397185802459716797e+00 1.121714949607849121e+00 -1.606191158294677734e+00
2.701000000000000000e+03 7.159751129150390625e+01 8.461107254028320312e+00 1.613051593303680420e-01 3.855262041091918945e+00 1.204970240592956543e+00 -1.654285907745361328e+00
2.702000000000000000e+03 5.311458206176757812e+01 1.777340316772460938e+01 1.667737007141113281e+00 2.408825874328613281e+00 1.222968935966491699e+00 7.109966874122619629e-01
2.703000000000000000e+03 5.038214492797851562e+01 1.701036071777343750e+01 1.702160596847534180e+00 3.080272436141967773e+00 1.434729933738708496e+00 1.246826887130737305e+00
2.704000000000000000e+03 7.000430297851562500e+01 -3.607777786254882812e+01 4.473186433315277100e-01 2.530346870422363281e+00 8.932996988296508789e-01 5.659852623939514160e-01
2.705000000000000000e+03 7.183089447021484375e+01 -3.534517669677734375e+01 2.860704660415649414e-01 4.024329185485839844e+00 1.293119907379150391e+00 6.501862406730651855e-01
2.706000000000000000e+03 4.928405380249023438e+01 1.027719020843505859e+01 1.609388232231140137e+00 1.778177857398986816e+00 1.016269803047180176e+00 1.278306722640991211e+00
2.707000000000000000e+03 7.484402465820312500e+01 -2.989572143554687500e+01 -2.468690723180770874e-01 7.347230434417724609e+00 2.130108356475830078e+00 5.606253147125244141e-01
2.708000000000000000e+03 4.349015808105468750e+01 -3.314212417602539062e+01 -4.632304906845092773e-01 3.168793916702270508e+00 8.116689920425415039e-01 -6.561009883880615234e-01
2.709000000000000000e+03 6.632363891601562500e+01 2.043673038482666016e+00 -9.163885712623596191e-01 1.301573514938354492e+00 1.155554875731468201e-01 -1.172646999359130859e+00
2.710000000000000000e+03 6.304698181152343750e+01 5.640823364257812500e+00 -4.422138929367065430e-01 6.648079752922058105e-01 6.677822768688201904e-02 -1.154360651969909668e+00
2.711000000000000000e+03 6.729020690917968750e+01 2.962908935546875000e+01 4.202495813369750977e-01 3.053052902221679688e+00 1.041990756988525391e+00 -2.535676062107086182e-01
2.712000000000000000e+03 7.056172943115234375e+01 2.253953742980957031e+01 4.549355506896972656e-01 3.143303394317626953e+00 1.079471707344055176e+00 -7.388371825218200684e-01
2.713000000000000000e+03 4.966690444946289062e+01 2.363138198852539062e+01 1.002870678901672363e+00 3.945597648620605469e+00 1.484540462493896484e+00 8.307869434356689453e-01
2.714000000000000000e+03 1.061713790893554688e+01 3.130366706848144531e+01 1.052596839144825935e-03 8.241645409725606441e-04 5.630283849313855171e-04 -5.202591419219970703e-04
2.715000000000000000e+03 4.836412429809570312e+01 -3.230385208129882812e+01 -1.084367930889129639e-01 1.586157679557800293e+00 4.433162510395050049e-01 -6.850339174270629883e-01
2.716000000000000000e+03 1.191872501373291016e+01 3.884373474121093750e+01 -1.678260625340044498e-03 1.317903865128755569e-03 -1.081070222426205873e-04 -6.992713897489011288e-04
2.717000000000000000e+03 8.595377922058105469e+00 3.908887863159179688e+01 7.771626696921885014e-04 -5.632194806821644306e-04 6.418295379262417555e-05 2.797203487716615200e-04
2.718000000000000000e+03 5.109674835205078125e+01 1.585778236389160156e+01 1.813108086585998535e+00 2.583331584930419922e+00 1.318931937217712402e+00 1.126504898071289062e+00
2.719000000000000000e+03 4.835638046264648438e+01 -3.015062332153320312e+01 6.171869859099388123e-02 1.395708084106445312e+00 4.372280538082122803e-01 -6.686652898788452148e-01
2.720000000000000000e+03 7.420326232910156250e+01 -1.847753334045410156e+01 -3.934924304485321045e-01 6.177330970764160156e+00 1.735151529312133789e+00 7.697265148162841797e-01
2.721000000000000000e+03 7.511570739746093750e+01 -9.446136474609375000e+00 -1.051502943038940430e+00 9.231893539428710938e+00 2.454117059707641602e+00 -2.176141023635864258e+00
2.722000000000000000e+03 7.476374816894531250e+01 -9.380401611328125000e+00 -6.736084818840026855e-01 8.075654983520507812e+00 2.220613956451416016e+00 -2.348971843719482422e+00
2.723000000000000000e+03 7.494022369384765625e+01 -9.010816574096679688e+00 -9.392441511154174805e-01 8.489793777465820312e+00 2.265164852142333984e+00 -1.913758754730224609e+00
2.724000000000000000e+03 7.356724548339843750e+01 -1.807288360595703125e+01 -3.555167838931083679e-02 4.913597583770751953e+00 1.463413715362548828e+00 9.489846229553222656e-01
2.725000000000000000e+03 7.447437286376953125e+01 -1.900845336914062500e+01 -5.717462301254272461e-01 6.956521034240722656e+00 1.915432572364807129e+00 4.668115079402923584e-01
2.726000000000000000e+03 1.095787048339843750e+01 -7.425203323364257812e+00 -1.463851332664489746e-01 1.900843977928161621e-01 1.310977991670370102e-02 -1.762253493070602417e-01
2.727000000000000000e+03 1.026104068756103516e+01 -7.241941928863525391e+00 -1.589350551366806030e-01 1.904358863830566406e-01 9.450247511267662048e-03 -2.000667154788970947e-01
2.728000000000000000e+03 7.314494323730468750e+01 -1.885161972045898438e+01 -5.127372220158576965e-03 4.263417720794677734e+00 1.277487158775329590e+00 4.466066658496856689e-01
2.729000000000000000e+03 7.547213745117187500e+01 -9.504796981811523438e+00 -1.307824730873107910e+00 1.011302566528320312e+01 2.641560316085815430e+00 -1.959981679916381836e+00
2.730000000000000000e+03 1.254712963104248047e+01 -7.496924400329589844e+00 -1.187285259366035461e-01 1.706695109605789185e-01 1.558229606598615646e-02 -1.125070899724960327e-01
2.731000000000000000e+03 7.365848541259765625e+01 -5.097400188446044922e+00 -4.980660676956176758e-01 5.875260353088378906e+00 1.613158345222473145e+00 -1.014916181564331055e+00
2.732000000000000000e+03 7.377861785888671875e+01 -1.978687095642089844e+01 -3.026816248893737793e-01 5.594006061553955078e+00 1.587397336959838867e+00 2.974141240119934082e-01
2.733000000000000000e+03 7.499121093750000000e+01 -1.781091880798339844e+01 -9.848471283912658691e-01 8.546203613281250000e+00 2.268406867980957031e+00 1.089919447898864746e+00
2.734000000000000000e+03 1.860131645202636719e+01 -8.032603263854980469e+00 5.756574869155883789e-02 -1.204164326190948486e-01 -1.885520480573177338e-02 -3.475771844387054443e-02
2.735000000000000000e+03 1.784555625915527344e+01 -8.097531318664550781e+00 4.865675792098045349e-02 -8.734862506389617920e-02 -1.160755939781665802e-02 -2.820382267236709595e-02
2.736000000000000000e+03 7.462036132812500000e+01 -1.738498687744140625e+01 -5.225366950035095215e-01 7.539427757263183594e+00 2.105067491531372070e+00 1.547058820724487305e+00
2.737000000000000000e+03 7.614730072021484375e+01 -1.775378799438476562e+01 -1.720609188079833984e+00 1.118163013458251953e+01 2.838306188583374023e+00 7.582055777311325073e-02
2.738000000000000000e+03 9.656832695007324219e+00 -7.220215320587158203e+00 -1.615029424428939819e-01 1.870118975639343262e-01 7.652686443179845810e-03 -2.264332026243209839e-01
2.739000000000000000e+03 7.439794921875000000e+01 -6.712740421295166016e+00 -5.949408411979675293e-01 6.831213951110839844e+00 1.870882034301757812e+00 -1.113353610038757324e+00
2.740000000000000000e+03 7.250014495849609375e+01 -7.809177875518798828e+00 -1.044373139739036560e-01 4.069686412811279297e+00 1.189574718475341797e+00 -1.096065163612365723e+00
2.741000000000000000e+03 1.477205944061279297e+01 -8.109898567199707031e+00 -1.100480183959007263e-02 9.168088436126708984e-02 2.420282363891601562e-02 -3.527844697237014771e-02
2.742000000000000000e+03 1.799374771118164062e+01 -9.780014991760253906e+00 2.823706567287445068e-01 -1.095051020383834839e-01 5.185966938734054565e-02 1.534123625606298447e-02
2.743000000000000000e+03 1.433495998382568359e+01 -8.739878654479980469e+00 5.910697206854820251e-02 1.332894116640090942e-01 5.771891772747039795e-02 -2.378541044890880585e-02
2.744000000000000000e+03 1.614113044738769531e+01 -9.484739303588867188e+00 1.964573562145233154e-01 1.500473730266094208e-02 6.343862414360046387e-02 1.260282658040523529e-02
2.745000000000000000e+03 1.157725334167480469e+01 -9.278923988342285156e+00 2.602456882596015930e-02 2.657715082168579102e-01 8.753882348537445068e-02 -1.106123924255371094e-01
2.746000000000000000e+03 1.150863933563232422e+01 -1.016930770874023438e+01 1.308575272560119629e-01 3.038078248500823975e-01 1.303995996713638306e-01 -8.234240114688873291e-02
2.747000000000000000e+03 2.703234863281250000e+01 -7.729226112365722656e+00 7.040491104125976562e-01 -6.659316420555114746e-01 1.143523305654525757e-02 -3.931946158409118652e-01
2.748000000000000000e+03 7.235749053955078125e+01 -6.258375167846679688e+00 -3.413445949554443359e-01 4.309352874755859375e+00 1.190402507781982422e+00 -9.391999840736389160e-01
2.749000000000000000e+03 9.179693222045898438e+00 7.794129371643066406e+00 -5.243600462563335896e-04 1.559611700940877199e-05 -1.526291889604181051e-04 -5.747583054471760988e-05
2.750000000000000000e+03 7.457714080810546875e+01 -8.666297912597656250e+00 -6.859201192855834961e-01 7.563396453857421875e+00 2.063242912292480469e+00 -1.789866089820861816e+00
2.751000000000000000e+03 2.216438102722167969e+01 -1.079808521270751953e+01 5.693138837814331055e-01 -3.851056993007659912e-01 5.526246130466461182e-02 3.911685571074485779e-02
2.752000000000000000e+03 2.154575538635253906e+01 -8.072005271911621094e+00 1.581900864839553833e-01 -2.878910303115844727e-01 -3.891028836369514465e-02 -1.320549845695495605e-01
2.753000000000000000e+03 2.194715309143066406e+01 -9.015007019042968750e+00 3.463600277900695801e-01 -3.649522662162780762e-01 -5.577667150646448135e-03 -1.100905090570449829e-01
2.754000000000000000e+03 8.803512573242187500e+00 -9.916036605834960938e+00 3.634759690612554550e-03 2.823475301265716553e-01 8.579468727111816406e-02 -2.287572175264358521e-01
2.755000000000000000e+03 2.000909614562988281e+01 -1.039230537414550781e+01 4.221406877040863037e-01 -2.511524558067321777e-01 5.129646882414817810e-02 1.698683947324752808e-02
2.756000000000000000e+03 1.005315971374511719e+01 8.000593185424804688e+00 4.466402460820972919e-04 1.247459149453788996e-04 1.714158570393919945e-04 1.017351532937027514e-04
2.757000000000000000e+03 8.280834197998046875e+00 7.581330776214599609e+00 5.825757398270070553e-04 -1.168351300293579698e-04 1.397221785737201571e-04 4.219523543724790215e-05
2.758000000000000000e+03 7.206787872314453125e+01 -8.333973884582519531e+00 7.587590068578720093e-02 3.235047340393066406e+00 9.932769536972045898e-01 -9.533776044845581055e-01
2.759000000000000000e+03 5.248830032348632812e+01 8.780033111572265625e+00 6.033502221107482910e-01 5.587159991264343262e-01 3.486198782920837402e-01 1.722115874290466309e-01
2.760000000000000000e+03 7.070505523681640625e+01 -6.669514656066894531e+00 -3.785595893859863281e-01 2.527336359024047852e+00 6.446330547332763672e-01 -4.463553726673126221e-01
2.761000000000000000e+03 7.324131774902343750e+01 -4.258187770843505859e+00 -4.599348604679107666e-01 5.464813232421875000e+00 1.501463413238525391e+00 -9.844804406166076660e-01
2.762000000000000000e+03 6.669439697265625000e+01 3.284321546554565430e+00 -6.166311502456665039e-01 1.623016953468322754e+00 3.019157350063323975e-01 -1.387876033782958984e+00
2.763000000000000000e+03 1.354482746124267578e+01 -1.024275493621826172e+01 2.115624099969863892e-01 2.326489239931106567e-01 1.332633942365646362e-01 3.179071238264441490e-03
2.764000000000000000e+03 5.186172485351562500e+01 1.278572750091552734e+01 1.755898833274841309e+00 1.568927168846130371e+00 9.974477887153625488e-01 7.839609980583190918e-01
2.765000000000000000e+03 7.104687500000000000e+01 -5.030734062194824219e+00 -5.411120653152465820e-01 3.265502214431762695e+00 8.173170089721679688e-01 -7.135535478591918945e-01
2.766000000000000000e+03 7.106788635253906250e+01 -3.264089584350585938e+00 -6.479799747467041016e-01 3.566392660140991211e+00 8.755238056182861328e-01 -9.112306833267211914e-01
2.767000000000000000e+03 7.087535095214843750e+01 -6.063760280609130859e+00 -4.388341307640075684e-01 2.868121623992919922e+00 7.287862300872802734e-01 -5.858994126319885254e-01
2.768000000000000000e+03 7.193743896484375000e+01 -7.452601432800292969e+00 -1.681876778602600098e-01 3.529790878295898438e+00 1.008481025695800781e+00 -8.632388710975646973e-01
2.769000000000000000e+03 6.885462188720703125e+01 1.189986515045166016e+01 4.895586669445037842e-01 2.833277463912963867e+00 9.968508481979370117e-01 -1.568757891654968262e+00
2.770000000000000000e+03 6.934645080566406250e+01 1.051181888580322266e+01 3.807929754257202148e-01 2.978152275085449219e+00 1.007683515548706055e+00 -1.646246075630187988e+00
2.771000000000000000e+03 1.629850769042968750e+01 -1.069992828369140625e+01 3.547766804695129395e-01 4.873762372881174088e-03 1.078951284289360046e-01 4.223773628473281860e-02
2.772000000000000000e+03 7.088930511474609375e+01 2.369905412197113037e-01 -5.493173003196716309e-01 3.680106401443481445e+00 9.392367005348205566e-01 -1.334659934043884277e+00
2.773000000000000000e+03 2.464791107177734375e+01 -8.280679702758789062e+00 4.851724207401275635e-01 -5.391233563423156738e-01 -1.618527062237262726e-02 -2.603867948055267334e-01
2.774000000000000000e+03 2.409069252014160156e+01 -7.488483428955078125e+00 2.206949889659881592e-01 -4.461485147476196289e-01 -6.763605773448944092e-02 -3.266150355339050293e-01
2.775000000000000000e+03 9.489839553833007812e+00 -1.086183452606201172e+01 1.120021343231201172e-01 3.653502762317657471e-01 1.432057172060012817e-01 -1.523117423057556152e-01
2.776000000000000000e+03 2.801581382751464844e+01 -7.528279781341552734e+00 8.504677414894104004e-01 -6.603287458419799805e-01 5.704170465469360352e-02 -4.058806598186492920e-01
2.777000000000000000e+03 6.939537048339843750e+01 3.490869760513305664e+00 -3.541489839553833008e-01 2.916460514068603516e+00 7.686934471130371094e-01 -1.603380322456359863e+00
2.778000000000000000e+03 1.860131072998046875e+01 -1.100452041625976562e+01 4.467821121215820312e-01 -1.590440273284912109e-01 8.632142841815948486e-02 4.413850978016853333e-02
2.779000000000000000e+03 1.000209617614746094e+01 1.259317398071289062e+01 -8.717813179828226566e-04 -2.756804406089941040e-06 -2.623614273034036160e-04 3.535437281243503094e-04
2.780000000000000000e+03 7.137484741210937500e+01 -5.645059108734130859e+00 -4.911002814769744873e-01 3.325502395629882812e+00 8.503206372261047363e-01 -7.527638077735900879e-01
2.781000000000000000e+03 6.984506225585937500e+01 6.524549126625061035e-01 -6.343703866004943848e-01 3.040527820587158203e+00 7.218472361564636230e-01 -1.347652554512023926e+00
2.782000000000000000e+03 7.061095428466796875e+01 3.165584564208984375e+00 -2.937659323215484619e-01 3.583551406860351562e+00 9.869356155395507812e-01 -1.599086523056030273e+00
2.783000000000000000e+03 2.262087059020996094e+01 -9.308730125427246094e+00 4.396815896034240723e-01 -4.118561744689941406e-01 8.347627706825733185e-03 -8.928143978118896484e-02
2.784000000000000000e+03 3.299333953857421875e+01 -1.019199466705322266e+01 2.041732788085937500e+00 1.655087351799011230e+00 1.109046101570129395e+00 4.099421799182891846e-01
2.785000000000000000e+03 2.565001869201660156e+01 -1.058419036865234375e+01 9.039353132247924805e-01 -5.802055001258850098e-01 9.711894392967224121e-02 6.396552920341491699e-02
2.786000000000000000e+03 2.698927688598632812e+01 -1.015542221069335938e+01 1.128248453140258789e+00 -6.183350086212158203e-01 1.529740095138549805e-01 5.066231265664100647e-02
2.787000000000000000e+03 7.123601531982421875e+01 7.002114772796630859e+00 6.843777745962142944e-02 3.797477722167968750e+00 1.159774661064147949e+00 -1.704484105110168457e+00
2.788000000000000000e+03 6.908650970458984375e+01 2.291609048843383789e+00 -5.171081423759460449e-01 2.710473537445068359e+00 6.580095887184143066e-01 -1.483613848686218262e+00
2.789000000000000000e+03 1.926046752929687500e+01 -9.348763465881347656e+00 2.648500502109527588e-01 -1.858630031347274780e-01 2.369611337780952454e-02 -1.121812965720891953e-02
2.790000000000000000e+03 2.901976585388183594e+01 -8.800533294677734375e+00 1.295411467552185059e+00 -5.103189945220947266e-01 2.355277240276336670e-01 -1.341018676757812500e-01
2.791000000000000000e+03 6.760974121093750000e+01 1.897059822082519531e+01 7.488769888877868652e-01 2.726321458816528320e+00 1.042559504508972168e+00 -1.002101421356201172e+00
2.792000000000000000e+03 6.777134704589843750e+01 1.745536994934082031e+01 7.339357733726501465e-01 2.707198143005371094e+00 1.032340168952941895e+00 -1.137439489364624023e+00
2.793000000000000000e+03 8.366608619689941406e+00 -8.548107147216796875e+00 -9.521052986383438110e-02 1.975597441196441650e-01 3.070476464927196503e-02 -2.698875367641448975e-01
2.794000000000000000e+03 7.066052246093750000e+01 8.122499465942382812e+00 1.763574481010437012e-01 3.519167423248291016e+00 1.108657479286193848e+00 -1.707743883132934570e+00
2.795000000000000000e+03 5.346476364135742188e+01 1.166988658905029297e+01 1.426375985145568848e+00 1.015207648277282715e+00 7.324751019477844238e-01 3.034557998180389404e-01
2.796000000000000000e+03 5.044301986694335938e+01 1.227909374237060547e+01 1.821132063865661621e+00 1.951835036277770996e+00 1.131890177726745605e+00 1.154242515563964844e+00
2.797000000000000000e+03 6.007968902587890625e+01 5.732241630554199219e+00 -6.636669635772705078e-01 1.621154546737670898e-01 -1.504654586315155029e-01 -7.712112069129943848e-01
2.798000000000000000e+03 6.732372283935546875e+00 2.157344055175781250e+01 -9.953881381079554558e-04 -7.068269042065367103e-05 -3.198212361894547939e-04 1.633766514714807272e-04
2.799000000000000000e+03 5.067621231079101562e+01 1.072377204895019531e+01 1.548014998435974121e+00 1.377779603004455566e+00 8.777384161949157715e-01 9.024312496185302734e-01
2.800000000000000000e+03 5.492469787597656250e+01 7.561570644378662109e+00 -1.631921827793121338e-01 2.258236557245254517e-01 1.878944039344787598e-02 -2.788595855236053467e-01
2.801000000000000000e+03 9.495620727539062500e+00 9.797433853149414062e+00 3.526353393681347370e-04 -1.673270307946950197e-04 5.559248893405310810e-05 -8.809611244942061603e-06
2.802000000000000000e+03 8.702955245971679688e+00 9.483684539794921875e+00 -7.159958477132022381e-04 1.817703450797125697e-04 -1.602676493348553777e-04 1.910041755763813853e-04
2.803000000000000000e+03 2.824921607971191406e+01 -9.254624366760253906e+00 1.305911183357238770e+00 -5.583565235137939453e-01 2.242664098739624023e-01 -5.735660716891288757e-02
2.804000000000000000e+03 1.248544502258300781e+01 3.143030357360839844e+01 1.159573439508676529e-03 7.767037022858858109e-04 5.808831192553043365e-04 9.844238229561597109e-05
2.805000000000000000e+03 7.105947113037109375e+01 9.637250900268554688e+00 2.489158660173416138e-01 3.590064764022827148e+00 1.151694178581237793e+00 -1.646200180053710938e+00
2.806000000000000000e+03 6.857053375244140625e+01 4.976642608642578125e+00 -2.007157504558563232e-01 2.573574542999267578e+00 7.118576169013977051e-01 -1.658060073852539062e+00
2.807000000000000000e+03 6.696535491943359375e+01 2.691854667663574219e+01 5.666473507881164551e-01 2.953469276428222656e+00 1.056035041809082031e+00 -3.816200792789459229e-01
2.808000000000000000e+03 6.879461669921875000e+01 2.448446083068847656e+01 5.366452336311340332e-01 2.995454072952270508e+00 1.059629797935485840e+00 -5.868286490440368652e-01
2.809000000000000000e+03 8.757848739624023438e+00 1.031740570068359375e+01 7.411892293021082878e-04 7.302630547201260924e-05 2.442646655254065990e-04 -2.812030143104493618e-04
2.810000000000000000e+03 2.681702804565429688e+01 -6.556846618652343750e+00 2.344588041305541992e-01 -6.540126204490661621e-01 -1.258661597967147827e-01 -6.373024582862854004e-01
2.811000000000000000e+03 9.968512535095214844e+00 2.810468101501464844e+01 -1.287327148020267487e-03 -3.561387420631945133e-04 -4.930397844873368740e-04 4.090427246410399675e-04
2.812000000000000000e+03 6.417678833007812500e+01 4.631434440612792969e+00 -5.972309112548828125e-01 8.455421328544616699e-01 7.449337840080261230e-02 -1.215024232864379883e+00
2.813000000000000000e+03 6.225270462036132812e+01 6.767965316772460938e+00 -1.906122863292694092e-01 6.243907809257507324e-01 1.301335543394088745e-01 -1.134001135826110840e+00
2.814000000000000000e+03 6.074987792968750000e+01 7.566215038299560547e+00 1.139994594268500805e-03 5.096368789672851562e-01 1.532330662012100220e-01 -9.939581751823425293e-01
2.815000000000000000e+03 5.903486633300781250e+01 8.115589141845703125e+00 9.604606777429580688e-02 3.681490123271942139e-01 1.392585188150405884e-01 -7.850947380065917969e-01
2.816000000000000000e+03 1.044467449188232422e+01 1.015600967407226562e+01 -6.068371585570275784e-04 2.360696271352935582e-05 -1.749690563883632421e-04 1.023762670229189098e-04
2.817000000000000000e+03 6.889031219482421875e+01 2.255284118652343750e+01 5.816930532455444336e-01 2.971109628677368164e+00 1.065840840339660645e+00 -7.332189679145812988e-01
2.818000000000000000e+03 5.000342941284179688e+01 2.109550285339355469e+01 1.243196249008178711e+00 3.745489835739135742e+00 1.496605873107910156e+00 1.014267086982727051e+00
2.819000000000000000e+03 2.474084281921386719e+01 -9.908164024353027344e+00 7.418556213378906250e-01 -5.616965889930725098e-01 5.404770001769065857e-02 -4.895329102873802185e-02
2.820000000000000000e+03 2.308889770507812500e+01 -8.550033569335937500e+00 3.551985025405883789e-01 -4.274841248989105225e-01 -2.168568596243858337e-02 -1.782646328210830688e-01
2.821000000000000000e+03 3.273243713378906250e+01 -1.118954181671142578e+01 1.958264708518981934e+00 1.515312194824218750e+00 1.042073011398315430e+00 3.955233693122863770e-01
2.822000000000000000e+03 4.922792434692382812e+01 8.597476005554199219e+00 1.121434688568115234e+00 1.217449903488159180e+00 7.016653418540954590e-01 1.002198457717895508e+00
2.823000000000000000e+03 6.888879394531250000e+01 2.653645706176757812e+01 4.545203745365142822e-01 3.038865327835083008e+00 1.048015713691711426e+00 -4.531251192092895508e-01
2.824000000000000000e+03 6.546655273437500000e+01 3.906603336334228516e+00 -6.379777789115905762e-01 1.186928987503051758e+00 1.646853536367416382e-01 -1.315596103668212891e+00
2.825000000000000000e+03 6.491806793212890625e+01 5.850421428680419922e+00 -2.181118279695510864e-01 1.256640195846557617e+00 3.115585148334503174e-01 -1.418529033660888672e+00
2.826000000000000000e+03 5.347931385040283203e+00 3.486569976806640625e+01 1.562669203849509358e-04 3.740131505765020847e-04 1.590840256540104747e-04 3.800873528234660625e-04
2.827000000000000000e+03 7.192612648010253906e+00 3.401390838623046875e+01 -5.905767320655286312e-04 6.818376277806237340e-05 -1.567178987897932529e-04 3.206022083759307861e-04
2.828000000000000000e+03 5.336783218383789062e+01 1.642403221130371094e+01 1.742581605911254883e+00 2.077566623687744141e+00 1.146044492721557617e+00 6.632671952247619629e-01
2.829000000000000000e+03 6.796459197998046875e+01 1.604808425903320312e+01 7.032027840614318848e-01 2.712304592132568359e+00 1.024652242660522461e+00 -1.255761623382568359e+00
2.830000000000000000e+03 6.976430511474609375e+01 1.486871528625488281e+01 5.408041477203369141e-01 3.091834068298339844e+00 1.089791536331176758e+00 -1.363966584205627441e+00
2.831000000000000000e+03 5.179187393188476562e+01 2.411299896240234375e+01 1.095665574073791504e+00 3.451838970184326172e+00 1.364251375198364258e+00 7.169189453125000000e-01
2.832000000000000000e+03 7.467975616455078125e+01 -1.849921226501464844e+01 -6.431049108505249023e-01 7.411597728729248047e+00 2.030547857284545898e+00 6.145355701446533203e-01
2.833000000000000000e+03 7.283312225341796875e+01 -7.163436889648437500e+00 -2.789020240306854248e-01 4.733952045440673828e+00 1.336514949798583984e+00 -1.124675035476684570e+00
2.834000000000000000e+03 7.376316833496093750e+01 -1.855548858642578125e+01 -2.598303854465484619e-01 5.641384601593017578e+00 1.614466309547424316e+00 8.421132564544677734e-01
2.835000000000000000e+03 7.381240844726562500e+01 -1.912971115112304688e+01 -2.888754010200500488e-01 5.706325054168701172e+00 1.625234961509704590e+00 4.855064451694488525e-01
2.836000000000000000e+03 7.356867980957031250e+01 -8.010921478271484375e+00 -2.980209290981292725e-01 5.621170043945312500e+00 1.596944689750671387e+00 -1.433972358703613281e+00
2.837000000000000000e+03 7.302668762207031250e+01 -9.250620841979980469e+00 2.633317410945892334e-01 4.186692714691162109e+00 1.335007309913635254e+00 -1.582158327102661133e+00
2.838000000000000000e+03 7.300865936279296875e+01 -6.426465988159179688e+00 -3.928584158420562744e-01 5.068986892700195312e+00 1.402838468551635742e+00 -1.041869521141052246e+00
2.839000000000000000e+03 7.177379608154296875e+01 -6.040559291839599609e+00 -3.549396395683288574e-01 3.710184097290039062e+00 1.006573319435119629e+00 -8.077985644340515137e-01
2.840000000000000000e+03 2.078108215332031250e+01 -8.682079315185546875e+00 2.192189991474151611e-01 -2.575832307338714600e-01 -1.150927040725946426e-02 -7.147628068923950195e-02
2.841000000000000000e+03 2.091612434387207031e+01 -9.310227394104003906e+00 3.339209854602813721e-01 -2.953453958034515381e-01 1.157267577946186066e-02 -4.935989528894424438e-02
2.842000000000000000e+03 7.429377746582031250e+01 -8.872491836547851562e+00 -4.444403350353240967e-01 6.937380313873291016e+00 1.947882056236267090e+00 -1.959562778472900391e+00
2.843000000000000000e+03 7.420749664306640625e+01 -8.026911735534667969e+00 -5.227057933807373047e-01 6.768044948577880859e+00 1.873601794242858887e+00 -1.453024268150329590e+00
2.844000000000000000e+03 1.074124526977539062e+01 -8.222627639770507812e+00 -8.925428241491317749e-02 2.284081429243087769e-01 4.174615815281867981e-02 -1.745150238275527954e-01
2.845000000000000000e+03 9.252226829528808594e+00 -8.205607414245605469e+00 -9.873104840517044067e-02 2.116799354553222656e-01 3.388466686010360718e-02 -2.401591986417770386e-01
2.846000000000000000e+03 1.171029186248779297e+01 -8.409917831420898438e+00 -5.061668902635574341e-02 2.206902503967285156e-01 5.102207139134407043e-02 -1.296848654747009277e-01
2.847000000000000000e+03 1.364722442626953125e+01 -8.336004257202148438e+00 -1.826578751206398010e-02 1.611372381448745728e-01 4.286143556237220764e-02 -6.297262012958526611e-02
2.848000000000000000e+03 1.056947898864746094e+01 -9.097488403320312500e+00 -1.589293591678142548e-02 2.662940621376037598e-01 7.512032985687255859e-02 -1.687934398651123047e-01
2.849000000000000000e+03 9.606521606445312500e+00 -9.962010383605957031e+00 4.035522788763046265e-02 3.058871328830718994e-01 1.038727089762687683e-01 -1.944268494844436646e-01
2.850000000000000000e+03 1.665797615051269531e+01 -9.057219505310058594e+00 1.585201323032379150e-01 -1.185081526637077332e-02 4.400079697370529175e-02 7.259174715727567673e-03
2.851000000000000000e+03 1.725989532470703125e+01 -8.896733283996582031e+00 1.512233763933181763e-01 -5.543696880340576172e-02 2.873592264950275421e-02 2.169042636523954570e-05
2.852000000000000000e+03 1.557999706268310547e+01 -1.001994419097900391e+01 2.470656037330627441e-01 6.096336618065834045e-02 9.240868687629699707e-02 2.533880621194839478e-02
2.853000000000000000e+03 1.682438850402832031e+01 -1.008857154846191406e+01 2.899410724639892578e-01 -2.625296078622341156e-02 7.910643517971038818e-02 2.845631726086139679e-02
2.854000000000000000e+03 2.227264595031738281e+01 -8.258610725402832031e+00 2.177948355674743652e-01 -3.452712297439575195e-01 -3.824291750788688660e-02 -1.662420928478240967e-01
2.855000000000000000e+03 9.978033065795898438e+00 -7.834953308105468750e+00 -1.249615550041198730e-01 2.098470181226730347e-01 2.546563744544982910e-02 -2.118226140737533569e-01
2.856000000000000000e+03 2.313702011108398438e+01 -9.850286483764648438e+00 5.597902536392211914e-01 -4.545896947383880615e-01 3.156015649437904358e-02 -4.849445074796676636e-02
2.857000000000000000e+03 7.159287261962890625e+01 -7.003478527069091797e+00 -2.239188998937606812e-01 3.357290267944335938e+00 9.400114417076110840e-01 -7.650217413902282715e-01
2.858000000000000000e+03 2.013439941406250000e+01 -9.513507843017578125e+00 3.289762437343597412e-01 -2.504262924194335938e-01 2.356498502194881439e-02 -2.117105387151241302e-02
2.859000000000000000e+03 6.960512542724609375e+01 4.632081031799316406e+00 -1.847497969865798950e-01 3.071496963500976562e+00 8.660241365432739258e-01 -1.684316992759704590e+00
2.860000000000000000e+03 6.970175933837890625e+01 5.617515087127685547e+00 -8.043589442968368530e-02 3.137728452682495117e+00 9.171877503395080566e-01 -1.715312242507934570e+00
2.861000000000000000e+03 1.875798606872558594e+01 -8.814090728759765625e+00 1.775170117616653442e-01 -1.461810022592544556e-01 9.400806389749050140e-03 -2.010413631796836853e-02
2.862000000000000000e+03 1.293496322631835938e+01 -8.020404815673828125e+00 -6.792354583740234375e-02 1.690538823604583740e-01 3.033910319209098816e-02 -9.643153846263885498e-02
2.863000000000000000e+03 1.261315155029296875e+01 -8.633129119873046875e+00 -1.655829325318336487e-02 2.056212574243545532e-01 5.671888962388038635e-02 -9.047450125217437744e-02
2.864000000000000000e+03 1.255366230010986328e+01 -1.032455921173095703e+01 1.802994459867477417e-01 2.723239362239837646e-01 1.357870250940322876e-01 -3.657522052526473999e-02
2.865000000000000000e+03 1.433360958099365234e+01 -9.849152565002441406e+00 1.940317451953887939e-01 1.517114043235778809e-01 1.037229448556900024e-01 1.084734499454498291e-02
2.866000000000000000e+03 6.664485931396484375e+01 1.440993499755859375e+01 7.657395005226135254e-01 2.373040676116943359e+00 9.416340589523315430e-01 -1.331565260887145996e+00
2.867000000000000000e+03 7.091549682617187500e+01 -4.201598644256591797e+00 -5.956203937530517578e-01 3.273233175277709961e+00 8.032838106155395508e-01 -7.697570919990539551e-01
2.868000000000000000e+03 3.216632843017578125e+01 -9.959343910217285156e+00 1.907241463661193848e+00 9.651021957397460938e-01 8.617030978202819824e-01 2.810801863670349121e-01
2.869000000000000000e+03 2.010595703125000000e+01 -8.728029251098632812e+00 1.886855810880661011e-01 -2.256274819374084473e-01 -1.108257006853818893e-02 -6.165579333901405334e-02
2.870000000000000000e+03 6.872897338867187500e+01 1.073434591293334961e+00 -7.252209782600402832e-01 2.432121038436889648e+00 5.120700001716613770e-01 -1.308732628822326660e+00
2.871000000000000000e+03 7.245440673828125000e+01 -4.686166763305664062e+00 -4.981322586536407471e-01 4.698761940002441406e+00 1.260188937187194824e+00 -9.636982083320617676e-01
2.872000000000000000e+03 7.184522247314453125e+01 -4.246825695037841797e+00 -4.900279939174652100e-01 4.212707042694091797e+00 1.116803646087646484e+00 -9.177808165550231934e-01
2.873000000000000000e+03 6.822528839111328125e+01 9.835161209106445312e+00 3.685978949069976807e-01 2.612250804901123047e+00 8.942546248435974121e-01 -1.666703104972839355e+00
2.874000000000000000e+03 7.028452301025390625e+01 6.736445426940917969e+00 5.367060750722885132e-02 3.384649991989135742e+00 1.031496167182922363e+00 -1.727814912796020508e+00
2.875000000000000000e+03 5.142980575561523438e+01 8.492446899414062500e+00 5.165526270866394043e-01 5.121877789497375488e-01 3.086221218109130859e-01 3.185501396656036377e-01
2.876000000000000000e+03 6.580671691894531250e+01 2.049076843261718750e+01 8.867108225822448730e-01 2.560535192489624023e+00 1.034173846244812012e+00 -7.742388844490051270e-01
2.877000000000000000e+03 1.764682006835937500e+01 -1.057071113586425781e+01 3.747726678848266602e-01 -9.224877506494522095e-02 8.475716412067413330e-02 3.902316838502883911e-02
2.878000000000000000e+03 2.681444358825683594e+01 -9.189767837524414062e+00 1.009346127510070801e+00 -6.532039642333984375e-01 1.068426296114921570e-01 -1.133597865700721741e-01
2.879000000000000000e+03 2.616349792480468750e+01 -8.243846893310546875e+00 6.803649067878723145e-01 -6.485947966575622559e-01 9.531036019325256348e-03 -3.261226713657379150e-01
2.880000000000000000e+03 6.019107818603515625e+01 8.673747062683105469e+00 2.892998456954956055e-01 5.840244293212890625e-01 2.619972825050354004e-01 -9.371929168701171875e-01
2.881000000000000000e+03 2.806906700134277344e+01 -1.033576011657714844e+01 1.338249921798706055e+00 -5.516985654830932617e-01 2.359654158353805542e-01 1.242709159851074219e-01
2.882000000000000000e+03 2.922557830810546875e+01 -1.081382560729980469e+01 1.546467900276184082e+00 -3.880657851696014404e-01 3.475206196308135986e-01 2.572990059852600098e-01
2.883000000000000000e+03 2.984047889709472656e+01 -9.629831314086914062e+00 1.644488573074340820e+00 -2.627378106117248535e-01 4.145252406597137451e-01 6.603509932756423950e-02
2.884000000000000000e+03 7.028384399414062500e+01 1.865165352821350098e+00 -4.634113013744354248e-01 3.384278059005737305e+00 8.762599825859069824e-01 -1.496050715446472168e+00
2.885000000000000000e+03 7.167591857910156250e+01 -1.194245815277099609e+00 -5.318405032157897949e-01 4.227840423583984375e+00 1.108799934387207031e+00 -1.176125884056091309e+00
2.886000000000000000e+03 5.463866043090820312e+01 1.334145069122314453e+01 1.564731717109680176e+00 1.261306047439575195e+00 8.478113412857055664e-01 2.161833047866821289e-01
2.887000000000000000e+03 5.326078796386718750e+01 1.480549240112304688e+01 1.768691301345825195e+00 1.749975442886352539e+00 1.055600047111511230e+00 6.134724617004394531e-01
2.888000000000000000e+03 5.163053131103515625e+01 1.439479064941406250e+01 1.844559192657470703e+00 2.098084926605224609e+00 1.182793259620666504e+00 9.721945524215698242e-01
2.889000000000000000e+03 2.389835739135742188e+01 -9.158526420593261719e+00 5.299543142318725586e-01 -4.912706911563873291e-01 1.160509418696165085e-02 -1.211108416318893433e-01
2.890000000000000000e+03 6.854432678222656250e+01 1.331458473205566406e+01 5.834870934486389160e-01 2.779074430465698242e+00 1.008768439292907715e+00 -1.471534729003906250e+00
2.891000000000000000e+03 5.363378524780273438e+01 8.997248649597167969e+00 5.880123972892761230e-01 4.273159503936767578e-01 3.045985102653503418e-01 -3.244062140583992004e-02
2.892000000000000000e+03 5.688762664794921875e+01 9.913764953613281250e+00 7.129054665565490723e-01 5.110330581665039062e-01 3.671815693378448486e-01 -4.550625085830688477e-01
2.893000000000000000e+03 7.128316497802734375e+01 1.307091236114501953e+00 -4.130662083625793457e-01 3.961142301559448242e+00 1.064422845840454102e+00 -1.446179747581481934e+00
2.894000000000000000e+03 5.954095077514648438e+01 6.957220554351806641e+00 -2.695741951465606689e-01 2.708539962768554688e-01 3.839441633317619562e-04 -7.933074235916137695e-01
2.895000000000000000e+03 4.933242034912109375e+01 1.965793800354003906e+01 1.347781181335449219e+00 3.859208345413208008e+00 1.562096834182739258e+00 1.226812124252319336e+00
2.896000000000000000e+03 6.759548950195312500e+01 5.518182754516601562e+00 -1.634806096553802490e-01 2.181674003601074219e+00 6.054580211639404297e-01 -1.644333481788635254e+00
2.897000000000000000e+03 6.742629241943359375e+01 2.063990211486816406e+01 7.447086572647094727e-01 2.754350662231445312e+00 1.049717783927917480e+00 -8.530305624008178711e-01
2.898000000000000000e+03 5.109920120239257812e+01 9.500169754028320312e+00 1.211519718170166016e+00 8.917776346206665039e-01 6.309891939163208008e-01 5.929224491119384766e-01
2.899000000000000000e+03 3.367367172241210938e+01 -1.144269752502441406e+01 1.868676662445068359e+00 2.282195568084716797e+00 1.245261669158935547e+00 3.376611173152923584e-01
2.900000000000000000e+03 5.508499908447265625e+01 1.059946918487548828e+01 9.981495738029479980e-01 6.398382186889648438e-01 4.913963675498962402e-01 -1.342682838439941406e-01
2.901000000000000000e+03 4.976475524902343750e+01 2.912233352661132812e+01 5.909398794174194336e-01 3.857289314270019531e+00 1.334468722343444824e+00 5.353308916091918945e-01
2.902000000000000000e+03 6.973551940917968750e+01 7.718986511230468750e+00 1.475203633308410645e-01 3.149341583251953125e+00 9.890586137771606445e-01 -1.726646542549133301e+00
2.903000000000000000e+03 6.389188766479492188e+01 6.718436241149902344e+00 -8.178548514842987061e-02 1.062211036682128906e+00 2.941276729106903076e-01 -1.347603678703308105e+00
2.904000000000000000e+03 6.564453887939453125e+01 6.971213817596435547e+00 3.187204152345657349e-02 1.592531085014343262e+00 4.873209297657012939e-01 -1.538581132888793945e+00
2.905000000000000000e+03 6.522672271728515625e+01 2.449196624755859375e+01 7.772100567817687988e-01 2.756366252899169922e+00 1.060072898864746094e+00 -4.594247937202453613e-01
2.906000000000000000e+03 6.720866394042968750e+01 2.249438285827636719e+01 7.170364856719970703e-01 2.805206060409545898e+00 1.056672811508178711e+00 -6.893525123596191406e-01
2.907000000000000000e+03 6.822809600830078125e+01 1.468008804321289062e+01 6.537958979606628418e-01 2.730050563812255859e+00 1.015153884887695312e+00 -1.368209242820739746e+00
2.908000000000000000e+03 6.760372924804687500e+01 3.450278472900390625e+01 2.327261120080947876e-01 3.158213853836059570e+00 1.017282009124755859e+00 -1.140015274286270142e-01
2.909000000000000000e+03 6.418494415283203125e+01 3.362803649902343750e+01 3.281889557838439941e-01 3.174209594726562500e+00 1.050719618797302246e+00 -4.105833545327186584e-02
2.910000000000000000e+03 6.740227508544921875e+01 4.096377944946289062e+01 1.218519881367683411e-01 3.224392652511596680e+00 1.003873348236083984e+00 -1.335245370864868164e-02
2.911000000000000000e+03 4.581901550292968750e+01 -2.882073974609375000e+01 1.683528423309326172e-01 2.327832460403442383e+00 7.488555908203125000e-01 -8.650378584861755371e-01
2.912000000000000000e+03 4.815974807739257812e+01 2.015159606933593750e+01 1.142120480537414551e+00 4.383185386657714844e+00 1.657591700553894043e+00 1.229981184005737305e+00
2.913000000000000000e+03 7.335630798339843750e+01 -8.814205169677734375e+00 3.522019088268280029e-02 5.091342449188232422e+00 1.537968873977661133e+00 -1.688339948654174805e+00
2.914000000000000000e+03 7.454240417480468750e+01 -1.787746047973632812e+01 -5.587699413299560547e-01 7.199252128601074219e+00 1.992144703865051270e+00 1.119426488876342773e+00
2.915000000000000000e+03 7.256860351562500000e+01 -8.765475273132324219e+00 1.944520026445388794e-01 3.654912471771240234e+00 1.154809355735778809e+00 -1.226951956748962402e+00
2.916000000000000000e+03 7.219463348388671875e+01 -6.923155784606933594e+00 -2.288907021284103394e-01 3.955585241317749023e+00 1.118008375167846680e+00 -9.427774548530578613e-01
2.917000000000000000e+03 1.330636310577392578e+01 -9.472414970397949219e+00 9.635676443576812744e-02 2.062661945819854736e-01 9.078688919544219971e-02 -4.286790266633033752e-02
2.918000000000000000e+03 1.895074653625488281e+01 -1.010157394409179688e+01 3.470357060432434082e-01 -1.771254390478134155e-01 5.097307637333869934e-02 1.582624576985836029e-02
2.919000000000000000e+03 1.495814132690429688e+01 -9.327437400817871094e+00 1.412047296762466431e-01 1.036676838994026184e-01 7.346171885728836060e-02 -7.135091582313179970e-04
2.920000000000000000e+03 3.398113250732421875e+01 -1.036292839050292969e+01 2.013920783996582031e+00 2.679763317108154297e+00 1.408105254173278809e+00 3.616729974746704102e-01
2.921000000000000000e+03 5.038321685791015625e+01 1.891309165954589844e+01 1.510944366455078125e+00 3.406387090682983398e+00 1.475199460983276367e+00 1.157729148864746094e+00
2.922000000000000000e+03 5.329086303710937500e+01 1.315692138671875000e+01 1.665016412734985352e+00 1.365794777870178223e+00 9.092433452606201172e-01 4.854741692543029785e-01
2.923000000000000000e+03 6.711553955078125000e+01 4.449841976165771484e+00 -3.765075802803039551e-01 1.908542037010192871e+00 4.596103429794311523e-01 -1.537216663360595703e+00
2.924000000000000000e+03 6.823380279541015625e+01 3.915349483489990234e+00 -3.698466122150421143e-01 2.369448184967041016e+00 5.998805165290832520e-01 -1.577048897743225098e+00
2.925000000000000000e+03 5.491613006591796875e+01 1.690792465209960938e+01 1.683929443359375000e+00 1.878178000450134277e+00 1.068632245063781738e+00 3.828840851783752441e-01
2.926000000000000000e+03 6.712619018554687500e+01 1.306072521209716797e+01 6.662177443504333496e-01 2.413541793823242188e+00 9.239278435707092285e-01 -1.454419612884521484e+00
2.927000000000000000e+03 5.647443008422851562e+01 1.112247180938720703e+01 1.015676856040954590e+00 7.123640775680541992e-01 5.184122920036315918e-01 -3.414935171604156494e-01
2.928000000000000000e+03 7.125974273681640625e+01 1.501992130279541016e+01 4.271079301834106445e-01 3.442719221115112305e+00 1.160948157310485840e+00 -1.319912075996398926e+00
2.929000000000000000e+03 6.728459930419921875e+01 8.929465293884277344e+00 3.038191795349121094e-01 2.260734796524047852e+00 7.693662047386169434e-01 -1.659269571304321289e+00
2.930000000000000000e+03 6.947228240966796875e+01 6.414552688598632812e+00 1.687218993902206421e-02 3.033829927444458008e+00 9.152106642723083496e-01 -1.729238867759704590e+00
2.931000000000000000e+03 6.662763214111328125e+01 6.195155143737792969e+00 -7.452188432216644287e-02 1.859560728073120117e+00 5.355116128921508789e-01 -1.597291827201843262e+00
2.932000000000000000e+03 5.208676910400390625e+01 1.129578113555908203e+01 1.483181595802307129e+00 1.144282102584838867e+00 7.882391214370727539e-01 5.812202692031860352e-01
2.933000000000000000e+03 5.367349243164062500e+01 1.025829792022705078e+01 1.034826636314392090e+00 6.829299330711364746e-01 5.153269767761230469e-01 9.682625532150268555e-02
2.934000000000000000e+03 6.294354629516601562e+01 7.554169654846191406e+00 5.711997672915458679e-02 8.837601542472839355e-01 2.822640538215637207e-01 -1.265355587005615234e+00
2.935000000000000000e+03 6.213551330566406250e+01 9.269990921020507812e+00 4.303671419620513916e-01 9.442686438560485840e-01 4.123907387256622314e-01 -1.181255459785461426e+00
2.936000000000000000e+03 5.439776229858398438e+01 1.843192291259765625e+01 1.629628419876098633e+00 2.280215978622436523e+00 1.172953248023986816e+00 5.355165600776672363e-01
2.937000000000000000e+03 5.129128265380859375e+01 2.015276336669921875e+01 1.449824690818786621e+00 3.221009254455566406e+00 1.401250243186950684e+00 9.746221303939819336e-01
2.938000000000000000e+03 5.233761215209960938e+01 1.900724411010742188e+01 1.598873615264892578e+00 2.773819208145141602e+00 1.311807870864868164e+00 8.685963749885559082e-01
2.939000000000000000e+03 5.216350936889648438e+01 1.686599731445312500e+01 1.745944857597351074e+00 2.423232555389404297e+00 1.250753164291381836e+00 9.147573113441467285e-01
2.940000000000000000e+03 6.701454162597656250e+01 2.457224845886230469e+01 6.534874439239501953e-01 2.871698141098022461e+00 1.057555675506591797e+00 -5.334866642951965332e-01
2.941000000000000000e+03 5.087741851806640625e+01 2.258033370971679688e+01 1.175220966339111328e+00 3.586727142333984375e+00 1.428584456443786621e+00 8.496774435043334961e-01
2.942000000000000000e+03 5.408439636230468750e+01 2.491182899475097656e+01 1.082462072372436523e+00 3.120867490768432617e+00 1.260998845100402832e+00 5.213665366172790527e-01
2.943000000000000000e+03 5.259798049926757812e+01 2.584650230407714844e+01 9.851034283638000488e-01 3.374846696853637695e+00 1.307985067367553711e+00 6.020431518554687500e-01
2.944000000000000000e+03 5.592885971069335938e+01 1.352495193481445312e+01 1.477238535881042480e+00 1.160324454307556152e+00 7.912688851356506348e-01 -4.040363803505897522e-02
2.945000000000000000e+03 5.467653656005859375e+01 1.471153068542480469e+01 1.652216553688049316e+00 1.531662344932556152e+00 9.551636576652526855e-01 3.020280301570892334e-01
2.946000000000000000e+03 6.892314910888671875e+01 5.853732109069824219e+00 -6.517580896615982056e-02 2.771680831909179688e+00 8.119515180587768555e-01 -1.720544815063476562e+00
2.947000000000000000e+03 6.172249984741210938e+01 2.361813354492187500e+01 1.029923319816589355e+00 2.549915313720703125e+00 1.073951601982116699e+00 -2.497414052486419678e-01
2.948000000000000000e+03 6.888592529296875000e+01 7.179962158203125000e+00 9.939180314540863037e-02 2.815003633499145508e+00 8.743185997009277344e-01 -1.728692293167114258e+00
2.949000000000000000e+03 6.733094787597656250e+01 7.181246757507324219e+00 9.367161244153976440e-02 2.183972835540771484e+00 6.832933425903320312e-01 -1.668284177780151367e+00
2.950000000000000000e+03 6.752088165283203125e+01 1.177232170104980469e+01 5.549793839454650879e-01 2.472535610198974609e+00 9.082545042037963867e-01 -1.558501362800598145e+00
2.951000000000000000e+03 6.349709701538085938e+01 8.747206687927246094e+00 3.266444206237792969e-01 1.167724490165710449e+00 4.483106732368469238e-01 -1.349681735038757324e+00
2.952000000000000000e+03 5.976360321044921875e+01 9.691289901733398438e+00 5.364742875099182129e-01 6.528307199478149414e-01 3.567914962768554688e-01 -8.783599138259887695e-01
2.953000000000000000e+03 6.724135589599609375e+01 1.069549751281738281e+01 4.884958267211914062e-01 2.357209444046020508e+00 8.537116050720214844e-01 -1.594275116920471191e+00
2.954000000000000000e+03 5.648790740966796875e+01 1.754491615295410156e+01 1.582531929016113281e+00 1.853409051895141602e+00 1.030782222747802734e+00 1.211336031556129456e-01
2.955000000000000000e+03 5.585359191894531250e+01 1.467856979370117188e+01 1.572161316871643066e+00 1.355558872222900391e+00 8.783160448074340820e-01 5.323993787169456482e-02
2.956000000000000000e+03 5.686546325683593750e+01 2.135162544250488281e+01 1.371211767196655273e+00 2.410274505615234375e+00 1.134445905685424805e+00 2.053099870681762695e-01
2.957000000000000000e+03 5.481148910522460938e+01 1.197510719299316406e+01 1.349267482757568359e+00 9.474570155143737793e-01 6.890173554420471191e-01 4.988108575344085693e-02
2.958000000000000000e+03 5.737930679321289062e+01 1.273913097381591797e+01 1.237747073173522949e+00 9.564732313156127930e-01 6.582660675048828125e-01 -3.806003928184509277e-01
2.959000000000000000e+03 5.859386062622070312e+01 9.280028343200683594e+00 4.727905094623565674e-01 5.308808684349060059e-01 3.011014163494110107e-01 -7.224795222282409668e-01
2.960000000000000000e+03 5.784975814819335938e+01 1.170596122741699219e+01 1.059743165969848633e+00 7.857453227043151855e-01 5.536465644836425781e-01 -4.967340826988220215e-01
2.961000000000000000e+03 5.360177612304687500e+01 2.005366134643554688e+01 1.509521007537841797e+00 2.673117399215698242e+00 1.254791498184204102e+00 6.494387984275817871e-01
2.962000000000000000e+03 6.579087829589843750e+01 1.261606502532958984e+01 7.178724408149719238e-01 2.050392866134643555e+00 8.304795622825622559e-01 -1.420559644699096680e+00
2.963000000000000000e+03 6.543962860107421875e+01 8.882165908813476562e+00 3.195367455482482910e-01 1.695631504058837891e+00 6.045504808425903320e-01 -1.534999608993530273e+00
2.964000000000000000e+03 6.625267028808593750e+01 1.582488536834716797e+01 8.380581140518188477e-01 2.366729497909545898e+00 9.614363312721252441e-01 -1.205909848213195801e+00
2.965000000000000000e+03 5.165485382080078125e+01 2.859473991394042969e+01 7.086660265922546387e-01 3.601589679718017578e+00 1.293076753616333008e+00 5.510888695716857910e-01
2.966000000000000000e+03 6.816755676269531250e+01 6.445838451385498047e+00 3.763738321140408516e-03 2.470230340957641602e+00 7.421981692314147949e-01 -1.693575739860534668e+00
2.967000000000000000e+03 6.085169982910156250e+01 9.592464447021484375e+00 4.975640475749969482e-01 7.603350877761840820e-01 3.773697316646575928e-01 -1.012585401535034180e+00
2.968000000000000000e+03 6.904150390625000000e+01 8.738213539123535156e+00 2.526833415031433105e-01 2.899868488311767578e+00 9.457655549049377441e-01 -1.710080146789550781e+00
2.969000000000000000e+03 6.634246063232421875e+01 9.811692237854003906e+00 4.191834926605224609e-01 2.033753871917724609e+00 7.358812093734741211e-01 -1.583384275436401367e+00
2.970000000000000000e+03 5.718174362182617188e+01 1.373104953765869141e+01 1.403255701065063477e+00 1.159801006317138672e+00 7.689170241355895996e-01 -2.458943426609039307e-01
2.971000000000000000e+03 5.613191604614257812e+01 1.232413864135742188e+01 1.281889319419860840e+00 9.160853028297424316e-01 6.593924164772033691e-01 -1.825781166553497314e-01
2.972000000000000000e+03 5.694684982299804688e+01 1.617179107666015625e+01 1.566648483276367188e+00 1.579646110534667969e+00 9.438883662223815918e-01 -2.950633689761161804e-02
2.973000000000000000e+03 5.824236679077148438e+01 1.050849533081054688e+01 7.898928523063659668e-01 6.849204897880554199e-01 4.424439966678619385e-01 -6.219296455383300781e-01
2.974000000000000000e+03 5.514380264282226562e+01 2.672426414489746094e+01 9.320386052131652832e-01 3.137417078018188477e+00 1.220836639404296875e+00 4.319474399089813232e-01
2.975000000000000000e+03 6.412519836425781250e+01 1.725141143798828125e+01 1.046900629997253418e+00 2.111921310424804688e+00 9.476465582847595215e-01 -9.245511889457702637e-01
2.976000000000000000e+03 6.440200805664062500e+01 1.550565910339355469e+01 9.843571186065673828e-01 1.995872616767883301e+00 8.940688967704772949e-01 -1.094981670379638672e+00
2.977000000000000000e+03 6.221756362915039062e+01 1.070240688323974609e+01 6.765052676200866699e-01 1.120201587677001953e+00 5.390120744705200195e-01 -1.180963039398193359e+00
2.978000000000000000e+03 5.237445449829101562e+01 2.148272132873535156e+01 1.370332002639770508e+00 3.098994731903076172e+00 1.340798020362854004e+00 7.861687541007995605e-01
2.979000000000000000e+03 6.600923919677734375e+01 5.095299243927001953e+00 -3.319542407989501953e-01 1.526016712188720703e+00 3.582187294960021973e-01 -1.490981101989746094e+00
2.980000000000000000e+03 6.425209045410156250e+01 1.886432456970214844e+01 1.042539834976196289e+00 2.262241601943969727e+00 9.914344549179077148e-01 -7.999603748321533203e-01
2.981000000000000000e+03 5.846872711181640625e+01 2.207935905456542969e+01 1.271939158439636230e+00 2.414113998413085938e+00 1.105816006660461426e+00 2.986166067421436310e-02
2.982000000000000000e+03 6.501789855957031250e+01 1.394969940185546875e+01 8.705640435218811035e-01 1.973771572113037109e+00 8.533006906509399414e-01 -1.260242938995361328e+00
2.983000000000000000e+03 6.642279815673828125e+01 7.994342327117919922e+00 1.982668638229370117e-01 1.930254220962524414e+00 6.385563611984252930e-01 -1.612917661666870117e+00
2.984000000000000000e+03 6.542070007324218750e+01 1.077357864379882812e+01 5.788884162902832031e-01 1.853607416152954102e+00 7.297487854957580566e-01 -1.478061318397521973e+00
2.985000000000000000e+03 5.718559265136718750e+01 1.489162635803222656e+01 1.494851946830749512e+00 1.343235731124877930e+00 8.514263033866882324e-01 -1.550633609294891357e-01
2.986000000000000000e+03 5.978951263427734375e+01 1.850338554382324219e+01 1.373305320739746094e+00 1.923634290695190430e+00 9.890818595886230469e-01 -3.371659517288208008e-01
2.987000000000000000e+03 5.965679931640625000e+01 1.099184894561767578e+01 8.192989230155944824e-01 8.319911360740661621e-01 4.953870177268981934e-01 -8.126219511032104492e-01
2.988000000000000000e+03 5.928430175781250000e+01 1.246627426147460938e+01 1.093791484832763672e+00 1.021751880645751953e+00 6.346630454063415527e-01 -6.855622529983520508e-01
2.989000000000000000e+03 6.243989944458007812e+01 1.523504257202148438e+01 1.111933827400207520e+00 1.691110014915466309e+00 8.409131765365600586e-01 -9.297761917114257812e-01
2.990000000000000000e+03 6.213753509521484375e+01 1.709237670898437500e+01 1.200461030006408691e+00 1.885329961776733398e+00 9.257372617721557617e-01 -7.382864356040954590e-01
2.991000000000000000e+03 6.086889266967773438e+01 1.324205780029296875e+01 1.088428020477294922e+00 1.268276929855346680e+00 7.070115208625793457e-01 -8.487668037414550781e-01
2.992000000000000000e+03 6.379209136962890625e+01 1.314546203613281250e+01 9.005017280578613281e-01 1.672227263450622559e+00 7.718186974525451660e-01 -1.203916907310485840e+00
2.993000000000000000e+03 6.301251602172851562e+01 1.978469657897949219e+01 1.114389419555664062e+00 2.231447935104370117e+00 1.003751158714294434e+00 -6.322891712188720703e-01
2.994000000000000000e+03 6.436077880859375000e+01 9.888429641723632812e+00 4.853681027889251709e-01 1.479663491249084473e+00 5.895094871520996094e-01 -1.412088036537170410e+00
2.995000000000000000e+03 6.006961059570312500e+01 2.286830711364746094e+01 1.157925963401794434e+00 2.461029291152954102e+00 1.085686564445495605e+00 -1.189427822828292847e-01
2.996000000000000000e+03 5.657617950439453125e+01 2.539758872985839844e+01 1.052554726600646973e+00 2.903613090515136719e+00 1.186850428581237793e+00 3.290529251098632812e-01
2.997000000000000000e+03 6.098143768310546875e+01 1.091348457336425781e+01 7.570418715476989746e-01 9.563770294189453125e-01 5.140256881713867188e-01 -9.983234405517578125e-01
2.998000000000000000e+03 5.810266494750976562e+01 1.803372192382812500e+01 1.488281011581420898e+00 1.853161931037902832e+00 1.002432942390441895e+00 -1.128453239798545837e-01
2.999000000000000000e+03 5.647591400146484375e+01 2.867694091796875000e+01 7.593299150466918945e-01 3.161129236221313477e+00 1.176137685775756836e+00 3.439030349254608154e-01
3.000000000000000000e+03 5.258367919921875000e+01 3.324479675292968750e+01 2.557224035263061523e-01 3.623369693756103516e+00 1.163727641105651855e+00 4.082692563533782959e-01
3.001000000000000000e+03 5.874330902099609375e+01 1.487034034729003906e+01 1.375338673591613770e+00 1.338197231292724609e+00 8.140608072280883789e-01 -4.427160322666168213e-01
3.002000000000000000e+03 6.161516571044921875e+01 1.190755558013916016e+01 8.922998905181884766e-01 1.173012018203735352e+00 6.195935606956481934e-01 -1.053559184074401855e+00
3.003000000000000000e+03 6.461727905273437500e+01 1.191933250427246094e+01 7.173216342926025391e-01 1.759013295173645020e+00 7.429004907608032227e-01 -1.364347577095031738e+00
3.004000000000000000e+03 6.252441787719726562e+01 1.366420650482177734e+01 1.019964337348937988e+00 1.563923835754394531e+00 7.751664519309997559e-01 -1.034331202507019043e+00
3.005000000000000000e+03 6.346886444091796875e+01 1.114490222930908203e+01 6.921850442886352539e-01 1.386337161064147949e+00 6.235566735267639160e-01 -1.276553392410278320e+00
3.006000000000000000e+03 6.463018798828125000e+01 7.837160110473632812e+00 1.619277596473693848e-01 1.388028860092163086e+00 4.649869799613952637e-01 -1.457893967628479004e+00
3.007000000000000000e+03 6.026034927368164062e+01 1.673938560485839844e+01 1.344295978546142578e+00 1.694049119949340820e+00 9.115034937858581543e-01 -5.135324001312255859e-01
3.008000000000000000e+03 5.837360000610351562e+01 1.351334285736083984e+01 1.274567365646362305e+00 1.138715028762817383e+00 7.239847183227539062e-01 -4.798666834831237793e-01
3.009000000000000000e+03 5.854278564453125000e+01 1.645522117614746094e+01 1.457421779632568359e+00 1.602692246437072754e+00 9.180341958999633789e-01 -2.899035811424255371e-01
3.010000000000000000e+03 5.627931976318359375e+01 2.290235328674316406e+01 1.283553838729858398e+00 2.642695426940917969e+00 1.177874803543090820e+00 3.249508738517761230e-01
3.011000000000000000e+03 5.540684127807617188e+01 2.402921295166015625e+01 1.177337169647216797e+00 2.902498245239257812e+00 1.223950624465942383e+00 4.394060671329498291e-01
3.012000000000000000e+03 6.280528640747070312e+01 1.242315483093261719e+01 8.936954736709594727e-01 1.404642343521118164e+00 6.895013451576232910e-01 -1.140648484230041504e+00
3.013000000000000000e+03 6.429333496093750000e+01 2.034234809875488281e+01 9.896993041038513184e-01 2.426728963851928711e+00 1.024928450584411621e+00 -6.858803033828735352e-01
3.014000000000000000e+03 5.750713348388671875e+01 1.967783927917480469e+01 1.458708286285400391e+00 2.140811681747436523e+00 1.079856038093566895e+00 6.328696012496948242e-02
3.015000000000000000e+03 6.097541046142578125e+01 2.587397766113281250e+01 9.134979844093322754e-01 2.745285511016845703e+00 1.097635030746459961e+00 -7.482492923736572266e-02
3.016000000000000000e+03 6.344796371459960938e+01 2.418755722045898438e+01 9.061688184738159180e-01 2.643523931503295898e+00 1.064907789230346680e+00 -3.601253032684326172e-01
3.017000000000000000e+03 6.050951385498046875e+01 1.496552753448486328e+01 1.250047206878662109e+00 1.458212614059448242e+00 8.124779462814331055e-01 -6.848599314689636230e-01
3.018000000000000000e+03 5.922926712036132812e+01 2.486611747741699219e+01 1.048492670059204102e+00 2.688097715377807617e+00 1.120977163314819336e+00 4.824972897768020630e-02
3.019000000000000000e+03 5.806838989257812500e+01 2.686251068115234375e+01 9.012593626976013184e-01 2.928953409194946289e+00 1.149063825607299805e+00 2.043475657701492310e-01
3.020000000000000000e+03 6.232994079589843750e+01 2.158808135986328125e+01 1.109789013862609863e+00 2.359816312789916992e+00 1.040881633758544922e+00 -4.237823188304901123e-01
3.021000000000000000e+03 6.077882003784179688e+01 2.094445800781250000e+01 1.221397280693054199e+00 2.265306711196899414e+00 1.046011209487915039e+00 -2.969142496585845947e-01
3.022000000000000000e+03 6.289721679687500000e+01 2.663292694091796875e+01 7.827991843223571777e-01 2.813943862915039062e+00 1.079022884368896484e+00 -1.957151293754577637e-01
3.023000000000000000e+03 6.389791107177734375e+01 2.208546638488769531e+01 9.683430194854736328e-01 2.511138439178466797e+00 1.043844461441040039e+00 -5.438327193260192871e-01
3.024000000000000000e+03 5.766891479492187500e+01 2.381717109680175781e+01 1.177120208740234375e+00 2.647237539291381836e+00 1.147307276725769043e+00 1.826506406068801880e-01
3.025000000000000000e+03 5.517304229736328125e+01 2.079929351806640625e+01 1.451476216316223145e+00 2.543283462524414062e+00 1.198427915573120117e+00 4.539349973201751709e-01
3.026000000000000000e+03 5.988970184326171875e+01 2.833059883117675781e+01 7.570595145225524902e-01 2.961330890655517578e+00 1.115517139434814453e+00 7.823900878429412842e-02
3.027000000000000000e+03 6.211220932006835938e+01 2.948055648803710938e+01 6.282031536102294922e-01 2.994304180145263672e+00 1.086752176284790039e+00 -3.009294532239437103e-02
3.028000000000000000e+03 6.154961776733398438e+01 1.902519226074218750e+01 1.234754800796508789e+00 2.064833164215087891e+00 9.898763895034790039e-01 -5.216478705406188965e-01
3.029000000000000000e+03 5.818221664428710938e+01 3.093024444580078125e+01 5.532610416412353516e-01 3.206152677536010742e+00 1.127824187278747559e+00 2.229687720537185669e-01
3.030000000000000000e+03 3.723681640625000000e+01 -4.097702407836914062e+01 -1.141272187232971191e+00 3.382316350936889648e+00 6.723132133483886719e-01 4.294237866997718811e-02
3.031000000000000000e+03 2.112007331848144531e+01 -3.383493423461914062e+01 -4.204290807247161865e-01 -1.234894525259733200e-02 -1.298334002494812012e-01 -3.793738037347793579e-02
3.032000000000000000e+03 4.328960418701171875e+01 4.079510116577148438e+01 -4.345367550849914551e-01 2.962057590484619141e+00 7.582562565803527832e-01 -3.260109946131706238e-02
3.033000000000000000e+03 5.447533035278320312e+01 3.000648689270019531e+01 6.315797567367553711e-01 3.367131948471069336e+00 1.199613571166992188e+00 4.246526062488555908e-01
3.034000000000000000e+03 5.119691085815429688e+01 -3.513465118408203125e+01 -3.140255808830261230e-01 1.183045387268066406e+00 2.607059478759765625e-01 -4.553695321083068848e-01
3.035000000000000000e+03 5.916011810302734375e+01 2.029889678955078125e+01 1.341105699539184570e+00 2.171730518341064453e+00 1.053850769996643066e+00 -1.413743197917938232e-01
3.036000000000000000e+03 1.255588150024414062e+01 -4.124746704101562500e+01 3.396489843726158142e-02 -2.403483539819717407e-01 -6.191503629088401794e-02 1.787919364869594574e-02
3.037000000000000000e+03 1.047863101959228516e+01 -3.436241149902343750e+01 -2.427810430526733398e-01 -2.631623148918151855e-01 -1.517830044031143188e-01 1.253956854343414307e-01
3.038000000000000000e+03 7.303429412841796875e+01 -3.724106216430664062e+01 4.691866934299468994e-01 5.239666938781738281e+00 1.712656021118164062e+00 5.893722772598266602e-01
3.039000000000000000e+03 2.481915855407714844e+01 -3.972455596923828125e+01 -8.939399570226669312e-02 5.682681202888488770e-01 1.436622291803359985e-01 1.179311051964759827e-01
3.040000000000000000e+03 7.699605941772460938e+00 -3.618901062011718750e+01 -4.716983437538146973e-02 -1.608017534017562866e-01 -6.239147484302520752e-02 2.912509441375732422e-02
3.041000000000000000e+03 3.353666305541992188e+01 3.820252609252929688e+01 -3.222769498825073242e-02 3.616952896118164062e-02 1.182549982331693172e-03 -5.770753603428602219e-03
3.042000000000000000e+03 1.720101356506347656e+01 -4.118796539306640625e+01 1.613163016736507416e-02 -1.670472621917724609e-01 -4.527468979358673096e-02 -7.042338605970144272e-03
3.043000000000000000e+03 4.515446472167968750e+01 -3.576882171630859375e+01 -5.720919370651245117e-01 2.526126146316528320e+00 5.862102508544921875e-01 -4.893118739128112793e-01
3.044000000000000000e+03 8.161065101623535156e+00 -4.123623275756835938e+01 5.667182430624961853e-02 -1.050710380077362061e-01 -1.451976411044597626e-02 -5.171448457986116409e-03
3.045000000000000000e+03 5.259100341796875000e+01 -4.100989532470703125e+01 -8.172050118446350098e-02 7.061949372291564941e-01 1.873423457145690918e-01 -1.304834187030792236e-01
3.046000000000000000e+03 5.140575790405273438e+01 -3.711539077758789062e+01 -2.472715228796005249e-01 1.042171359062194824e+00 2.384699434041976929e-01 -3.262042105197906494e-01
3.047000000000000000e+03 4.819931411743164062e+01 -3.744617462158203125e+01 -4.665829539299011230e-01 1.850270032882690430e+00 4.151061177253723145e-01 -4.597543478012084961e-01
3.048000000000000000e+03 6.332888412475585938e+01 3.727494049072265625e+01 1.919077634811401367e-01 3.295526504516601562e+00 1.046230316162109375e+00 1.107158139348030090e-02
3.049000000000000000e+03 5.477933502197265625e+01 3.952706909179687500e+01 -5.476815998554229736e-02 3.622209072113037109e+00 1.070232272148132324e+00 1.156167313456535339e-01
3.050000000000000000e+03 5.582454681396484375e+01 3.597964477539062500e+01 1.642394363880157471e-01 3.518172264099121094e+00 1.104723453521728516e+00 2.288961708545684814e-01
3.051000000000000000e+03 5.191293334960937500e+01 3.869990539550781250e+01 -1.612349301576614380e-01 3.725419521331787109e+00 1.069255352020263672e+00 1.887053996324539185e-01
3.052000000000000000e+03 5.247789001464843750e+01 3.596734619140625000e+01 1.345099043101072311e-02 3.670783996582031250e+00 1.105270504951477051e+00 3.251791596412658691e-01
3.053000000000000000e+03 3.640167236328125000e+01 4.125885009765625000e+01 1.845146529376506805e-02 1.032325387001037598e+00 3.152330517768859863e-01 -5.944211781024932861e-02
3.054000000000000000e+03 4.850494766235351562e+01 3.847466278076171875e+01 -3.121576905250549316e-01 3.669962406158447266e+00 1.007341384887695312e+00 1.933850198984146118e-01
3.055000000000000000e+03 6.757732391357421875e+01 -1.232730102539062500e+01 -2.374380677938461304e-01 -9.543216824531555176e-01 -3.575279116630554199e-01 4.915759563446044922e-01
3.056000000000000000e+03 2.617243576049804688e+01 -1.908602118492126465e+00 -1.876527667045593262e+00 -1.391200721263885498e-01 -6.046943068504333496e-01 1.326881945133209229e-01
3.057000000000000000e+03 7.426524353027343750e+01 -1.528149795532226562e+01 1.369623661041259766e+00 3.999469041824340820e+00 1.610727787017822266e+00 3.001674652099609375e+00
3.058000000000000000e+03 7.402611541748046875e+01 -1.514164447784423828e+01 1.370750069618225098e+00 2.849209547042846680e+00 1.265987873077392578e+00 2.380791664123535156e+00
3.059000000000000000e+03 7.420796203613281250e+01 -1.511125373840332031e+01 1.539932847023010254e+00 3.291195392608642578e+00 1.449338555335998535e+00 2.821076154708862305e+00
3.060000000000000000e+03 7.440295410156250000e+01 -1.545691013336181641e+01 1.123835682868957520e+00 5.241878509521484375e+00 1.909714221954345703e+00 3.270611763000488281e+00
3.061000000000000000e+03 7.491788482666015625e+01 -1.558729076385498047e+01 4.295189082622528076e-01 8.217875480651855469e+00 2.594218254089355469e+00 3.942701339721679688e+00
3.062000000000000000e+03 7.517984771728515625e+01 -1.552943801879882812e+01 -4.250030964612960815e-02 1.019052028656005859e+01 3.044405937194824219e+00 4.201515674591064453e+00
3.063000000000000000e+03 7.578380584716796875e+01 -1.508257102966308594e+01 -1.063856124877929688e+00 1.631019783020019531e+01 4.573902606964111328e+00 4.382157325744628906e+00
3.064000000000000000e+03 7.578672790527343750e+01 -1.537667369842529297e+01 -1.402057766914367676e+00 1.561134147644042969e+01 4.262784957885742188e+00 3.597617387771606445e+00
3.065000000000000000e+03 7.643422698974609375e+01 -1.505770397186279297e+01 -1.835606932640075684e+00 2.027172660827636719e+01 5.530836105346679688e+00 4.204662740230560303e-01
3.066000000000000000e+03 7.706330108642578125e+01 -1.522786712646484375e+01 -1.391565442085266113e+00 1.805568885803222656e+01 4.999237060546875000e+00 -2.769535541534423828e+00
3.067000000000000000e+03 7.750785064697265625e+01 -1.490175724029541016e+01 7.725703716278076172e-01 1.622177886962890625e+01 5.098305225372314453e+00 -4.381356239318847656e+00
3.068000000000000000e+03 7.748860931396484375e+01 -1.406684684753417969e+01 5.773430347442626953e+00 1.601204109191894531e+01 6.535641193389892578e+00 -4.239309787750244141e+00
3.069000000000000000e+03 7.768682098388671875e+01 -1.367573451995849609e+01 6.985922813415527344e+00 1.349992752075195312e+01 6.145754814147949219e+00 -1.771206736564636230e+00
3.070000000000000000e+03 7.785607147216796875e+01 -1.409446334838867188e+01 4.336932659149169922e+00 1.341737079620361328e+01 5.326291084289550781e+00 -3.397931575775146484e+00
3.071000000000000000e+03 7.787787628173828125e+01 -1.306615447998046875e+01 4.635817050933837891e+00 1.249770355224609375e+01 5.140056133270263672e+00 1.150703907012939453e+00
3.072000000000000000e+03 7.659416961669921875e+01 -1.149485588073730469e+01 -1.847853541374206543e+00 1.861411476135253906e+01 5.029878616333007812e+00 -3.075353801250457764e-01
3.073000000000000000e+03 7.559197998046875000e+01 -1.176699161529541016e+01 1.022686138749122620e-01 1.477752113342285156e+01 4.463936805725097656e+00 -6.053592681884765625e+00
3.074000000000000000e+03 7.538104248046875000e+01 -1.174109554290771484e+01 8.575500249862670898e-01 1.215445804595947266e+01 3.903602600097656250e+00 -6.291862964630126953e+00
3.075000000000000000e+03 7.391819000244140625e+01 -1.179607677459716797e+01 1.617392659187316895e+00 2.571643590927124023e+00 1.256710886955261230e+00 -2.652372837066650391e+00
3.076000000000000000e+03 5.946627426147460938e+01 -3.535278701782226562e+01 -4.683375954627990723e-01 -6.594538092613220215e-01 -3.383374214172363281e-01 -6.666588187217712402e-01
3.077000000000000000e+03 3.249418258666992188e+01 -1.645792961120605469e+01 1.096180081367492676e-01 2.714996337890625000e-01 1.143352910876274109e-01 2.678165435791015625e-01
3.078000000000000000e+03 7.669302463531494141e+00 -1.678505516052246094e+01 1.083665966987609863e+00 1.076716542243957520e+00 6.481147408485412598e-01 5.964938998222351074e-01
3.079000000000000000e+03 7.333260345458984375e+01 -1.159502792358398438e+01 1.229253768920898438e+00 1.723304748535156250e+00 8.857675790786743164e-01 -1.680240511894226074e+00
3.080000000000000000e+03 7.354522705078125000e+01 -1.554584789276123047e+01 9.815213084220886230e-01 2.410889148712158203e+00 1.017723083496093750e+00 1.542887806892395020e+00
3.081000000000000000e+03 7.371889495849609375e+01 -1.543509960174560547e+01 1.130979418754577637e+00 2.644640922546386719e+00 1.132686138153076172e+00 1.810947418212890625e+00
3.082000000000000000e+03 7.459441375732421875e+01 -1.131011867523193359e+01 1.194228291511535645e+00 6.296513557434082031e+00 2.247222423553466797e+00 -4.314791202545166016e+00
3.083000000000000000e+03 7.634291839599609375e+01 -1.146449089050292969e+01 -1.925965070724487305e+00 1.808812522888183594e+01 4.848648071289062500e+00 -1.729078173637390137e+00
3.084000000000000000e+03 7.571727752685546875e+01 -1.561692047119140625e+01 -1.479730248451232910e+00 1.407395172119140625e+01 3.778266429901123047e+00 3.186553239822387695e+00
3.085000000000000000e+03 7.598480987548828125e+01 -1.544884490966796875e+01 -1.812531948089599609e+00 1.643581771850585938e+01 4.386985778808593750e+00 2.727084875106811523e+00
3.086000000000000000e+03 7.593054962158203125e+01 -1.573997306823730469e+01 -1.837310314178466797e+00 1.455873107910156250e+01 3.816426277160644531e+00 2.370293378829956055e+00
3.087000000000000000e+03 7.608702087402343750e+01 -1.147330856323242188e+01 -1.593138813972473145e+00 1.717314147949218750e+01 4.674000740051269531e+00 -3.246982574462890625e+00
3.088000000000000000e+03 7.795979309082031250e+01 -1.436211585998535156e+01 2.737681150436401367e+00 1.317190742492675781e+01 4.772876739501953125e+00 -3.891955137252807617e+00
3.089000000000000000e+03 7.773556518554687500e+01 -1.424731540679931641e+01 3.915284156799316406e+00 1.492098617553710938e+01 5.650881290435791016e+00 -4.153383731842041016e+00
3.090000000000000000e+03 7.889476776123046875e+01 -1.369889163970947266e+01 2.337593078613281250e+00 5.739536762237548828e+00 2.423138856887817383e+00 -1.266795992851257324e+00
3.091000000000000000e+03 7.680275726318359375e+01 -1.589842700958251953e+01 -2.227821111679077148e+00 1.593259239196777344e+01 4.111431598663330078e+00 -1.145407080650329590e+00
3.092000000000000000e+03 7.705915832519531250e+01 -1.575522232055664062e+01 -2.049007654190063477e+00 1.633139419555664062e+01 4.284716129302978516e+00 -2.140137434005737305e+00
3.093000000000000000e+03 7.786283874511718750e+01 -1.463702106475830078e+01 1.923500537872314453e+00 1.434143161773681641e+01 4.879479885101318359e+00 -4.389025688171386719e+00
3.094000000000000000e+03 7.683789062500000000e+01 -1.536419773101806641e+01 -1.913515448570251465e+00 1.814904975891113281e+01 4.870659828186035156e+00 -1.693219304084777832e+00
3.095000000000000000e+03 3.740781545639038086e+00 -2.477740859985351562e+01 -8.167245984077453613e-02 2.453444898128509521e-02 -1.714140363037586212e-02 6.233876943588256836e-01
3.096000000000000000e+03 6.506330013275146484e+00 3.682624435424804688e+01 3.826447355095297098e-04 2.010757161770015955e-04 1.751161325955763459e-04 2.398704964434728026e-04
3.097000000000000000e+03 7.442632293701171875e+01 -1.104785156250000000e+01 1.029913902282714844e+00 6.024003982543945312e+00 2.116175413131713867e+00 -3.956642866134643555e+00
3.098000000000000000e+03 7.822842407226562500e+01 -1.495701217651367188e+01 7.613122463226318359e-01 1.184952735900878906e+01 3.783251762390136719e+00 -4.414188385009765625e+00
3.099000000000000000e+03 3.600970983505249023e+00 -3.710034132003784180e+00 -9.720647335052490234e-02 -7.141397893428802490e-02 -5.058613419532775879e-02 -1.751551032066345215e-01
3.100000000000000000e+03 4.973164558410644531e+00 -3.384147644042968750e+00 -1.582018733024597168e-01 -2.459485828876495361e-02 -5.483901873230934143e-02 -1.884388029575347900e-01
3.101000000000000000e+03 7.689451599121093750e+01 -1.118239879608154297e+01 -2.131824016571044922e+00 1.665491867065429688e+01 4.356928825378417969e+00 9.721509218215942383e-01
3.102000000000000000e+03 3.709945297241210938e+01 -2.545127868652343750e+01 1.261402964591979980e+00 6.752810478210449219e+00 2.404264211654663086e+00 8.254987597465515137e-01
3.103000000000000000e+03 3.621046066284179688e+01 -2.477776527404785156e+01 1.509603619575500488e+00 7.803425788879394531e+00 2.793908834457397461e+00 1.319384813308715820e+00
3.104000000000000000e+03 7.539765167236328125e+01 -1.625944900512695312e+01 -1.082160711288452148e+00 1.086912822723388672e+01 2.936090230941772461e+00 2.725049734115600586e+00
3.105000000000000000e+03 7.806004333496093750e+01 -3.587721252441406250e+01 -6.276816129684448242e-02 1.021191215515136719e+01 3.044743061065673828e+00 4.950816929340362549e-01
3.106000000000000000e+03 7.765216064453125000e+01 -1.084315490722656250e+01 -1.469608306884765625e+00 1.366097164154052734e+01 3.657408952713012695e+00 2.602135419845581055e+00
3.107000000000000000e+03 2.593635177612304688e+01 3.842548751831054688e+01 -1.601328700780868530e-02 -1.345437858253717422e-02 -8.840299211442470551e-03 1.307431515306234360e-02
3.108000000000000000e+03 7.388282775878906250e+01 -1.558581066131591797e+01 1.105060458183288574e+00 3.490655422210693359e+00 1.378714799880981445e+00 2.188276767730712891e+00
3.109000000000000000e+03 7.633869934082031250e+01 -1.068733692169189453e+01 -2.255469560623168945e+00 1.470360946655273438e+01 3.734441995620727539e+00 -1.167120575904846191e+00
3.110000000000000000e+03 7.471682739257812500e+01 -1.081937885284423828e+01 3.608251214027404785e-01 7.916508197784423828e+00 2.483200073242187500e+00 -4.056587696075439453e+00
3.111000000000000000e+03 7.464328002929687500e+01 -1.025221061706542969e+01 -4.658588767051696777e-02 7.732618808746337891e+00 2.305809974670410156e+00 -3.236109018325805664e+00
3.112000000000000000e+03 7.446160888671875000e+01 -1.052276134490966797e+01 3.004750013351440430e-01 7.005841732025146484e+00 2.191895008087158203e+00 -3.403497695922851562e+00
3.113000000000000000e+03 7.433840942382812500e+01 -1.018792724609375000e+01 1.929931491613388062e-01 6.740511417388916016e+00 2.080051422119140625e+00 -3.052994489669799805e+00
3.114000000000000000e+03 4.140818023681640625e+01 4.892953395843505859e+00 -4.383025467395782471e-01 9.724920272827148438e+00 2.785985469818115234e+00 2.668141365051269531e+00
3.115000000000000000e+03 3.554050064086914062e+01 -3.324252319335937500e+01 -7.778772115707397461e-01 4.085573673248291016e+00 9.923089146614074707e-01 4.452259242534637451e-01
3.116000000000000000e+03 7.414842987060546875e+01 -1.561818885803222656e+01 1.065660238265991211e+00 4.525350093841552734e+00 1.677303075790405273e+00 2.762725353240966797e+00
3.117000000000000000e+03 7.471776580810546875e+01 -9.844135284423828125e+00 -3.960609436035156250e-01 8.043746948242187500e+00 2.294305801391601562e+00 -2.855591773986816406e+00
3.118000000000000000e+03 7.435566711425781250e+01 -9.768881797790527344e+00 -8.118972927331924438e-02 6.862930297851562500e+00 2.034522294998168945e+00 -2.713047266006469727e+00
3.119000000000000000e+03 3.702996969223022461e+00 -3.333131027221679688e+01 -7.177475839853286743e-02 1.696959286928176880e-01 2.937635034322738647e-02 1.412308681756258011e-02
3.120000000000000000e+03 7.657408905029296875e+01 -9.940384864807128906e+00 -2.119526386260986328e+00 1.284735488891601562e+01 3.218348503112792969e+00 -3.630438148975372314e-01
3.121000000000000000e+03 2.040084266662597656e+01 -3.494599914550781250e+01 -2.885913252830505371e-01 -2.849607542157173157e-02 -9.512621909379959106e-02 -2.972047403454780579e-02
3.122000000000000000e+03 7.582164001464843750e+01 -1.010778999328613281e+01 -1.711256742477416992e+00 1.184282398223876953e+01 3.039469957351684570e+00 -1.946406483650207520e+00
3.123000000000000000e+03 3.402707290649414062e+01 -3.385848236083984375e+01 -6.084433197975158691e-01 3.498514652252197266e+00 8.670214414596557617e-01 7.557193636894226074e-01
3.124000000000000000e+03 1.498692131042480469e+01 2.423764467239379883e+00 4.713325688499026000e-05 -3.697815991472452879e-04 -9.679450886324048042e-05 -6.427097832784056664e-05
3.125000000000000000e+03 7.597782897949218750e+01 -1.657212638854980469e+01 -1.955635070800781250e+00 1.250739574432373047e+01 3.165528059005737305e+00 1.120472431182861328e+00
3.126000000000000000e+03 5.116910457611083984e+00 -5.489339828491210938e+00 -1.375854164361953735e-01 -4.494039714336395264e-02 -5.475774407386779785e-02 -2.795690298080444336e-01
3.127000000000000000e+03 7.732884979248046875e+01 -1.616621398925781250e+01 -2.010078907012939453e+00 1.468145465850830078e+01 3.801412582397460938e+00 -2.455045700073242188e+00
3.128000000000000000e+03 7.756829071044921875e+01 -1.586222267150878906e+01 -1.575974702835083008e+00 1.491228199005126953e+01 4.000892162322998047e+00 -3.145313262939453125e+00
3.129000000000000000e+03 1.490564918518066406e+01 -1.058446216583251953e+01 2.995234131813049316e-01 1.182786002755165100e-01 1.253406107425689697e-01 3.105103597044944763e-02
3.130000000000000000e+03 7.228449249267578125e+01 -1.975270843505859375e+01 -9.159112232737243176e-04 2.929545402526855469e+00 8.785888552665710449e-01 9.967293590307235718e-02
3.131000000000000000e+03 7.513077545166015625e+01 -1.650096702575683594e+01 -7.966182231903076172e-01 9.512740135192871094e+00 2.614836454391479492e+00 2.561499834060668945e+00
3.132000000000000000e+03 7.260736083984375000e+01 -1.742100143432617188e+01 5.309213995933532715e-01 2.628977298736572266e+00 9.479696154594421387e-01 6.187747716903686523e-01
3.133000000000000000e+03 7.766267395019531250e+01 -1.669454956054687500e+01 -1.889596223831176758e+00 1.267314052581787109e+01 3.235063314437866211e+00 -2.514810562133789062e+00
3.134000000000000000e+03 7.439471435546875000e+01 -3.339487457275390625e+01 -3.315129131078720093e-02 6.713114261627197266e+00 2.003988742828369141e+00 6.966357827186584473e-01
3.135000000000000000e+03 7.402519226074218750e+01 -9.305637359619140625e+00 -9.850592911243438721e-02 6.106507301330566406e+00 1.802400469779968262e+00 -2.201138973236083984e+00
3.136000000000000000e+03 7.369223022460937500e+01 -9.170974731445312500e+00 -1.832479238510131836e-02 5.511886119842529297e+00 1.648068428039550781e+00 -1.960193395614624023e+00
3.137000000000000000e+03 7.394751739501953125e+01 -8.952219009399414062e+00 -1.918474882841110229e-01 6.141993522644042969e+00 1.785043835639953613e+00 -2.004484176635742188e+00
3.138000000000000000e+03 4.344605255126953125e+01 3.131681251525878906e+01 3.060585856437683105e-01 4.221570014953613281e+00 1.358288526535034180e+00 -6.899583339691162109e-02
3.139000000000000000e+03 4.452116012573242188e+01 3.178877639770507812e+01 2.181152999401092529e-01 4.117205142974853516e+00 1.300596117973327637e+00 1.531089097261428833e-01
3.140000000000000000e+03 3.616171264648437500e+01 -1.694033861160278320e+00 -1.780118703842163086e+00 4.116550445556640625e+00 7.009294629096984863e-01 5.360698103904724121e-01
3.141000000000000000e+03 3.414649963378906250e+01 -1.275128650665283203e+01 1.625981688499450684e+00 2.727558374404907227e+00 1.306061983108520508e+00 2.130519896745681763e-01
3.142000000000000000e+03 4.637142181396484375e+01 3.102666282653808594e+01 3.182991147041320801e-01 4.086314678192138672e+00 1.321384072303771973e+00 3.414407968521118164e-01
3.143000000000000000e+03 4.632358551025390625e+01 2.961701393127441406e+01 5.070500373840332031e-01 4.249187469482421875e+00 1.426871299743652344e+00 3.436926305294036865e-01
3.144000000000000000e+03 7.548863983154296875e+01 -1.679070091247558594e+01 -1.405603528022766113e+00 1.057609558105468750e+01 2.751147508621215820e+00 1.706264257431030273e+00
3.145000000000000000e+03 4.521204376220703125e+01 3.044059371948242188e+01 3.919190466403961182e-01 4.291870594024658203e+00 1.405136823654174805e+00 2.241225391626358032e-01
3.146000000000000000e+03 4.704515838623046875e+01 -2.923870658874511719e+01 1.505165845155715942e-01 1.818604469299316406e+00 5.907363295555114746e-01 -7.637537121772766113e-01
3.147000000000000000e+03 1.163041782379150391e+01 3.043116378784179688e+01 -5.686168442480266094e-04 -1.071550999768078327e-03 -4.920503706671297550e-04 -1.586457947269082069e-04
3.148000000000000000e+03 7.418930053710937500e+00 -6.516772270202636719e+00 -1.740964055061340332e-01 9.283378720283508301e-02 -2.437878213822841644e-02 -2.921845316886901855e-01
3.149000000000000000e+03 3.339640808105468750e+01 -1.239002037048339844e+01 1.717783451080322266e+00 1.999962925910949707e+00 1.115323901176452637e+00 2.901185452938079834e-01
3.150000000000000000e+03 7.418543243408203125e+01 -8.490550041198730469e+00 -5.006135702133178711e-01 6.682878494262695312e+00 1.854679465293884277e+00 -1.677779078483581543e+00
3.151000000000000000e+03 7.375229644775390625e+01 -8.556355476379394531e+00 -2.263041734695434570e-01 5.890942573547363281e+00 1.699391603469848633e+00 -1.678393602371215820e+00
3.152000000000000000e+03 2.751358032226562500e+01 -8.742131233215332031e+00 1.069635272026062012e+00 -6.543093323707580566e-01 1.245977878570556641e-01 -1.984108090400695801e-01
3.153000000000000000e+03 5.119585037231445312e+01 6.282168388366699219e+00 -7.785148024559020996e-01 2.132286429405212402e-01 -1.695858389139175415e-01 -2.231542952358722687e-02
3.154000000000000000e+03 3.646454620361328125e+01 -1.060049438476562500e+01 1.812356114387512207e+00 5.877938270568847656e+00 2.307088375091552734e+00 4.636559784412384033e-01
3.155000000000000000e+03 7.560269165039062500e+01 -8.162735939025878906e+00 -1.146035790443420410e+00 9.133362770080566406e+00 2.396198034286499023e+00 -9.425824880599975586e-01
3.156000000000000000e+03 7.260310363769531250e+01 2.732835388183593750e+01 2.300955504179000854e-01 3.199867963790893555e+00 1.028989076614379883e+00 -4.070724844932556152e-01
3.157000000000000000e+03 7.539190673828125000e+01 -1.763724899291992188e+01 -1.233491539955139160e+00 9.588946342468261719e+00 2.506636381149291992e+00 9.853674769401550293e-01
3.158000000000000000e+03 7.575379180908203125e+01 -1.817387008666992188e+01 -1.406886100769042969e+00 9.956996917724609375e+00 2.565033435821533203e+00 2.209814041852951050e-01
3.159000000000000000e+03 7.342728424072265625e+01 -2.171729087829589844e+01 -3.549427390098571777e-01 4.947597026824951172e+00 1.377796292304992676e+00 -7.963509112596511841e-02
3.160000000000000000e+03 7.352669525146484375e+01 -1.561885714530944824e+00 -3.161047101020812988e-01 5.670717716217041016e+00 1.606383800506591797e+00 -1.144551396369934082e+00
3.161000000000000000e+03 1.335403442382812500e+01 -8.878357887268066406e+00 4.262684658169746399e-02 1.788743585348129272e-01 6.645036488771438599e-02 -5.783363431692123413e-02
3.162000000000000000e+03 7.418714141845703125e+01 -2.064753150939941406e+01 -3.524322807788848877e-01 6.182315826416015625e+00 1.748965024948120117e+00 4.731874912977218628e-02
3.163000000000000000e+03 7.376960754394531250e+01 -5.844162940979003906e+00 -4.739156961441040039e-01 6.069444656372070312e+00 1.678658723831176758e+00 -1.049092769622802734e+00
3.164000000000000000e+03 7.268797302246093750e+01 -1.331287980079650879e+00 -4.139540493488311768e-01 4.941210269927978516e+00 1.358176946640014648e+00 -1.189834237098693848e+00
3.165000000000000000e+03 7.502511596679687500e+01 -7.673852443695068359e+00 -8.285941481590270996e-01 8.035501480102539062e+00 2.162072181701660156e+00 -1.143626451492309570e+00
3.166000000000000000e+03 4.370270538330078125e+01 -2.586275482177734375e+01 3.033687770366668701e-01 3.340577363967895508e+00 1.093183875083923340e+00 -9.170557260513305664e-01
3.167000000000000000e+03 7.492118072509765625e+01 -2.864985466003417969e+01 -4.083348214626312256e-01 7.400004863739013672e+00 2.097501039505004883e+00 4.801712632179260254e-01
3.168000000000000000e+03 7.395837402343750000e+01 -2.967069053649902344e+01 -2.890310585498809814e-01 6.290029525756835938e+00 1.800299644470214844e+00 4.915574193000793457e-01
3.169000000000000000e+03 1.388453292846679688e+01 -9.237136840820312500e+00 9.254502505064010620e-02 1.857584565877914429e-01 8.349104225635528564e-02 -2.298370562493801117e-02
3.170000000000000000e+03 7.539183807373046875e+01 -2.172088432312011719e+01 -5.096973776817321777e-01 7.919746398925781250e+00 2.223014593124389648e+00 -2.016936242580413818e-01
3.171000000000000000e+03 7.132831573486328125e+01 -6.479255676269531250e+00 -2.853791117668151855e-01 3.208256483078002930e+00 8.768632411956787109e-01 -7.269452810287475586e-01
3.172000000000000000e+03 4.746143341064453125e+01 2.615334320068359375e+01 7.149607539176940918e-01 4.367867946624755859e+00 1.524848580360412598e+00 5.186326503753662109e-01
3.173000000000000000e+03 7.495333099365234375e+01 -2.230165290832519531e+01 -4.104735553264617920e-01 7.338877201080322266e+00 2.078521013259887695e+00 -9.108407050371170044e-02
3.174000000000000000e+03 7.435034942626953125e+01 2.814551925659179688e+01 1.350854188203811646e-01 3.217835426330566406e+00 1.005876302719116211e+00 -3.174356520175933838e-01
3.175000000000000000e+03 2.135131072998046875e+01 -8.757928848266601562e+00 2.663828134536743164e-01 -3.071136176586151123e-01 -1.221923716366291046e-02 -9.306704252958297729e-02
3.176000000000000000e+03 7.490360260009765625e+01 -2.736124801635742188e+01 -3.582413494586944580e-01 7.403503417968750000e+00 2.113578557968139648e+00 2.933859527111053467e-01
3.177000000000000000e+03 7.493553924560546875e+01 -2.599615097045898438e+01 -4.099272787570953369e-01 7.356080532073974609e+00 2.083845853805541992e+00 1.400192826986312866e-01
3.178000000000000000e+03 7.500191497802734375e+01 -2.462504959106445312e+01 -3.760832548141479492e-01 7.404399871826171875e+00 2.108494997024536133e+00 -5.247973836958408356e-03
3.179000000000000000e+03 7.191246032714843750e+01 -5.485035896301269531e+00 -4.850451052188873291e-01 3.966083049774169922e+00 1.044311404228210449e+00 -8.774082064628601074e-01
3.180000000000000000e+03 7.292137908935546875e+01 -2.151919841766357422e+00 -4.444222748279571533e-01 5.122799873352050781e+00 1.403513312339782715e+00 -1.087014317512512207e+00
3.181000000000000000e+03 7.507299041748046875e+01 -5.071196556091308594e+00 -4.733430445194244385e-01 7.350119113922119141e+00 2.063032865524291992e+00 -7.987965941429138184e-01
3.182000000000000000e+03 4.782062911987304688e+01 1.289417171478271484e+01 1.990460872650146484e+00 3.433602094650268555e+00 1.627218842506408691e+00 1.909900665283203125e+00
3.183000000000000000e+03 7.518836975097656250e+01 -6.880180358886718750e+00 -7.718790173530578613e-01 7.938420772552490234e+00 2.149962663650512695e+00 -9.094139337539672852e-01
3.184000000000000000e+03 9.104031562805175781e+00 1.539833927154541016e+01 1.052318606525659561e-03 4.018142135464586318e-05 3.277500218246132135e-04 -2.617431746330112219e-04
3.185000000000000000e+03 5.130621337890625000e+01 1.795823478698730469e+01 1.675182223320007324e+00 2.913761854171752930e+00 1.376683235168457031e+00 1.092837214469909668e+00
3.186000000000000000e+03 7.227940368652343750e+01 7.285990238189697266e+00 8.593849092721939087e-02 4.272615432739257812e+00 1.307566165924072266e+00 -1.638058423995971680e+00
3.187000000000000000e+03 7.783301830291748047e+00 1.392654609680175781e+01 8.079218678176403046e-04 -2.812486854963935912e-05 2.339390921406447887e-04 -9.525057066639419645e-06
3.188000000000000000e+03 9.991315841674804688e+00 1.385779857635498047e+01 9.200161439366638660e-04 6.815334199927747250e-05 2.964508603326976299e-04 -4.840404435526579618e-04
3.189000000000000000e+03 2.149056434631347656e+01 -9.762744903564453125e+00 4.261974394321441650e-01 -3.407471776008605957e-01 2.563508413732051849e-02 -2.616114728152751923e-02
3.190000000000000000e+03 6.814136505126953125e+01 8.034786224365234375e+00 2.001850903034210205e-01 2.531314373016357422e+00 8.194498419761657715e-01 -1.698046803474426270e+00
3.191000000000000000e+03 7.002126312255859375e+01 9.266104698181152344e+00 2.542816698551177979e-01 3.234341859817504883e+00 1.046587109565734863e+00 -1.691890716552734375e+00
3.192000000000000000e+03 1.628620338439941406e+01 -1.255944609642028809e+00 -9.329468011856079102e-01 -1.878181286156177521e-02 -2.855185866355895996e-01 4.694862663745880127e-02
3.193000000000000000e+03 1.779829025268554688e+01 -2.059187889099121094e+00 -8.421780467033386230e-01 -2.162483707070350647e-02 -2.591408789157867432e-01 -1.412473991513252258e-02
3.194000000000000000e+03 1.623538208007812500e+01 -1.994474172592163086e+00 -7.845380306243896484e-01 -2.293835580348968506e-02 -2.422429174184799194e-01 2.208935283124446869e-02
3.195000000000000000e+03 1.858121871948242188e+01 -2.091711521148681641e+00 -8.283659815788269043e-01 -5.293090268969535828e-02 -2.643890678882598877e-01 -3.247088193893432617e-02
3.196000000000000000e+03 1.856809425354003906e+01 -1.350533485412597656e+00 -1.018997073173522949e+00 -2.183732017874717712e-02 -3.122503459453582764e-01 -7.774961180984973907e-03
3.197000000000000000e+03 1.704577255249023438e+01 -1.287305474281311035e+00 -9.311281442642211914e-01 -1.654207007959485054e-03 -2.798347175121307373e-01 3.027422726154327393e-02
3.198000000000000000e+03 1.701626777648925781e+01 -2.026717901229858398e+00 -8.193745613098144531e-01 -2.075536735355854034e-02 -2.520389854907989502e-01 1.416893675923347473e-02
3.199000000000000000e+03 1.780648040771484375e+01 -1.318892598152160645e+00 -9.544767737388610840e-01 -8.406917564570903778e-03 -2.888650894165039062e-01 2.212229557335376740e-02
3.200000000000000000e+03 2.016102409362792969e+01 -1.984116315841674805e+00 -8.562619090080261230e-01 -2.830884978175163269e-02 -2.653712332248687744e-01 -4.556206613779067993e-02
3.201000000000000000e+03 1.932956504821777344e+01 -1.326877713203430176e+00 -1.015118598937988281e+00 -3.507907688617706299e-02 -3.150593340396881104e-01 -5.851176753640174866e-02
3.202000000000000000e+03 2.095439147949218750e+01 -1.900163888931274414e+00 -8.407891392707824707e-01 -7.156501058489084244e-03 -2.543836832046508789e-01 -6.609147787094116211e-02
3.203000000000000000e+03 1.936882019042968750e+01 -2.066858530044555664e+00 -8.346580862998962402e-01 -4.279349744319915771e-02 -2.632354795932769775e-01 -2.649173513054847717e-02
3.204000000000000000e+03 2.174835014343261719e+01 -1.814883351325988770e+00 -8.063263297080993652e-01 -1.339015178382396698e-02 -2.459149509668350220e-01 -5.259780213236808777e-02
3.205000000000000000e+03 2.161623764038085938e+01 -1.084643244743347168e+00 -9.007349014282226562e-01 -1.114876009523868561e-02 -2.735651135444641113e-01 -9.728774428367614746e-02
3.206000000000000000e+03 2.009082221984863281e+01 -1.247412800788879395e+00 -9.453917145729064941e-01 -3.604734549298882484e-03 -2.846989333629608154e-01 -8.432003110647201538e-02
3.207000000000000000e+03 2.085324478149414062e+01 -1.166737556457519531e+00 -9.150558114051818848e-01 -1.836504600942134857e-02 -2.800262570381164551e-01 -8.611018955707550049e-02
3.208000000000000000e+03 2.387390518188476562e+01 -4.479292035102844238e-01 -2.019587904214859009e-01 1.761486195027828217e-02 -5.530317872762680054e-02 9.132140874862670898e-02
3.209000000000000000e+03 2.338660240173339844e+01 -1.393575310707092285e+00 -8.321716189384460449e-01 1.374308168888092041e-01 -2.084222435951232910e-01 9.258793666958808899e-03
3.210000000000000000e+03 2.463154602050781250e+01 -7.788130044937133789e-01 -4.828703105449676514e-01 -1.236048340797424316e-01 -1.819425523281097412e-01 2.008792310953140259e-01
3.211000000000000000e+03 2.316317939758300781e+01 -6.830692291259765625e-01 -4.800645709037780762e-01 9.034286439418792725e-02 -1.169165149331092834e-01 -1.738280616700649261e-02
3.212000000000000000e+03 2.239013290405273438e+01 -9.233466386795043945e-01 -7.505030632019042969e-01 -2.481913566589355469e-02 -2.325966656208038330e-01 -9.095808118581771851e-02
3.213000000000000000e+03 2.256301116943359375e+01 -1.645976901054382324e+00 -8.108204007148742676e-01 8.074232935905456543e-02 -2.190234214067459106e-01 2.388288266956806183e-03
3.214000000000000000e+03 2.414787673950195312e+01 -1.146310925483703613e+00 -8.452552556991577148e-01 8.856439590454101562e-02 -2.270072549581527710e-01 4.906651377677917480e-02
3.215000000000000000e+03 2.268977355957031250e+01 7.519461512565612793e-01 1.497630728408694267e-04 7.668252510484308004e-05 6.793367356294766068e-05 6.903184839757159352e-05
3.216000000000000000e+03 2.288392829895019531e+01 3.258301690220832825e-02 -5.195549601921811700e-05 -1.685616007307544351e-05 -2.064349610009230673e-05 1.786780740076210350e-05
3.217000000000000000e+03 2.203942871093750000e+01 5.569665431976318359e-01 -3.785965964198112488e-05 -1.460573985241353512e-04 -5.517511817743070424e-05 -7.188524250523187220e-06
3.218000000000000000e+03 2.220252990722656250e+01 -1.685228794813156128e-01 3.493120675557292998e-05 2.082920582324732095e-05 1.672812322794925421e-05 7.666597412026021630e-06
3.219000000000000000e+03 2.341383171081542969e+01 3.852292895317077637e-01 1.059232818079181015e-05 2.254635182907804847e-05 9.941603821062017232e-06 -5.393851552071282640e-06
3.220000000000000000e+03 2.086642074584960938e+01 -3.808408677577972412e-01 4.295238977647386491e-05 3.942733019357547164e-05 2.471391599101480097e-05 -5.311851055012084544e-06
3.221000000000000000e+03 2.032355690002441406e+01 -5.136474370956420898e-01 -2.020865758822765201e-05 -1.081305017578415573e-04 -3.850174834951758385e-05 -2.246493068014387973e-06
3.222000000000000000e+03 2.127867507934570312e+01 4.179379940032958984e-01 6.507002399303019047e-05 7.423517672577872872e-05 4.179155803285539150e-05 -6.644648237852379680e-05
3.223000000000000000e+03 1.928600883483886719e+01 1.842018812894821167e-01 1.750346564222127199e-04 -2.275713768540299498e-06 5.182767927180975676e-05 -3.463667962932959199e-05
3.224000000000000000e+03 1.994704437255859375e+01 -1.048566401004791260e-02 2.047876660071779042e-05 -5.036605216446332633e-06 4.632648142433026806e-06 7.960525545058771968e-05
3.225000000000000000e+03 1.923109054565429688e+01 -5.657521486282348633e-01 -6.428743654396384954e-05 3.637707777670584619e-05 -8.373107448278460652e-06 3.171550997649319470e-05
3.226000000000000000e+03 2.048274993896484375e+01 3.226658403873443604e-01 -1.820075412979349494e-04 4.690262471740425099e-07 -5.446155410027131438e-05 1.317027727054664865e-05
3.227000000000000000e+03 2.150494194030761719e+01 -3.022379875183105469e-01 -1.774848715285770595e-05 -2.836534076777752489e-05 -1.383414837619056925e-05 6.116108579590218142e-06
3.228000000000000000e+03 1.981065368652343750e+01 -5.720503926277160645e-01 4.856855412072036415e-06 7.474425365217030048e-05 2.388033135503064841e-05 -6.084904816816560924e-05
3.229000000000000000e+03 1.707793617248535156e+01 -5.109162330627441406e-01 2.790539110719691962e-05 7.499248749809339643e-05 3.086936339968815446e-05 5.548690751311369240e-05
3.230000000000000000e+03 1.633993148803710938e+01 -4.782602787017822266e-01 -2.741990101640112698e-05 -1.623213611310347915e-04 -5.692238119081594050e-05 -5.309245170792564750e-05
3.231000000000000000e+03 1.781616592407226562e+01 -5.415064096450805664e-01 -4.327101123635657132e-05 8.822335985314566642e-06 -1.033460284816101193e-05 -3.916789501090534031e-05
3.232000000000000000e+03 1.854128074645996094e+01 1.711868941783905029e-01 -1.574374182382598519e-04 -3.543836282915435731e-05 -5.786273322883062065e-05 -4.286801777197979391e-05
3.233000000000000000e+03 1.855440711975097656e+01 -5.699911117553710938e-01 3.599831325118429959e-05 -5.333747685654088855e-05 -5.201748990657506511e-06 1.406027786288177595e-05
3.234000000000000000e+03 1.639075088500976562e+01 2.602692842483520508e-01 6.347709131659939885e-05 1.901644136523827910e-04 7.609245221829041839e-05 1.244692539330571890e-04
3.235000000000000000e+03 1.710744285583496094e+01 2.284961640834808350e-01 -8.978792902780696750e-05 -1.404404320055618882e-04 -6.906851194798946381e-05 -1.340048474958166480e-04
3.236000000000000000e+03 1.782435607910156250e+01 1.987887471914291382e-01 1.212207207572646439e-04 8.243224147008731961e-05 6.109588866820558906e-05 1.148666269727982581e-04
3.237000000000000000e+03 1.421318435668945312e+01 5.040000677108764648e-01 -4.473384251468814909e-05 -2.421847602818161249e-04 -8.607558265794068575e-05 -1.313170650973916054e-05
3.238000000000000000e+03 1.412459087371826172e+01 -2.306861728429794312e-01 1.933817839017137885e-05 2.555677201598882675e-04 8.247177174780517817e-05 2.485330151102971286e-05
3.239000000000000000e+03 1.338628387451171875e+01 -1.375386416912078857e-01 -2.298612889717333019e-05 -2.295751764904707670e-04 -7.576838834211230278e-05 -1.288811108679510653e-05
3.240000000000000000e+03 1.486306858062744141e+01 -3.233485221862792969e-01 -2.358487654419150203e-05 -2.533403749112039804e-04 -8.307757525471970439e-05 -3.753233977477066219e-05
3.241000000000000000e+03 1.566856193542480469e+01 3.219058215618133545e-01 -6.413969094865024090e-05 -2.208920777775347233e-04 -8.550953498343005776e-05 -8.696113218320533633e-05
3.242000000000000000e+03 1.560165977478027344e+01 -4.155019819736480713e-01 2.575229154899716377e-05 2.208267105743288994e-04 7.397370063699781895e-05 4.610052201314829290e-05
3.243000000000000000e+03 1.348572158813476562e+01 5.957868695259094238e-01 5.316590613801963627e-05 2.288377872901037335e-04 8.460110984742641449e-05 -1.408160915161715820e-05
3.244000000000000000e+03 1.494081592559814453e+01 4.126985073089599609e-01 4.469339910428971052e-05 2.405981213087216020e-04 8.558746048947796226e-05 5.220091406954452395e-05
3.245000000000000000e+03 1.115022563934326172e+01 2.165033817291259766e-01 2.370259608142077923e-05 1.209281108458526433e-04 4.338921280577778816e-05 7.740916316834045574e-07
3.246000000000000000e+03 1.122651290893554688e+01 9.537453055381774902e-01 -7.838694727979600430e-05 -1.377888693241402507e-04 -6.485274207079783082e-05 2.069477523036766797e-05
3.247000000000000000e+03 1.040434932708740234e+01 3.321511745452880859e-01 -2.610637602629140019e-05 -1.004670339170843363e-04 -3.797202225541695952e-05 -1.133016553467314225e-06
3.248000000000000000e+03 1.189680099487304688e+01 9.631319344043731689e-02 -2.418704752926714718e-05 -1.497327757533639669e-04 -5.217594662099145353e-05 -1.105361775444180239e-06
3.249000000000000000e+03 1.274307727813720703e+01 7.053368687629699707e-01 -6.395307718776166439e-05 -1.970148878172039986e-04 -7.829038804629817605e-05 2.843543006747495383e-05
3.250000000000000000e+03 1.264393043518066406e+01 -2.822761237621307373e-02 2.186151141359005123e-05 1.874048757599666715e-04 6.277991633396595716e-05 5.305170816427562386e-06
3.251000000000000000e+03 1.046920776367187500e+01 1.071231842041015625e+00 7.795889541739597917e-05 1.163363922387361526e-04 5.828858775203116238e-05 -1.255312872672220692e-05
3.252000000000000000e+03 1.198451900482177734e+01 8.317164182662963867e-01 7.247499161167070270e-05 1.660588459344580770e-04 7.156014908105134964e-05 -2.793449675664305687e-05
3.253000000000000000e+03 8.874713897705078125e+00 3.907073438167572021e-01 -2.699641845538280904e-05 -9.413468796992674470e-05 -3.633933010860346258e-05 -1.102820169762708247e-05
3.254000000000000000e+03 9.645540237426757812e+00 3.903963863849639893e-01 2.693219721550121903e-05 8.990101196104660630e-05 3.504996129777282476e-05 7.783077307976782322e-06
3.255000000000000000e+03 7.374577522277832031e+00 1.131132245063781738e+00 7.468031253665685654e-05 1.152028853539377451e-04 5.696496009477414191e-05 2.684669561858754605e-05
3.256000000000000000e+03 7.331357002258300781e+00 3.911322057247161865e-01 -2.477132693456951529e-05 -1.176825899165123701e-04 -4.273617378203198314e-05 -1.446998794563114643e-05
3.257000000000000000e+03 5.045433998107910156e+00 1.131745219230651855e+00 -6.956398283364251256e-05 -1.308247592533007264e-04 -6.011662480887025595e-05 -9.385073099110741168e-06
3.258000000000000000e+03 2.715631723403930664e+00 1.131616950035095215e+00 4.627327871276065707e-05 1.169945317087695003e-04 4.898034239886328578e-05 -3.151130295009352267e-05
3.259000000000000000e+03 2.699708461761474609e+00 3.916168808937072754e-01 -1.752474236127454787e-05 -1.383108610752969980e-04 -4.675068339565768838e-05 1.117404008255107328e-05
3.260000000000000000e+03 1.939137935638427734e+00 1.131583452224731445e+00 -4.134255868848413229e-05 -1.077703855116851628e-04 -4.473388253245502710e-05 6.332172779366374016e-05
3.261000000000000000e+03 1.927764058113098145e+00 3.915834426879882812e-01 1.675397834333125502e-05 9.997677989304065704e-05 3.501922765281051397e-05 -2.843218862835783511e-05
3.262000000000000000e+03 1.156864285469055176e+00 3.912966847419738770e-01 -3.496990029816515744e-05 -4.554157567326910794e-05 -2.415344170003663749e-05 3.010122600244358182e-05
3.263000000000000000e+03 3.880036771297454834e-01 1.130522727966308594e+00 -1.605358120286837220e-04 -2.455396497680339962e-05 -5.552693255594931543e-05 4.961368904332630336e-05
3.264000000000000000e+03 3.857289254665374756e-01 3.905227184295654297e-01 3.991234552813693881e-05 8.976990102382842451e-06 1.466680078010540456e-05 -1.121061814046697691e-05
3.265000000000000000e+03 4.243989944458007812e+00 3.916435539722442627e-01 -2.266269439132884145e-05 -1.539616932859644294e-04 -5.298731412040069699e-05 -5.941916697338456288e-06
3.266000000000000000e+03 3.472155570983886719e+00 3.916060328483581543e-01 2.210678576375357807e-05 1.529224973637610674e-04 5.250878530205227435e-05 9.873216555433828034e-08
3.267000000000000000e+03 4.269012451171875000e+00 1.131643533706665039e+00 6.975651922402903438e-05 1.285554753849282861e-04 5.949359911028295755e-05 3.139242835459299386e-06
3.268000000000000000e+03 5.015861988067626953e+00 3.917452692985534668e-01 2.513637446099892259e-05 1.490453578298911452e-04 5.225451968726702034e-05 8.560664355172775686e-06
3.269000000000000000e+03 5.788088321685791016e+00 3.919011354446411133e-01 -2.285584741912316531e-05 -1.414365397067740560e-04 -4.928771522827446461e-05 -1.088712542696157470e-05
3.270000000000000000e+03 6.598729610443115234e+00 1.131563067436218262e+00 -6.905425107106566429e-05 -1.237225951626896858e-04 -5.783305095974355936e-05 -2.199471418862231076e-05
3.271000000000000000e+03 6.560058593750000000e+00 3.915631175041198730e-01 2.495863191143143922e-05 1.309384242631494999e-04 4.676911703427322209e-05 1.343703752354485914e-05
3.272000000000000000e+03 8.103197097778320312e+00 3.908808529376983643e-01 2.685683830350171775e-05 1.039375274558551610e-04 3.923830809071660042e-05 1.376316322421189398e-05
3.273000000000000000e+03 8.150966644287109375e+00 1.130880832672119141e+00 -8.036131475819274783e-05 -1.060689464793540537e-04 -5.592907837126404047e-05 -2.413661968603264540e-05
3.274000000000000000e+03 8.927033424377441406e+00 1.130707383155822754e+00 8.326771057909354568e-05 1.008652907330542803e-04 5.523990330402739346e-05 1.750921728671528399e-05
3.275000000000000000e+03 9.702409744262695312e+00 1.130396366119384766e+00 -8.399249054491519928e-05 -1.014852969092316926e-04 -5.564333332586102188e-05 -7.095377895893761888e-06
3.276000000000000000e+03 5.822209835052490234e+00 1.131901144981384277e+00 6.944933556951582432e-05 1.290527143282815814e-04 5.955061351414769888e-05 1.581925425853114575e-05
3.277000000000000000e+03 3.492628335952758789e+00 1.131605982780456543e+00 -5.937845344305969775e-05 -1.244773011421784759e-04 -5.515672455658204854e-05 7.650646693946328014e-06
3.278000000000000000e+03 1.163688659667968750e+00 1.131296634674072266e+00 8.779607742326334119e-05 7.637117232661694288e-05 4.925017492496408522e-05 -9.036127448780462146e-05
3.279000000000000000e+03 1.328147125244140625e+01 -9.107246994972229004e-01 -7.479655742645263672e-01 -1.279642526060342789e-02 -2.282285988330841064e-01 7.467792928218841553e-02
3.280000000000000000e+03 1.470345211029052734e+01 -1.836183547973632812e+00 -7.416897416114807129e-01 -2.807461423799395561e-03 -2.233491539955139160e-01 2.283090353012084961e-02
3.281000000000000000e+03 1.318203258514404297e+01 -1.644050240516662598e+00 -6.582452654838562012e-01 4.132262431085109711e-03 -1.962339133024215698e-01 2.004716917872428894e-02
3.282000000000000000e+03 1.478120040893554688e+01 -1.100136518478393555e+00 -8.332780599594116211e-01 -1.110801286995410919e-02 -2.533158361911773682e-01 7.893125712871551514e-02
3.283000000000000000e+03 1.546425342559814453e+01 -1.930399060249328613e+00 -7.598403096199035645e-01 -2.152710594236850739e-02 -2.344102263450622559e-01 1.748816668987274170e-02
3.284000000000000000e+03 1.553115558624267578e+01 -1.192991256713867188e+00 -8.996742367744445801e-01 -1.514191180467605591e-02 -2.744448482990264893e-01 7.072375714778900146e-02
3.285000000000000000e+03 1.403127861022949219e+01 -1.006039500236511230e+00 -7.875771522521972656e-01 -5.107578355818986893e-03 -2.378054261207580566e-01 7.642881572246551514e-02
3.286000000000000000e+03 1.394268608093261719e+01 -1.740725755691528320e+00 -7.014585137367248535e-01 -8.426951826550066471e-04 -2.106903642416000366e-01 2.699130401015281677e-02
3.287000000000000000e+03 1.171745300292968750e+01 -1.416588187217712402e+00 -5.765153169631958008e-01 1.783245429396629333e-02 -1.676048636436462402e-01 2.021283580688759685e-04
3.288000000000000000e+03 1.027132415771484375e+01 -1.186757922172546387e+00 -4.904352128505706787e-01 3.660869970917701721e-02 -1.361479461193084717e-01 -2.193812467157840729e-02
3.289000000000000000e+03 1.244032764434814453e+01 -1.534988999366760254e+00 -6.170854568481445312e-01 7.040060590952634811e-03 -1.830136030912399292e-01 7.968502119183540344e-03
3.290000000000000000e+03 1.253947448730468750e+01 -8.014244437217712402e-01 -6.932089328765869141e-01 -7.685641292482614517e-03 -2.102683782577514648e-01 7.464097440242767334e-02
3.291000000000000000e+03 1.180517101287841797e+01 -6.811850070953369141e-01 -6.239466667175292969e-01 -6.748988758772611618e-03 -1.892086863517761230e-01 6.657611578702926636e-02
3.292000000000000000e+03 1.107078933715820312e+01 -5.637502074241638184e-01 -5.565147399902343750e-01 4.253772494848817587e-04 -1.668268144130706787e-01 5.414608493447303772e-02
3.293000000000000000e+03 1.099450206756591797e+01 -1.300992131233215332e+00 -5.262966156005859375e-01 2.501172386109828949e-02 -1.503854691982269287e-01 -1.339146587997674942e-02
3.294000000000000000e+03 1.033618259429931641e+01 -4.476772546768188477e-01 -4.783288538455963135e-01 9.234976954758167267e-03 -1.407281607389450073e-01 3.147656843066215515e-02
3.295000000000000000e+03 9.576753616333007812e+00 -3.928347527980804443e-01 -4.388709366321563721e-01 1.452374365180730820e-02 -1.273041516542434692e-01 2.491966821253299713e-03
3.296000000000000000e+03 9.504050254821777344e+00 -1.132834792137145996e+00 -4.445634186267852783e-01 2.966694533824920654e-02 -1.244689449667930603e-01 -2.883914113044738770e-02
3.297000000000000000e+03 8.792594909667968750e+00 -3.964475393295288086e-01 -4.279662668704986572e-01 2.527108881622552872e-03 -1.276317387819290161e-01 -1.633963920176029205e-02
3.298000000000000000e+03 8.008638381958007812e+00 -3.979170620441436768e-01 -3.901795744895935059e-01 3.815798088908195496e-03 -1.159091293811798096e-01 -2.269557863473892212e-02
3.299000000000000000e+03 7.224994659423828125e+00 -3.992207646369934082e-01 -3.411253392696380615e-01 1.217633689520880580e-04 -1.023010686039924622e-01 -2.743446268141269684e-02
3.300000000000000000e+03 6.441524982452392578e+00 -4.004793763160705566e-01 -2.851548194885253906e-01 1.563081401400268078e-03 -8.507752418518066406e-02 -2.891123481094837189e-02
3.301000000000000000e+03 5.658351421356201172e+00 -4.034211039543151855e-01 -2.266672998666763306e-01 -1.207158085890114307e-03 -6.836234033107757568e-02 -3.004556149244308472e-02
3.302000000000000000e+03 4.875236511230468750e+00 -4.076028764247894287e-01 -1.681460887193679810e-01 1.073265666491352022e-04 -5.041162669658660889e-02 -2.865635976195335388e-02
3.303000000000000000e+03 4.092308998107910156e+00 -4.107097685337066650e-01 -1.134801730513572693e-01 -3.745125606656074524e-03 -3.516758978366851807e-02 -2.638152241706848145e-02
3.304000000000000000e+03 2.531672000885009766e+00 -4.164903461933135986e-01 -2.949071116745471954e-02 -5.648549646139144897e-03 -1.054177805781364441e-02 -1.439301203936338425e-02
3.305000000000000000e+03 2.214911937713623047e+00 -1.156490325927734375e+00 -3.853246569633483887e-02 -1.596044935286045074e-02 -1.634787395596504211e-02 -3.391745686531066895e-02
3.306000000000000000e+03 3.740455806255340576e-01 -5.643077492713928223e-01 5.519827245734632015e-04 1.973585225641727448e-03 7.576703792437911034e-04 1.017185160890221596e-03
3.307000000000000000e+03 1.421646475791931152e+00 -1.153123378753662109e+00 -1.808747835457324982e-02 -1.529791112989187241e-02 -1.001561712473630905e-02 -1.636959612369537354e-02
3.308000000000000000e+03 8.692774772644042969e+00 -1.136447548866271973e+00 -3.912475109100341797e-01 1.931521296501159668e-02 -1.115796938538551331e-01 -4.786022007465362549e-02
3.309000000000000000e+03 7.881700515747070312e+00 -1.137917041778564453e+00 -3.513683080673217773e-01 8.068764582276344299e-03 -1.029898598790168762e-01 -6.614981591701507568e-02
3.310000000000000000e+03 7.070939540863037109e+00 -1.139220714569091797e+00 -3.048700988292694092e-01 6.525517441332340240e-03 -8.950337022542953491e-02 -7.452252507209777832e-02
3.311000000000000000e+03 6.260352134704589844e+00 -1.140479445457458496e+00 -2.563988268375396729e-01 4.275038372725248337e-04 -7.679139822721481323e-02 -8.015103638172149658e-02
3.312000000000000000e+03 5.450060844421386719e+00 -1.143421053886413574e+00 -2.056741267442703247e-01 -8.473045309074223042e-04 -6.195643171668052673e-02 -8.024821430444717407e-02
3.313000000000000000e+03 4.639828681945800781e+00 -1.147602915763854980e+00 -1.571180522441864014e-01 -7.053652312606573105e-03 -4.925150796771049500e-02 -7.670573890209197998e-02
3.314000000000000000e+03 3.829783916473388672e+00 -1.150709748268127441e+00 -1.115310937166213989e-01 -8.717468939721584320e-03 -3.607457131147384644e-02 -6.846085935831069946e-02
3.315000000000000000e+03 3.020616531372070312e+00 -1.151894450187683105e+00 -7.050870358943939209e-02 -1.737829484045505524e-02 -2.636609785258769989e-02 -5.478132143616676331e-02
3.316000000000000000e+03 3.310259342193603516e+00 -4.118944704532623291e-01 -6.560365110635757446e-02 -1.875649672001600266e-03 -2.024379186332225800e-02 -2.026539109647274017e-02
3.317000000000000000e+03 1.765524148941040039e+00 -4.131233394145965576e-01 -6.757304538041353226e-03 -2.306267619132995605e-03 -2.719071693718433380e-03 -5.464395508170127869e-03
3.318000000000000000e+03 1.067645549774169922e+00 -3.868701159954071045e-01 9.483849862590432167e-04 -3.032413776963949203e-03 -6.252086604945361614e-04 -4.020524793304502964e-04
3.319000000000000000e+03 6.966503262519836426e-01 -1.126870155334472656e+00 -2.318561775609850883e-03 -2.000178443267941475e-03 -1.295622088946402073e-03 -1.127642695792019367e-03
3.320000000000000000e+03 7.587216949462890625e+01 -1.341737651824951172e+01 3.717748260498046875e+01 8.984147071838378906e+00 1.384848785400390625e+01 1.585478210449218750e+01
3.321000000000000000e+03 7.587729644775390625e+01 -1.343615722656250000e+01 3.238528823852539062e+01 2.433400154113769531e+01 1.701578712463378906e+01 2.711032867431640625e+01
3.322000000000000000e+03 7.588598632812500000e+01 -1.345357894897460938e+01 2.885659790039062500e+01 3.829450607299804688e+01 2.014533042907714844e+01 3.048656654357910156e+01
3.323000000000000000e+03 7.589789581298828125e+01 -1.346897792816162109e+01 2.389294624328613281e+01 5.209931945800781250e+01 2.279767990112304688e+01 3.063500404357910156e+01
3.324000000000000000e+03 7.591258239746093750e+01 -1.348176193237304688e+01 2.001622962951660156e+01 6.431841278076171875e+01 2.530039405822753906e+01 2.746232223510742188e+01
3.325000000000000000e+03 7.592946624755859375e+01 -1.349144363403320312e+01 1.662358856201171875e+01 7.426416778564453125e+01 2.726632690429687500e+01 2.165517997741699219e+01
3.326000000000000000e+03 7.594792175292968750e+01 -1.349765110015869141e+01 1.535566806793212891e+01 8.096244049072265625e+01 2.889543342590332031e+01 1.416673278808593750e+01
3.327000000000000000e+03 7.596723175048828125e+01 -1.350014781951904297e+01 1.608534240722656250e+01 8.404731750488281250e+01 3.003979682922363281e+01 5.841510295867919922e+00
3.328000000000000000e+03 7.598665618896484375e+01 -1.349883842468261719e+01 1.920948600769042969e+01 8.365473937988281250e+01 3.085926818847656250e+01 -1.885512351989746094e+00
3.329000000000000000e+03 7.600544738769531250e+01 -1.349377155303955078e+01 2.411374092102050781e+01 8.021250152587890625e+01 3.129787254333496094e+01 -8.258274078369140625e+00
3.330000000000000000e+03 7.602290344238281250e+01 -1.348514270782470703e+01 3.016370964050292969e+01 7.486952209472656250e+01 3.150996780395507812e+01 -1.234077739715576172e+01
3.331000000000000000e+03 7.603833770751953125e+01 -1.347328186035156250e+01 3.642084503173828125e+01 6.848354339599609375e+01 3.147131538391113281e+01 -1.400601196289062500e+01
3.332000000000000000e+03 7.605117034912109375e+01 -1.345864200592041016e+01 4.222972869873046875e+01 6.247949981689453125e+01 3.141276931762695312e+01 -1.323900890350341797e+01
3.333000000000000000e+03 7.606091308593750000e+01 -1.344178390502929688e+01 4.679859161376953125e+01 5.726432037353515625e+01 3.121887207031250000e+01 -1.054844474792480469e+01
3.334000000000000000e+03 7.606717681884765625e+01 -1.342335224151611328e+01 4.979641723632812500e+01 5.388476943969726562e+01 3.110435676574707031e+01 -6.511585235595703125e+00
3.335000000000000000e+03 7.606974029541015625e+01 -1.340405368804931641e+01 5.099388504028320312e+01 5.236988067626953125e+01 3.100912857055664062e+01 -1.699695467948913574e+00
3.336000000000000000e+03 7.606849670410156250e+01 -1.338462543487548828e+01 5.036631393432617188e+01 5.301441574096679688e+01 3.101421928405761719e+01 3.141300678253173828e+00
3.337000000000000000e+03 7.606349182128906250e+01 -1.336581039428710938e+01 4.792704010009765625e+01 5.572137069702148438e+01 3.109452438354492188e+01 7.508667945861816406e+00
3.338000000000000000e+03 7.605492401123046875e+01 -1.334833049774169922e+01 4.385100936889648438e+01 5.997472000122070312e+01 3.114772033691406250e+01 1.067897701263427734e+01
3.339000000000000000e+03 7.604311370849609375e+01 -1.333285331726074219e+01 3.864835739135742188e+01 6.581624603271484375e+01 3.133938026428222656e+01 1.205451774597167969e+01
3.340000000000000000e+03 7.602851867675781250e+01 -1.331997203826904297e+01 3.248473739624023438e+01 7.186779022216796875e+01 3.130575752258300781e+01 1.131940555572509766e+01
3.341000000000000000e+03 7.601168823242187500e+01 -1.331017875671386719e+01 2.653482055664062500e+01 7.757319641113281250e+01 3.123240470886230469e+01 8.097339630126953125e+00
3.342000000000000000e+03 7.599327850341796875e+01 -1.330384826660156250e+01 2.139111900329589844e+01 8.166036224365234375e+01 3.091544532775878906e+01 2.615413904190063477e+00
3.343000000000000000e+03 7.597399139404296875e+01 -1.330122280120849609e+01 1.775630187988281250e+01 8.315031433105468750e+01 3.027198600769042969e+01 -4.654878616333007812e+00
3.344000000000000000e+03 7.595455932617187500e+01 -1.330240345001220703e+01 1.630040168762207031e+01 8.135511779785156250e+01 2.929665565490722656e+01 -1.260209751129150391e+01
3.345000000000000000e+03 7.593572235107421875e+01 -1.330734443664550781e+01 1.709883308410644531e+01 7.595081329345703125e+01 2.791489410400390625e+01 -2.038678169250488281e+01
3.346000000000000000e+03 7.591822052001953125e+01 -1.331585693359375000e+01 1.958046722412109375e+01 6.735134124755859375e+01 2.607954216003417969e+01 -2.660644149780273438e+01
3.347000000000000000e+03 7.590270233154296875e+01 -1.332761573791503906e+01 2.348576354980468750e+01 5.605656433105468750e+01 2.386269760131835938e+01 -3.058958244323730469e+01
3.348000000000000000e+03 7.588977050781250000e+01 -1.334216976165771484e+01 2.731382560729980469e+01 4.342831420898437500e+01 2.122264289855957031e+01 -3.172102355957031250e+01
3.349000000000000000e+03 7.587992095947265625e+01 -1.335896301269531250e+01 3.116920471191406250e+01 2.995069503784179688e+01 1.833596992492675781e+01 -2.953542900085449219e+01
3.350000000000000000e+03 7.587352752685546875e+01 -1.337735176086425781e+01 3.311108779907226562e+01 1.738908195495605469e+01 1.515005016326904297e+01 -2.447287559509277344e+01
3.351000000000000000e+03 7.587084197998046875e+01 -1.339663410186767578e+01 3.451182937622070312e+01 5.397204399108886719e+00 1.197271060943603516e+01 -1.146264839172363281e+01
