# el_label, x, y, sXX, sYY, sZZ, sXY
1.000000000000000000e+00 3.136836242675781250e+01 -5.694926261901855469e+00 3.079145431518554688e+00 -4.286292195320129395e-01 7.951548099517822266e-01 -2.242598056793212891e+00
2.000000000000000000e+00 3.156520652770996094e+01 -5.724415302276611328e+00 5.117302894592285156e+00 3.365426957607269287e-01 1.636153697967529297e+00 -3.871317803859710693e-01
3.000000000000000000e+00 3.176205062866210938e+01 -5.753903865814208984e+00 3.358718395233154297e+00 -4.075661301612854004e-02 9.953885674476623535e-01 -5.581229329109191895e-01
4.000000000000000000e+00 3.195889663696289062e+01 -5.783392429351806641e+00 2.597633600234985352e+00 -6.877020001411437988e-02 7.586590051651000977e-01 -2.023501247167587280e-01
5.000000000000000000e+00 3.137132453918457031e+01 -5.636596679687500000e+00 1.185103321075439453e+01 -1.577888131141662598e+00 3.081943511962890625e+00 -1.575810551643371582e+00
6.000000000000000000e+00 3.157014274597167969e+01 -5.627199172973632812e+00 6.856484889984130859e+00 1.867181360721588135e-01 2.112960815429687500e+00 -1.646258085966110229e-01
7.000000000000000000e+00 3.176896286010742188e+01 -5.617801189422607422e+00 6.122321128845214844e+00 -2.245011478662490845e-01 1.769345998764038086e+00 4.709415435791015625e-01
8.000000000000000000e+00 3.196778106689453125e+01 -5.608403205871582031e+00 4.611655712127685547e+00 -1.734718531370162964e-01 1.331455230712890625e+00 4.113288819789886475e-01
9.000000000000000000e+00 3.136287307739257812e+01 -5.578806877136230469e+00 1.618603897094726562e+01 -3.648338019847869873e-01 4.746361732482910156e+00 2.345002174377441406e+00
1.000000000000000000e+01 3.155605888366699219e+01 -5.530881881713867188e+00 1.043827056884765625e+01 -3.701792359352111816e-01 3.020427227020263672e+00 1.426417231559753418e+00
1.100000000000000000e+01 3.174924468994140625e+01 -5.482957363128662109e+00 7.712306499481201172e+00 2.044799178838729858e-01 2.375035762786865234e+00 1.659690380096435547e+00
1.200000000000000000e+01 3.194242858886718750e+01 -5.435032844543457031e+00 6.455060005187988281e+00 -2.176223844289779663e-01 1.871231198310852051e+00 1.883812665939331055e+00
1.300000000000000000e+01 3.134333419799804688e+01 -5.523767471313476562e+00 1.804698944091796875e+01 1.791888952255249023e+00 5.951663494110107422e+00 6.022267341613769531e+00
1.400000000000000000e+01 3.152349281311035156e+01 -5.439149856567382812e+00 1.210761642456054688e+01 1.067661404609680176e+00 3.952583312988281250e+00 4.047058105468750000e+00
1.500000000000000000e+01 3.170365142822265625e+01 -5.354532718658447266e+00 9.340085029602050781e+00 6.135783791542053223e-01 2.986099004745483398e+00 3.553716421127319336e+00
1.600000000000000000e+01 3.188381004333496094e+01 -5.269915103912353516e+00 7.388559341430664062e+00 6.477007269859313965e-01 2.410877943038940430e+00 3.415109157562255859e+00
1.700000000000000000e+01 3.131345367431640625e+01 -5.473585128784179688e+00 1.768884277343750000e+01 5.738006591796875000e+00 7.028054714202880859e+00 9.142086982727050781e+00
1.800000000000000000e+01 3.147369003295898438e+01 -5.355513095855712891e+00 1.257816505432128906e+01 3.166406154632568359e+00 4.723371505737304688e+00 6.428936481475830078e+00
1.900000000000000000e+01 3.163392829895019531e+01 -5.237441062927246094e+00 9.618473052978515625e+00 2.429318428039550781e+00 3.614337444305419922e+00 5.488903999328613281e+00
2.000000000000000000e+01 3.179416656494140625e+01 -5.119369029998779297e+00 7.823019504547119141e+00 1.789443016052246094e+00 2.883738756179809570e+00 5.096922874450683594e+00
2.100000000000000000e+01 3.127437400817871094e+01 -5.430180549621582031e+00 1.615842437744140625e+01 1.008899879455566406e+01 7.874227046966552734e+00 1.097841548919677734e+01
2.200000000000000000e+01 3.140855979919433594e+01 -5.283172130584716797e+00 1.170277118682861328e+01 6.472520828247070312e+00 5.452587604522705078e+00 8.090336799621582031e+00
2.300000000000000000e+01 3.154274559020996094e+01 -5.136163711547851562e+00 9.214641571044921875e+00 4.645455837249755859e+00 4.158029079437255859e+00 6.952823638916015625e+00
2.400000000000000000e+01 3.167693138122558594e+01 -4.989155292510986328e+00 7.196865558624267578e+00 3.865924119949340820e+00 3.318836927413940430e+00 6.347749710083007812e+00
2.500000000000000000e+01 3.122759246826171875e+01 -5.395214557647705078e+00 1.387054061889648438e+01 1.489106273651123047e+01 8.628480911254882812e+00 1.124904441833496094e+01
2.600000000000000000e+01 3.133059120178222656e+01 -5.224895000457763672e+00 1.039589595794677734e+01 9.791107177734375000e+00 6.056100845336914062e+00 8.800351142883300781e+00
2.700000000000000000e+01 3.143358993530273438e+01 -5.054575920104980469e+00 7.940258026123046875e+00 7.646464824676513672e+00 4.676016807556152344e+00 7.509524345397949219e+00
2.800000000000000000e+01 3.153658676147460938e+01 -4.884256362915039062e+00 6.368286609649658203e+00 6.000752925872802734e+00 3.710711717605590820e+00 6.953992366790771484e+00
2.900000000000000000e+01 3.117490005493164062e+01 -5.370024681091308594e+00 1.185527038574218750e+01 1.894846725463867188e+01 9.241121292114257812e+00 1.023149490356445312e+01
3.000000000000000000e+01 3.124276924133300781e+01 -5.182912349700927734e+00 8.802974700927734375e+00 1.318795108795166016e+01 6.597278118133544922e+00 8.251575469970703125e+00
3.100000000000000000e+01 3.131063842773437500e+01 -4.995800018310546875e+00 6.734239101409912109e+00 1.035074615478515625e+01 5.125495433807373047e+00 7.375811100006103516e+00
3.200000000000000000e+01 3.137850761413574219e+01 -4.808687686920166016e+00 5.050060749053955078e+00 8.670434951782226562e+00 4.116148948669433594e+00 6.522577762603759766e+00
3.300000000000000000e+01 3.111831092834472656e+01 -5.355575561523437500e+00 1.043311595916748047e+01 2.201970481872558594e+01 9.735846519470214844e+00 8.028298377990722656e+00
3.400000000000000000e+01 3.114845275878906250e+01 -5.158830165863037109e+00 7.663250446319580078e+00 1.595144844055175781e+01 7.084409713745117188e+00 6.980395793914794922e+00
3.500000000000000000e+01 3.117859649658203125e+01 -4.962085247039794922e+00 5.662467479705810547e+00 1.270223999023437500e+01 5.509412288665771484e+00 6.108664989471435547e+00
3.600000000000000000e+01 3.120874023437500000e+01 -4.765339851379394531e+00 4.179807662963867188e+00 1.079020214080810547e+01 4.491003036499023438e+00 5.843751430511474609e+00
3.700000000000000000e+01 3.105999183654785156e+01 -5.352419376373291016e+00 1.027465343475341797e+01 2.393386268615722656e+01 1.026255512237548828e+01 5.316537857055664062e+00
3.800000000000000000e+01 3.105125427246093750e+01 -5.153570175170898438e+00 7.006690979003906250e+00 1.758737373352050781e+01 7.378219604492187500e+00 4.992811679840087891e+00
3.900000000000000000e+01 3.104251861572265625e+01 -4.954721450805664062e+00 5.273375034332275391e+00 1.451407527923583984e+01 5.936235427856445312e+00 4.521555900573730469e+00
4.000000000000000000e+01 3.103378295898437500e+01 -4.755872249603271484e+00 3.869141817092895508e+00 1.210534000396728516e+01 4.792344570159912109e+00 4.203128337860107422e+00
4.100000000000000000e+01 3.100217247009277344e+01 -5.360677719116210938e+00 1.041977119445800781e+01 2.419358444213867188e+01 1.038400650024414062e+01 2.703185558319091797e+00
4.200000000000000000e+01 3.095489120483398438e+01 -5.167334079742431641e+00 7.823656558990478516e+00 1.855408096313476562e+01 7.913321495056152344e+00 2.772983074188232422e+00
4.300000000000000000e+01 3.090760993957519531e+01 -4.973990917205810547e+00 5.184657096862792969e+00 1.496506118774414062e+01 6.044915676116943359e+00 2.684430360794067383e+00
4.400000000000000000e+01 3.086032867431640625e+01 -4.780646800994873047e+00 4.316224575042724609e+00 1.296234035491943359e+01 5.183569431304931641e+00 2.472366571426391602e+00
4.500000000000000000e+01 3.094706916809082031e+01 -5.380034446716308594e+00 1.273869705200195312e+01 2.385352516174316406e+01 1.097766685485839844e+01 6.539878249168395996e-01
4.600000000000000000e+01 3.086305236816406250e+01 -5.199594974517822266e+00 8.125899314880371094e+00 1.810752868652343750e+01 7.870028495788574219e+00 6.808362007141113281e-01
4.700000000000000000e+01 3.077903366088867188e+01 -5.019155502319335938e+00 7.054355144500732422e+00 1.494901275634765625e+01 6.601010322570800781e+00 9.499087333679199219e-01
4.800000000000000000e+01 3.069501686096191406e+01 -4.838716506958007812e+00 4.516056060791015625e+00 1.231609058380126953e+01 5.049643993377685547e+00 9.171280860900878906e-01
4.900000000000000000e+01 3.089678764343261719e+01 -5.409748077392578125e+00 1.422072124481201172e+01 2.209163093566894531e+01 1.089370536804199219e+01 -9.975878000259399414e-01
5.000000000000000000e+01 3.077924919128417969e+01 -5.249117851257324219e+00 1.045255947113037109e+01 1.737704658508300781e+01 8.348881721496582031e+00 -4.146656990051269531e-01
5.100000000000000000e+01 3.066171073913574219e+01 -5.088487625122070312e+00 7.786253452301025391e+00 1.376462936401367188e+01 6.465264797210693359e+00 -6.968926191329956055e-01
5.200000000000000000e+01 3.054417228698730469e+01 -4.927857875823974609e+00 7.132756233215332031e+00 1.203016853332519531e+01 5.748877525329589844e+00 -2.277495414018630981e-01
5.300000000000000000e+01 3.085325241088867188e+01 -5.448682308197021484e+00 1.639864921569824219e+01 2.066628074645996094e+01 1.111947822570800781e+01 -1.415342688560485840e+00
5.400000000000000000e+01 3.070669174194335938e+01 -5.314008235931396484e+00 1.241791629791259766e+01 1.563244056701660156e+01 8.415106773376464844e+00 -1.175824642181396484e+00
5.500000000000000000e+01 3.056013107299804688e+01 -5.179334163665771484e+00 9.639435768127441406e+00 1.270469951629638672e+01 6.703240871429443359e+00 -1.132586717605590820e+00
5.600000000000000000e+01 3.041357040405273438e+01 -5.044660091400146484e+00 8.300865173339843750e+00 1.038051414489746094e+01 5.604413509368896484e+00 -9.147639274597167969e-01
5.700000000000000000e+01 3.081813240051269531e+01 -5.495347023010253906e+00 1.864938545227050781e+01 1.922659111022949219e+01 1.136279296875000000e+01 -8.856012225151062012e-01
5.800000000000000000e+01 3.064815521240234375e+01 -5.391782760620117188e+00 1.405786991119384766e+01 1.380401229858398438e+01 8.358564376831054688e+00 -1.259559273719787598e+00
5.900000000000000000e+01 3.047817993164062500e+01 -5.288218498229980469e+00 1.176146316528320312e+01 1.155428886413574219e+01 6.994725704193115234e+00 -6.527830958366394043e-01
6.000000000000000000e+01 3.030820465087890625e+01 -5.184654235839843750e+00 9.474689483642578125e+00 8.120692253112792969e+00 5.278614521026611328e+00 -1.001061320304870605e+00
6.100000000000000000e+01 3.079276657104492188e+01 -5.547956466674804688e+00 1.987807464599609375e+01 1.726179122924804688e+01 1.114196014404296875e+01 5.756930448114871979e-03
6.200000000000000000e+01 3.060588073730468750e+01 -5.479465007781982422e+00 1.560981082916259766e+01 1.320244407653808594e+01 8.643676757812500000e+00 -1.363043040037155151e-01
6.300000000000000000e+01 3.041899490356445312e+01 -5.410973072052001953e+00 1.307604217529296875e+01 9.412383079528808594e+00 6.746527194976806641e+00 -1.049638167023658752e-01
6.400000000000000000e+01 3.023211097717285156e+01 -5.342481613159179688e+00 1.150552368164062500e+01 8.402544021606445312e+00 5.972420215606689453e+00 -4.095234870910644531e-01
6.500000000000000000e+01 3.077812957763671875e+01 -5.604496955871582031e+00 2.067519378662109375e+01 1.688467597961425781e+01 1.126796150207519531e+01 1.470776796340942383e+00
6.600000000000000000e+01 3.058148574829101562e+01 -5.573699474334716797e+00 1.625469017028808594e+01 1.205433177947998047e+01 8.492706298828125000e+00 1.388601660728454590e+00
6.700000000000000000e+01 3.038484191894531250e+01 -5.542901992797851562e+00 1.382769680023193359e+01 9.180269241333007812e+00 6.902390003204345703e+00 8.655140995979309082e-01
6.800000000000000000e+01 3.018819808959960938e+01 -5.512104034423828125e+00 1.190511703491210938e+01 7.719542503356933594e+00 5.887397766113281250e+00 9.793409705162048340e-01
6.900000000000000000e+01 3.077477836608886719e+01 -5.662805557250976562e+00 2.051014328002929688e+01 1.683703613281250000e+01 1.120415401458740234e+01 3.363271474838256836e+00
7.000000000000000000e+01 3.057590293884277344e+01 -5.670880317687988281e+00 1.614628601074218750e+01 1.191505527496337891e+01 8.418402671813964844e+00 2.927072286605834961e+00
7.100000000000000000e+01 3.037702560424804688e+01 -5.678955554962158203e+00 1.344252490997314453e+01 9.624583244323730469e+00 6.920132637023925781e+00 2.314099788665771484e+00
7.200000000000000000e+01 3.017814826965332031e+01 -5.687030315399169922e+00 1.172692394256591797e+01 6.883542537689208984e+00 5.583139896392822266e+00 2.399785995483398438e+00
7.300000000000000000e+01 3.078284645080566406e+01 -5.720650672912597656e+00 1.935377120971679688e+01 1.718506050109863281e+01 1.096164989471435547e+01 5.111071109771728516e+00
7.400000000000000000e+01 3.058934593200683594e+01 -5.767289161682128906e+00 1.504603099822998047e+01 1.296569347381591797e+01 8.403517723083496094e+00 4.308156013488769531e+00
7.500000000000000000e+01 3.039584732055664062e+01 -5.813927650451660156e+00 1.232323741912841797e+01 1.007203102111816406e+01 6.718580245971679688e+00 3.857549190521240234e+00
7.600000000000000000e+01 3.020234680175781250e+01 -5.860565662384033203e+00 1.109144115447998047e+01 7.815093040466308594e+00 5.671960353851318359e+00 3.047695875167846680e+00
7.700000000000000000e+01 3.080201911926269531e+01 -5.775818824768066406e+00 1.745196342468261719e+01 1.865563964843750000e+01 1.083228111267089844e+01 6.340402603149414062e+00
7.800000000000000000e+01 3.062130165100097656e+01 -5.859236240386962891e+00 1.303286743164062500e+01 1.416895389556884766e+01 8.160546302795410156e+00 5.345952033996582031e+00
7.900000000000000000e+01 3.044058418273925781e+01 -5.942653179168701172e+00 1.091425418853759766e+01 1.132584762573242188e+01 6.672030448913574219e+00 4.689990043640136719e+00
8.000000000000000000e+01 3.025986480712890625e+01 -6.026070117950439453e+00 9.048336982727050781e+00 9.492128372192382812e+00 5.562139511108398438e+00 3.846630334854125977e+00
8.100000000000000000e+01 3.083156394958496094e+01 -5.826199054718017578e+00 1.466809558868408203e+01 2.053245925903320312e+01 1.056016635894775391e+01 6.870202541351318359e+00
8.200000000000000000e+01 3.067054557800292969e+01 -5.943202495574951172e+00 1.070269489288330078e+01 1.574408054351806641e+01 7.934032917022705078e+00 5.598158359527587891e+00
8.300000000000000000e+01 3.050952529907226562e+01 -6.060206413269042969e+00 8.836722373962402344e+00 1.278867530822753906e+01 6.487618923187255859e+00 4.711509704589843750e+00
8.400000000000000000e+01 3.034850502014160156e+01 -6.177209377288818359e+00 7.482213973999023438e+00 1.094056320190429688e+01 5.526833057403564453e+00 4.591102123260498047e+00
8.500000000000000000e+01 3.087035369873046875e+01 -5.869862556457519531e+00 1.133987903594970703e+01 2.244271087646484375e+01 1.013477706909179688e+01 6.467987060546875000e+00
8.600000000000000000e+01 3.073519325256347656e+01 -6.015975475311279297e+00 8.376847267150878906e+00 1.729118537902832031e+01 7.700409412384033203e+00 4.741774082183837891e+00
8.700000000000000000e+01 3.060003280639648438e+01 -6.162087917327880859e+00 6.567115306854248047e+00 1.409581947326660156e+01 6.198880672454833984e+00 4.290339946746826172e+00
8.800000000000000000e+01 3.046487236022949219e+01 -6.308200836181640625e+00 6.164169311523437500e+00 1.184628009796142578e+01 5.403134822845458984e+00 3.739410638809204102e+00
8.900000000000000000e+01 3.091690254211425781e+01 -5.905138969421386719e+00 8.564029693603515625e+00 2.413181304931640625e+01 9.808753013610839844e+00 4.770475864410400391e+00
9.000000000000000000e+01 3.081277275085449219e+01 -6.074769973754882812e+00 5.815103054046630859e+00 1.830474853515625000e+01 7.235955715179443359e+00 3.268735170364379883e+00
9.100000000000000000e+01 3.070864486694335938e+01 -6.244400501251220703e+00 5.160560131072998047e+00 1.481832313537597656e+01 5.993664741516113281e+00 2.773637771606445312e+00
9.200000000000000000e+01 3.060451507568359375e+01 -6.414030551910400391e+00 3.950076580047607422e+00 1.265464782714843750e+01 4.981417179107666016e+00 2.488305091857910156e+00
9.300000000000000000e+01 3.096942710876464844e+01 -5.930678844451904297e+00 5.717429161071777344e+00 2.487474632263183594e+01 9.177653312683105469e+00 2.107888221740722656e+00
9.400000000000000000e+01 3.090031433105468750e+01 -6.117335796356201172e+00 4.552894592285156250e+00 1.843286132812500000e+01 6.895726680755615234e+00 1.111703753471374512e+00
9.500000000000000000e+01 3.083120155334472656e+01 -6.303992748260498047e+00 3.449390649795532227e+00 1.496295642852783203e+01 5.523704051971435547e+00 7.795527577400207520e-01
9.600000000000000000e+01 3.076208877563476562e+01 -6.490649700164794922e+00 3.221862554550170898e+00 1.259875011444091797e+01 4.746183872222900391e+00 9.260656237602233887e-01
9.700000000000000000e+01 3.102591896057128906e+01 -5.945504188537597656e+00 4.499871253967285156e+00 2.431015396118164062e+01 8.643007278442382812e+00 -1.031892538070678711e+00
9.800000000000000000e+01 3.099446868896484375e+01 -6.142044544219970703e+00 3.491407632827758789e+00 1.749260139465332031e+01 6.295202732086181641e+00 -1.444615364074707031e+00
9.900000000000000000e+01 3.096301651000976562e+01 -6.338584899902343750e+00 3.051473379135131836e+00 1.413320159912109375e+01 5.155402660369873047e+00 -1.135136485099792480e+00
1.000000000000000000e+02 3.093156623840332031e+01 -6.535125732421875000e+00 2.583017110824584961e+00 1.187211418151855469e+01 4.336539268493652344e+00 -1.110403418540954590e+00
1.010000000000000000e+02 3.108421707153320312e+01 -5.949047565460205078e+00 4.080037117004394531e+00 2.207151222229003906e+01 7.845464706420898438e+00 -4.367329120635986328e+00
1.020000000000000000e+02 3.109163093566894531e+01 -6.147950649261474609e+00 3.655442237854003906e+00 1.555674552917480469e+01 5.763656616210937500e+00 -3.566664457321166992e+00
1.030000000000000000e+02 3.109904479980468750e+01 -6.346853733062744141e+00 3.051190137863159180e+00 1.226273727416992188e+01 4.594178199768066406e+00 -3.099703311920166016e+00
1.040000000000000000e+02 3.110645675659179688e+01 -6.545756340026855469e+00 2.767412424087524414e+00 1.041168880462646484e+01 3.953730344772338867e+00 -2.550476789474487305e+00
1.050000000000000000e+02 3.114208793640136719e+01 -5.941174030303955078e+00 5.080389022827148438e+00 1.852414131164550781e+01 7.081358909606933594e+00 -6.843884944915771484e+00
1.060000000000000000e+02 3.118808174133300781e+01 -6.134828090667724609e+00 4.209243297576904297e+00 1.245016479492187500e+01 4.997822284698486328e+00 -5.238063335418701172e+00
1.070000000000000000e+02 3.123407745361328125e+01 -6.328481674194335938e+00 3.785597562789916992e+00 9.900359153747558594e+00 4.105787277221679688e+00 -4.244480609893798828e+00
1.080000000000000000e+02 3.128007316589355469e+01 -6.522135734558105469e+00 3.273813962936401367e+00 8.103997230529785156e+00 3.413343429565429688e+00 -3.721156597137451172e+00
1.090000000000000000e+02 3.119731903076171875e+01 -5.922184944152832031e+00 6.411331176757812500e+00 1.365637207031250000e+01 6.020310878753662109e+00 -8.205588340759277344e+00
1.100000000000000000e+02 3.128013420104980469e+01 -6.103178501129150391e+00 5.332640647888183594e+00 9.004638671875000000e+00 4.301183700561523438e+00 -5.790965080261230469e+00
1.110000000000000000e+02 3.136295127868652344e+01 -6.284172534942626953e+00 4.495166778564453125e+00 6.819099903106689453e+00 3.394279956817626953e+00 -4.661627769470214844e+00
1.120000000000000000e+02 3.144576835632324219e+01 -6.465167045593261719e+00 4.006051063537597656e+00 6.001900672912597656e+00 3.002385377883911133e+00 -3.935630083084106445e+00
1.130000000000000000e+02 3.124779701232910156e+01 -5.892805576324462891e+00 7.999541282653808594e+00 8.564155578613281250e+00 4.969109058380126953e+00 -7.886846542358398438e+00
1.140000000000000000e+02 3.136426353454589844e+01 -6.054214000701904297e+00 5.936703681945800781e+00 5.160115718841552734e+00 3.329045772552490234e+00 -5.256595134735107422e+00
1.150000000000000000e+02 3.148073387145996094e+01 -6.215621948242187500e+00 5.135868072509765625e+00 4.247547626495361328e+00 2.815024852752685547e+00 -4.107255458831787109e+00
1.160000000000000000e+02 3.159720039367675781e+01 -6.377029895782470703e+00 4.409001827239990234e+00 3.449965000152587891e+00 2.357690095901489258e+00 -3.417105674743652344e+00
1.170000000000000000e+02 3.129158973693847656e+01 -5.854161739349365234e+00 8.222415924072265625e+00 3.502105474472045898e+00 3.517356395721435547e+00 -5.985284805297851562e+00
1.180000000000000000e+02 3.143725204467773438e+01 -5.989807128906250000e+00 6.045319080352783203e+00 2.115724563598632812e+00 2.448313236236572266e+00 -3.680266380310058594e+00
1.190000000000000000e+02 3.158291435241699219e+01 -6.125452518463134766e+00 4.765262603759765625e+00 1.962075829505920410e+00 2.018201351165771484e+00 -2.736438512802124023e+00
1.200000000000000000e+02 3.172857666015625000e+01 -6.261098384857177734e+00 4.323361396789550781e+00 1.952706575393676758e+00 1.882820367813110352e+00 -2.643064260482788086e+00
1.210000000000000000e+02 3.132702064514160156e+01 -5.807731628417968750e+00 7.037939071655273438e+00 -7.383686900138854980e-01 1.889871120452880859e+00 -2.612051963806152344e+00
1.220000000000000000e+02 3.149630355834960938e+01 -5.912423610687255859e+00 3.957642555236816406e+00 3.952932357788085938e-01 1.305880784988403320e+00 -1.338160872459411621e+00
1.230000000000000000e+02 3.166558647155761719e+01 -6.017115592956542969e+00 3.905128955841064453e+00 1.082736492156982422e+00 1.496359705924987793e+00 -1.770751118659973145e+00
1.240000000000000000e+02 3.183487129211425781e+01 -6.121808052062988281e+00 3.506866931915283203e+00 4.791933894157409668e-01 1.195818066596984863e+00 -1.426727175712585449e+00
1.250000000000000000e+02 3.135273551940917969e+01 -5.755291938781738281e+00 -1.882450878620147705e-01 -2.356668233871459961e+00 -7.634739875793457031e-01 1.425581455230712891e+00
1.260000000000000000e+02 3.153916168212890625e+01 -5.825024127960205078e+00 2.200566053390502930e+00 8.676257133483886719e-01 9.204574823379516602e-01 -7.454699873924255371e-01
1.270000000000000000e+02 3.172558784484863281e+01 -5.894756793975830078e+00 2.042183399200439453e+00 -1.740150302648544312e-01 5.604504942893981934e-01 -5.451013445854187012e-01
1.280000000000000000e+02 3.191201400756835938e+01 -5.964488983154296875e+00 2.046660184860229492e+00 3.204810619354248047e-01 7.101423740386962891e-01 -5.556548833847045898e-01
1.290000000000000000e+02 3.892633438110351562e+01 -6.099218368530273438e+00 -1.523274302482604980e+00 2.601410150527954102e-01 -3.789399862289428711e-01 -5.328534841537475586e-01
1.300000000000000000e+02 3.819995880126953125e+01 -5.994579792022705078e+00 -1.809597611427307129e+00 2.608277797698974609e-01 -4.646309316158294678e-01 -3.416226804256439209e-01
1.310000000000000000e+02 3.965283203125000000e+01 -6.203396797180175781e+00 -1.203986644744873047e+00 1.220692619681358337e-01 -3.245752155780792236e-01 -5.832987427711486816e-01
1.320000000000000000e+02 3.747375488281250000e+01 -5.889500617980957031e+00 -1.995454072952270508e+00 3.277164995670318604e-01 -5.003212690353393555e-01 -1.026794016361236572e-01
1.330000000000000000e+02 3.883199310302734375e+01 -6.833267211914062500e+00 -1.585914731025695801e+00 3.864815831184387207e-02 -4.641799926757812500e-01 -6.230089440941810608e-02
1.340000000000000000e+02 3.735847854614257812e+01 -6.620533466339111328e+00 -2.426796674728393555e+00 5.316848307847976685e-02 -7.120884656906127930e-01 1.962367296218872070e-01
1.350000000000000000e+02 3.956896591186523438e+01 -6.938953399658203125e+00 -1.018212437629699707e+00 9.264434874057769775e-02 -2.776704430580139160e-01 -1.574483811855316162e-01
1.360000000000000000e+02 3.809514999389648438e+01 -6.727120399475097656e+00 -2.080933809280395508e+00 6.542586535215377808e-02 -6.046524047851562500e-01 4.658223688602447510e-02
1.370000000000000000e+02 3.605928421020507812e+01 -6.363809108734130859e+00 -2.669925928115844727e+00 -1.458766986615955830e-03 -8.014154434204101562e-01 4.833902120590209961e-01
1.380000000000000000e+02 3.608427810668945312e+01 -5.615751743316650391e+00 -1.909021139144897461e+00 2.816011607646942139e-01 -4.882259964942932129e-01 4.477479457855224609e-01
1.390000000000000000e+02 3.459970474243164062e+01 -6.060391902923583984e+00 -1.768239974975585938e+00 -3.986731916666030884e-02 -5.424321889877319336e-01 6.218474507331848145e-01
1.400000000000000000e+02 3.424708938598632812e+01 -6.082112789154052734e+00 -1.784990787506103516e+00 -8.676232397556304932e-02 -5.615259408950805664e-01 6.578273177146911621e-01
1.410000000000000000e+02 3.438752746582031250e+01 -5.191085338592529297e+00 -3.090020418167114258e-01 5.707520991563796997e-02 -7.557804882526397705e-02 1.510085701942443848e+00
1.420000000000000000e+02 3.430883407592773438e+01 -5.321010589599609375e+00 -3.717824220657348633e-01 -1.124242171645164490e-01 -1.452619880437850952e-01 1.411103367805480957e+00
1.430000000000000000e+02 3.422449111938476562e+01 -5.657232761383056641e+00 -1.169879913330078125e+00 1.822510734200477600e-02 -3.454964458942413330e-01 1.103329420089721680e+00
1.440000000000000000e+02 3.494053268432617188e+01 -6.089999198913574219e+00 -2.235715389251708984e+00 -2.568022310733795166e-01 -7.477552890777587891e-01 5.796629786491394043e-01
1.450000000000000000e+02 3.474702453613281250e+01 -5.264965057373046875e+00 -7.722887396812438965e-01 1.057285070419311523e-01 -1.999680846929550171e-01 1.332508563995361328e+00
1.460000000000000000e+02 3.676885604858398438e+01 -5.762225627899169922e+00 -2.063915729522705078e+00 2.899692654609680176e-01 -5.321839451789855957e-01 1.437673717737197876e-01
1.470000000000000000e+02 3.668018341064453125e+01 -6.498430252075195312e+00 -2.611392736434936523e+00 3.406522423028945923e-02 -7.731982469558715820e-01 3.533878326416015625e-01
1.480000000000000000e+02 3.426302719116210938e+01 -6.319030761718750000e+00 -2.158831357955932617e+00 -6.619617342948913574e-03 -6.496353149414062500e-01 4.675366580486297607e-01
1.490000000000000000e+02 3.449982833862304688e+01 -5.785159587860107422e+00 -1.621947646141052246e+00 -5.471918731927871704e-02 -5.030000209808349609e-01 8.226319551467895508e-01
1.500000000000000000e+02 3.423625564575195312e+01 -5.855261325836181641e+00 -1.244960188865661621e+00 -2.311347238719463348e-02 -3.804220855236053467e-01 7.683618664741516113e-01
1.510000000000000000e+02 3.543685150146484375e+01 -6.223811149597167969e+00 -2.554527282714843750e+00 -4.155402630567550659e-02 -7.788243889808654785e-01 5.887029767036437988e-01
1.520000000000000000e+02 3.436951828002929688e+01 -5.590078353881835938e+00 -1.101014137268066406e+00 1.083905994892120361e-01 -2.977870404720306396e-01 1.216938614845275879e+00
1.530000000000000000e+02 3.539817047119140625e+01 -5.463900566101074219e+00 -1.462812423706054688e+00 1.086359545588493347e-01 -4.062529504299163818e-01 7.808183431625366211e-01
1.540000000000000000e+02 3.472808074951171875e+01 -5.626161575317382812e+00 -1.502281308174133301e+00 -5.330163985490798950e-02 -4.666748940944671631e-01 1.024099230766296387e+00
1.550000000000000000e+02 3.425149917602539062e+01 -5.486713409423828125e+00 -4.313549101352691650e-01 5.275905597954988480e-03 -1.278237104415893555e-01 1.396480441093444824e+00
1.560000000000000000e+02 3.446371459960937500e+01 -5.433706760406494141e+00 -6.500377058982849121e-01 2.703206539154052734e-01 -1.139151230454444885e-01 1.482399463653564453e+00
1.570000000000000000e+02 3.474509429931640625e+01 -6.379270553588867188e+00 -2.575893402099609375e+00 -1.692749112844467163e-01 -8.235505223274230957e-01 5.314053297042846680e-01
1.580000000000000000e+02 3.390652847290039062e+01 -6.251543045043945312e+00 -1.803108096122741699e+00 -2.384017407894134521e-01 -6.124529242515563965e-01 5.174895524978637695e-01
1.590000000000000000e+02 3.197542381286621094e+01 -4.981103420257568359e+00 6.160177707672119141e+00 1.508584856986999512e+00 2.300628900527954102e+00 4.858892917633056641e+00
1.600000000000000000e+02 3.011961364746093750e+01 -5.081026077270507812e+00 9.368236541748046875e+00 7.458087444305419922e+00 5.047897338867187500e+00 -1.786981463432312012e+00
1.610000000000000000e+02 2.991470527648925781e+01 -5.463943004608154297e+00 9.429228782653808594e+00 5.103221893310546875e+00 4.359735012054443359e+00 9.715309739112854004e-01
1.620000000000000000e+02 3.138934135437011719e+01 -7.166388511657714844e+00 2.150245428085327148e+00 5.924648761749267578e+00 2.422468185424804688e+00 -2.527782678604125977e+00
1.630000000000000000e+02 3.098524284362792969e+01 -6.888317584991455078e+00 2.111339330673217773e+00 8.545209884643554688e+00 3.196964502334594727e+00 -1.684214234352111816e+00
1.640000000000000000e+02 3.065634918212890625e+01 -6.651086807250976562e+00 3.068916797637939453e+00 1.097570419311523438e+01 4.213386058807373047e+00 1.174800157546997070e+00
1.650000000000000000e+02 3.150082206726074219e+01 -4.312393665313720703e+00 2.512573719024658203e+00 5.367235660552978516e+00 2.363942861557006836e+00 5.783333301544189453e+00
1.660000000000000000e+02 3.418325042724609375e+01 -5.016445159912109375e+00 -2.214793860912322998e-01 1.013066843152046204e-01 -3.605180978775024414e-02 1.797679305076599121e+00
1.670000000000000000e+02 3.399275207519531250e+01 -4.966652393341064453e+00 2.803631126880645752e-01 1.268697828054428101e-01 1.221698671579360962e-01 1.995979428291320801e+00
1.680000000000000000e+02 3.313208007812500000e+01 -5.392254829406738281e+00 1.358943343162536621e+00 -2.111777514219284058e-01 3.443296551704406738e-01 1.613253474235534668e+00
1.690000000000000000e+02 3.355570983886718750e+01 -5.904683589935302734e+00 -6.782498955726623535e-01 -1.522181332111358643e-01 -2.491404116153717041e-01 7.060976028442382812e-01
1.700000000000000000e+02 3.282341766357421875e+01 -4.718506813049316406e+00 2.576742172241210938e+00 4.449803829193115234e-01 9.065167903900146484e-01 3.654426097869873047e+00
1.710000000000000000e+02 3.171057891845703125e+01 -4.343453407287597656e+00 2.609357357025146484e+00 4.800076484680175781e+00 2.222830057144165039e+00 6.392649173736572266e+00
1.720000000000000000e+02 3.183102607727050781e+01 -4.852379322052001953e+00 6.137731075286865234e+00 3.085317134857177734e+00 2.766914367675781250e+00 6.030590534210205078e+00
1.730000000000000000e+02 3.263148498535156250e+01 -4.655230522155761719e+00 2.995466232299804688e+00 5.616719126701354980e-01 1.067141413688659668e+00 4.082665443420410156e+00
1.740000000000000000e+02 3.218696594238281250e+01 -5.588755130767822266e+00 3.714476585388183594e+00 -3.829447031021118164e-01 9.994596242904663086e-01 7.753573656082153320e-01
1.750000000000000000e+02 3.216057205200195312e+01 -5.811704158782958984e+00 1.827049970626831055e+00 -8.718159049749374390e-03 5.454995632171630859e-01 -5.336577817797660828e-02
1.760000000000000000e+02 3.380493545532226562e+01 -4.917823791503906250e+00 4.205997586250305176e-01 3.302730247378349304e-02 1.360881179571151733e-01 2.129086017608642578e+00
1.770000000000000000e+02 3.357613372802734375e+01 -7.734324455261230469e+00 1.933766961097717285e+00 7.341828942298889160e-01 8.003849387168884277e-01 -1.189862608909606934e+00
1.780000000000000000e+02 3.155315780639648438e+01 -6.660320281982421875e+00 3.516639232635498047e+00 4.796938896179199219e+00 2.494073390960693359e+00 -3.405296325683593750e+00
1.790000000000000000e+02 3.134886932373046875e+01 -6.724218368530273438e+00 2.959028959274291992e+00 7.042328357696533203e+00 3.000407218933105469e+00 -3.255168676376342773e+00
1.800000000000000000e+02 3.117749595642089844e+01 -6.919816970825195312e+00 2.228489160537719727e+00 7.982092380523681641e+00 3.063174486160278320e+00 -2.325654506683349609e+00
1.810000000000000000e+02 3.385382461547851562e+01 -6.503201484680175781e+00 1.621900200843811035e+00 9.690576046705245972e-02 5.156418085098266602e-01 -4.299961328506469727e-01
1.820000000000000000e+02 3.362654876708984375e+01 -6.692016601562500000e+00 1.734621405601501465e+00 2.044748812913894653e-01 5.817288756370544434e-01 -5.366763472557067871e-01
1.830000000000000000e+02 3.367985534667968750e+01 -7.315807342529296875e+00 1.853642344474792480e+00 4.643751382827758789e-01 6.954052448272705078e-01 -9.178407788276672363e-01
1.840000000000000000e+02 3.362505340576171875e+01 -7.521451950073242188e+00 1.906332492828369141e+00 6.041535735130310059e-01 7.531458139419555664e-01 -1.052880406379699707e+00
1.850000000000000000e+02 3.267798233032226562e+01 -6.229969024658203125e+00 1.829687356948852539e+00 1.805630922317504883e-01 6.030751466751098633e-01 -5.405567288398742676e-01
1.860000000000000000e+02 3.188684272766113281e+01 -6.409950256347656250e+00 3.896205902099609375e+00 1.521307349205017090e+00 1.625254034996032715e+00 -2.302690505981445312e+00
1.870000000000000000e+02 3.209974670410156250e+01 -6.036033153533935547e+00 2.014038085937500000e+00 6.408646702766418457e-02 6.234374046325683594e-01 -5.683774352073669434e-01
1.880000000000000000e+02 3.201006317138671875e+01 -6.234051227569580078e+00 3.217755317687988281e+00 7.353528141975402832e-01 1.185932517051696777e+00 -1.370133519172668457e+00
1.890000000000000000e+02 3.236598205566406250e+01 -5.847314357757568359e+00 1.242440938949584961e+00 -2.017092406749725342e-01 3.122195005416870117e-01 7.182517647743225098e-02
1.900000000000000000e+02 3.239007186889648438e+01 -5.261270523071289062e+00 4.116261482238769531e+00 -2.551023662090301514e-01 1.158347725868225098e+00 2.322581768035888672e+00
1.910000000000000000e+02 3.131496429443359375e+01 -4.525377273559570312e+00 3.100565195083618164e+00 8.637497901916503906e+00 3.521419048309326172e+00 5.063937664031982422e+00
1.920000000000000000e+02 2.991411781311035156e+01 -4.983047008514404297e+00 7.711662292480468750e+00 5.747484683990478516e+00 4.037744045257568359e+00 -1.171581268310546875e+00
1.930000000000000000e+02 3.018892860412597656e+01 -4.870470046997070312e+00 6.638942718505859375e+00 6.997399806976318359e+00 4.090902805328369141e+00 -6.200946569442749023e-01
1.940000000000000000e+02 3.401370239257812500e+01 -5.842400074005126953e+00 -1.231793761253356934e+00 -1.774168610572814941e-01 -4.227631986141204834e-01 8.205541968345642090e-01
1.950000000000000000e+02 3.371192550659179688e+01 -6.195465087890625000e+00 -1.623221039772033691e+00 -6.021040305495262146e-02 -5.050294399261474609e-01 5.044436454772949219e-01
1.960000000000000000e+02 3.361553192138671875e+01 -4.880692958831787109e+00 9.551196694374084473e-01 1.229369789361953735e-01 3.234170079231262207e-01 2.505155086517333984e+00
1.970000000000000000e+02 3.395428848266601562e+01 -6.038986682891845703e+00 -1.422182202339172363e+00 -7.375755906105041504e-02 -4.487819373607635498e-01 6.330004334449768066e-01
1.980000000000000000e+02 3.172122192382812500e+01 -4.490646362304687500e+00 3.641642808914184570e+00 4.382362365722656250e+00 2.407201528549194336e+00 6.524563789367675781e+00
1.990000000000000000e+02 3.109660720825195312e+01 -4.290820121765136719e+00 1.883576393127441406e+00 8.762067794799804688e+00 3.193693161010742188e+00 4.299989223480224609e+00
2.000000000000000000e+02 3.216141891479492188e+01 -5.367845058441162109e+00 5.039947986602783203e+00 -1.605953872203826904e-01 1.463805794715881348e+00 1.916523337364196777e+00
2.010000000000000000e+02 3.224892425537109375e+01 -4.540091037750244141e+00 3.480793714523315430e+00 1.760890603065490723e+00 1.572505235671997070e+00 5.268949508666992188e+00
2.020000000000000000e+02 3.278129577636718750e+01 -5.936072349548339844e+00 1.140968948602676392e-01 -1.728879660367965698e-01 -1.763732358813285828e-02 3.115831017494201660e-01
2.030000000000000000e+02 3.035276222229003906e+01 -4.728235721588134766e+00 4.389608383178710938e+00 8.481514930725097656e+00 3.861336946487426758e+00 -2.207798659801483154e-01
2.040000000000000000e+02 2.996466827392578125e+01 -5.255356311798095703e+00 8.427048683166503906e+00 5.838710784912109375e+00 4.279727935791015625e+00 -3.429043889045715332e-01
2.050000000000000000e+02 3.244956588745117188e+01 -7.085666656494140625e+00 2.797744989395141602e+00 1.385970354080200195e+00 1.255114555358886719e+00 -1.820907354354858398e+00
2.060000000000000000e+02 3.173247528076171875e+01 -6.549500465393066406e+00 3.914973974227905273e+00 3.103151082992553711e+00 2.105437517166137695e+00 -3.088554382324218750e+00
2.070000000000000000e+02 2.997522354125976562e+01 -6.384422779083251953e+00 6.538318634033203125e+00 6.821507930755615234e+00 4.007947921752929688e+00 3.532240152359008789e+00
2.080000000000000000e+02 3.076740837097167969e+01 -6.998127460479736328e+00 2.214827537536621094e+00 8.845827102661132812e+00 3.318196296691894531e+00 -3.885254263877868652e-01
2.090000000000000000e+02 3.098492622375488281e+01 -7.072032928466796875e+00 1.785264968872070312e+00 8.349453926086425781e+00 3.040415525436401367e+00 -1.479690551757812500e+00
2.100000000000000000e+02 3.002275276184082031e+01 -5.911842823028564453e+00 1.000617694854736328e+01 6.245342254638671875e+00 4.875455856323242188e+00 2.390135765075683594e+00
2.110000000000000000e+02 3.046110343933105469e+01 -6.637071132659912109e+00 3.518705844879150391e+00 1.096278953552246094e+01 4.344448566436767578e+00 2.351553201675415039e+00
2.120000000000000000e+02 3.039377212524414062e+01 -6.798877716064453125e+00 3.008529424667358398e+00 9.567461013793945312e+00 3.772797107696533203e+00 1.845424771308898926e+00
2.130000000000000000e+02 2.997237205505371094e+01 -5.708013057708740234e+00 1.139696788787841797e+01 5.715608596801757812e+00 5.133772850036621094e+00 2.135242938995361328e+00
2.140000000000000000e+02 3.219776535034179688e+01 -6.348475456237792969e+00 2.992055892944335938e+00 4.883585870265960693e-01 1.044124364852905273e+00 -1.246948003768920898e+00
2.150000000000000000e+02 3.178977584838867188e+01 -7.261629581451416016e+00 2.554238796234130859e+00 3.791424989700317383e+00 1.903699159622192383e+00 -2.582599878311157227e+00
2.160000000000000000e+02 3.118758010864257812e+01 -7.122471809387207031e+00 2.026347875595092773e+00 6.777194976806640625e+00 2.641062974929809570e+00 -2.123093128204345703e+00
2.170000000000000000e+02 3.244055557250976562e+01 -4.596285820007324219e+00 3.344065427780151367e+00 1.238930344581604004e+00 1.374898672103881836e+00 4.827927112579345703e+00
2.180000000000000000e+02 3.205078125000000000e+01 -4.478949069976806641e+00 3.547703266143798828e+00 2.652951717376708984e+00 1.860196471214294434e+00 5.879045486450195312e+00
2.190000000000000000e+02 3.359269714355468750e+01 -5.110180377960205078e+00 7.738035917282104492e-01 -1.840707510709762573e-01 1.769198477268218994e-01 1.921789169311523438e+00
2.200000000000000000e+02 3.187470817565917969e+01 -4.402770519256591797e+00 3.340391874313354492e+00 3.759013414382934570e+00 2.129821538925170898e+00 6.196588993072509766e+00
2.210000000000000000e+02 3.149905586242675781e+01 -4.490348815917968750e+00 3.504945278167724609e+00 6.245415687561035156e+00 2.925108432769775391e+00 5.787859916687011719e+00
2.220000000000000000e+02 3.393758392333984375e+01 -5.173666477203369141e+00 6.228154152631759644e-02 -7.439474761486053467e-02 -3.633961081504821777e-03 1.739337801933288574e+00
2.230000000000000000e+02 3.313255691528320312e+01 -6.073989391326904297e+00 -9.173322319984436035e-01 -1.742271929979324341e-01 -3.274678289890289307e-01 3.389566838741302490e-01
2.240000000000000000e+02 3.289393615722656250e+01 -5.384135723114013672e+00 2.020663499832153320e+00 -4.272784590721130371e-01 4.780155420303344727e-01 1.619776606559753418e+00
2.250000000000000000e+02 3.377869033813476562e+01 -6.919932842254638672e+00 1.755497217178344727e+00 2.645106017589569092e-01 6.060023307800292969e-01 -6.335499286651611328e-01
2.260000000000000000e+02 3.265992736816406250e+01 -7.147467613220214844e+00 2.618345260620117188e+00 1.142114400863647461e+00 1.128137826919555664e+00 -1.617911815643310547e+00
2.270000000000000000e+02 3.248323059082031250e+01 -6.171503543853759766e+00 1.894223809242248535e+00 1.354062259197235107e-01 6.088890433311462402e-01 -5.659765005111694336e-01
2.280000000000000000e+02 3.229032897949218750e+01 -6.106936454772949219e+00 1.963249802589416504e+00 1.928096413612365723e-01 6.468178629875183105e-01 -5.655705928802490234e-01
2.290000000000000000e+02 3.299127578735351562e+01 -7.551831722259521484e+00 2.216310739517211914e+00 1.111995697021484375e+00 9.984919428825378418e-01 -1.503205537796020508e+00
2.300000000000000000e+02 3.239678192138671875e+01 -7.384814262390136719e+00 2.616990089416503906e+00 1.911052346229553223e+00 1.358412742614746094e+00 -2.076145410537719727e+00
2.310000000000000000e+02 3.286212539672851562e+01 -7.209793567657470703e+00 2.445363521575927734e+00 9.331153035163879395e-01 1.013543725013732910e+00 -1.408958077430725098e+00
2.320000000000000000e+02 3.219302368164062500e+01 -7.333526611328125000e+00 2.622148275375366211e+00 2.409095764160156250e+00 1.509373188018798828e+00 -2.234702110290527344e+00
2.330000000000000000e+02 3.222326278686523438e+01 -7.021778583526611328e+00 3.010083198547363281e+00 1.874458193778991699e+00 1.465362429618835449e+00 -2.192481756210327148e+00
2.340000000000000000e+02 3.158999443054199219e+01 -7.216735839843750000e+00 2.390579938888549805e+00 4.820819854736328125e+00 2.163419961929321289e+00 -2.676423072814941406e+00
2.350000000000000000e+02 3.337968063354492188e+01 -7.673353672027587891e+00 2.015879869461059570e+00 7.931059598922729492e-01 8.426957130432128906e-01 -1.258711457252502441e+00
2.360000000000000000e+02 3.343418502807617188e+01 -7.442909717559814453e+00 2.015873908996582031e+00 6.383718848228454590e-01 7.962737083435058594e-01 -1.130010485649108887e+00
2.370000000000000000e+02 3.333357238769531250e+01 -7.104607105255126953e+00 2.088769435882568359e+00 4.778837263584136963e-01 7.699959874153137207e-01 -9.474397897720336914e-01
2.380000000000000000e+02 3.259784317016601562e+01 -7.439321994781494141e+00 2.496388912200927734e+00 1.562071800231933594e+00 1.217538237571716309e+00 -1.832692623138427734e+00
2.390000000000000000e+02 3.207298660278320312e+01 -6.583976745605468750e+00 3.455195903778076172e+00 1.509351134300231934e+00 1.489364027976989746e+00 -2.091362237930297852e+00
2.400000000000000000e+02 3.413153076171875000e+01 -5.225645065307617188e+00 -3.708986937999725342e-02 -2.010084129869937897e-02 -1.715721376240253448e-02 1.533021807670593262e+00
2.410000000000000000e+02 3.407064437866210938e+01 -5.444370746612548828e+00 -4.436130225658416748e-01 -1.347806900739669800e-01 -1.735181212425231934e-01 1.349971532821655273e+00
2.420000000000000000e+02 3.342187881469726562e+01 -4.850225925445556641e+00 1.301367044448852539e+00 -1.073563005775213242e-02 3.871894180774688721e-01 2.560830116271972656e+00
2.430000000000000000e+02 3.322287750244140625e+01 -4.813884735107421875e+00 1.766920447349548340e+00 1.560018509626388550e-01 5.768766999244689941e-01 2.944579601287841797e+00
2.440000000000000000e+02 3.316820526123046875e+01 -5.106524944305419922e+00 1.684909939765930176e+00 -2.513110637664794922e-01 4.300796389579772949e-01 2.196254253387451172e+00
2.450000000000000000e+02 3.232688903808593750e+01 -5.057998180389404297e+00 4.678016662597656250e+00 2.774923145771026611e-01 1.486652731895446777e+00 3.456177234649658203e+00
2.460000000000000000e+02 3.296604919433593750e+01 -6.010230064392089844e+00 -3.264403939247131348e-01 -3.299542004242539406e-03 -9.892198443412780762e-02 4.076413214206695557e-01
2.470000000000000000e+02 3.310652542114257812e+01 -5.668243885040283203e+00 6.021756529808044434e-01 -3.290178179740905762e-01 8.194734901189804077e-02 9.287712574005126953e-01
2.480000000000000000e+02 3.312599182128906250e+01 -5.894177913665771484e+00 -1.163000613451004028e-01 -1.865299493074417114e-01 -9.084900468587875366e-02 5.710688829421997070e-01
2.490000000000000000e+02 3.326773071289062500e+01 -6.386892795562744141e+00 1.666521191596984863e+00 1.480969488620758057e-01 5.443854331970214844e-01 -4.778535664081573486e-01
2.500000000000000000e+02 3.307131195068359375e+01 -6.338098049163818359e+00 1.711197257041931152e+00 1.588472276926040649e-01 5.610133409500122070e-01 -5.042917728424072266e-01
2.510000000000000000e+02 3.287425613403320312e+01 -6.285133361816406250e+00 1.767717003822326660e+00 1.436277180910110474e-01 5.734034180641174316e-01 -5.246438980102539062e-01
2.520000000000000000e+02 3.318502426147460938e+01 -7.611664772033691406e+00 2.073908329010009766e+00 9.374381303787231445e-01 9.034039378166198730e-01 -1.365047454833984375e+00
2.530000000000000000e+02 3.229119873046875000e+01 -6.719442844390869141e+00 3.135576248168945312e+00 1.158031940460205078e+00 1.288082480430603027e+00 -1.772287130355834961e+00
2.540000000000000000e+02 3.346335220336914062e+01 -6.426634788513183594e+00 1.630060553550720215e+00 1.291688829660415649e-01 5.277688503265380859e-01 -4.655244350433349609e-01
2.550000000000000000e+02 3.251234817504882812e+01 -4.909240722656250000e+00 3.753937244415283203e+00 2.889594137668609619e-01 1.212868928909301758e+00 3.599011421203613281e+00
2.560000000000000000e+02 3.286475753784179688e+01 -5.667816162109375000e+00 1.084039211273193359e+00 -1.912318468093872070e-01 2.678422033786773682e-01 8.346418738365173340e-01
2.570000000000000000e+02 3.334081268310546875e+01 -5.660015583038330078e+00 2.259314358234405518e-01 -2.164736688137054443e-01 2.837330568581819534e-03 1.033244848251342773e+00
2.580000000000000000e+02 3.239552307128906250e+01 -6.441902637481689453e+00 2.765922307968139648e+00 5.170238018035888672e-01 9.848838448524475098e-01 -1.131279706954956055e+00
2.590000000000000000e+02 3.324568939208984375e+01 -7.356817722320556641e+00 2.185320138931274414e+00 6.982420682907104492e-01 8.650686740875244141e-01 -1.203572154045104980e+00
2.600000000000000000e+02 3.251698303222656250e+01 -6.795897006988525391e+00 2.821243286132812500e+00 9.046902060508728027e-01 1.117780089378356934e+00 -1.494323968887329102e+00
2.610000000000000000e+02 3.321735000610351562e+01 -6.689079761505126953e+00 2.027040004730224609e+00 2.810662984848022461e-01 6.924318671226501465e-01 -7.117576599121093750e-01
2.620000000000000000e+02 3.242111968994140625e+01 -5.603630542755126953e+00 2.718043327331542969e+00 -2.606186866760253906e-01 7.372273802757263184e-01 8.816764950752258301e-01
2.630000000000000000e+02 3.270490646362304688e+01 -5.018643856048583984e+00 3.066079854965209961e+00 -7.539198547601699829e-02 8.972063660621643066e-01 2.890919208526611328e+00
2.640000000000000000e+02 3.300794982910156250e+01 -6.632779121398925781e+00 2.174056768417358398e+00 3.069063127040863037e-01 7.442889213562011719e-01 -7.842491865158081055e-01
2.650000000000000000e+02 3.293703079223632812e+01 -6.924023628234863281e+00 2.404698133468627930e+00 5.846683382987976074e-01 8.968099355697631836e-01 -1.121904015541076660e+00
2.660000000000000000e+02 3.373508453369140625e+01 -7.117672920227050781e+00 1.862285971641540527e+00 3.077338933944702148e-01 6.510059833526611328e-01 -7.519885897636413574e-01
2.670000000000000000e+02 3.350559997558593750e+01 -7.229626178741455078e+00 1.979556202888488770e+00 4.926196336746215820e-01 7.416527271270751953e-01 -9.376893043518066406e-01
2.680000000000000000e+02 3.279588699340820312e+01 -7.494876384735107422e+00 2.376349687576293945e+00 1.327518224716186523e+00 1.111160397529602051e+00 -1.682331204414367676e+00
2.690000000000000000e+02 3.305715560913085938e+01 -7.277163982391357422e+00 2.303844928741455078e+00 8.048882484436035156e-01 9.326199889183044434e-01 -1.292959690093994141e+00
2.700000000000000000e+02 3.199020576477050781e+01 -7.293745994567871094e+00 2.618058443069458008e+00 2.895493507385253906e+00 1.654065608978271484e+00 -2.398453235626220703e+00
2.710000000000000000e+02 3.346417999267578125e+01 -6.931274414062500000e+00 1.996543049812316895e+00 3.402845561504364014e-01 7.010482549667358398e-01 -7.649369835853576660e-01
2.720000000000000000e+02 3.381356048583984375e+01 -6.714871406555175781e+00 1.631889939308166504e+00 1.686650216579437256e-01 5.401664972305297852e-01 -4.525282680988311768e-01
2.730000000000000000e+02 3.365941619873046875e+01 -6.462304115295410156e+00 1.614704489707946777e+00 1.490433216094970703e-01 5.291243195533752441e-01 -4.320231080055236816e-01
2.740000000000000000e+02 3.139339256286621094e+01 -6.940477848052978516e+00 2.642416477203369141e+00 6.036265373229980469e+00 2.603604555130004883e+00 -2.941864013671875000e+00
2.750000000000000000e+02 3.342679977416992188e+01 -6.701420307159423828e+00 1.891464233398437500e+00 2.384232729673385620e-01 6.389662623405456543e-01 -6.199972033500671387e-01
2.760000000000000000e+02 3.259835052490234375e+01 -6.513010501861572266e+00 2.542385816574096680e+00 4.081037640571594238e-01 8.851469159126281738e-01 -9.943927526473999023e-01
2.770000000000000000e+02 3.280261230468750000e+01 -6.574670314788818359e+00 2.337254762649536133e+00 3.668615818023681641e-01 8.112349510192871094e-01 -8.877616524696350098e-01
2.780000000000000000e+02 3.170018577575683594e+01 -6.847171306610107422e+00 3.229449748992919922e+00 4.135337352752685547e+00 2.209436178207397461e+00 -3.072566509246826172e+00
2.790000000000000000e+02 3.333993911743164062e+01 -5.889625072479248047e+00 -3.541462123394012451e-01 -2.926744520664215088e-01 -1.940461993217468262e-01 6.547584533691406250e-01
2.800000000000000000e+02 3.351715850830078125e+01 -6.145921707153320312e+00 -1.421750068664550781e+00 -1.799438446760177612e-01 -4.805081784725189209e-01 4.749059379100799561e-01
2.810000000000000000e+02 3.404201889038085938e+01 -5.654426574707031250e+00 -5.983971953392028809e-01 -1.043166667222976685e-01 -2.108141630887985229e-01 1.064249873161315918e+00
2.820000000000000000e+02 3.386674880981445312e+01 -5.742422103881835938e+00 -6.937691569328308105e-01 -1.378456801176071167e-01 -2.494844496250152588e-01 1.008211731910705566e+00
2.830000000000000000e+02 3.332094955444335938e+01 -6.105429649353027344e+00 -1.168807029724121094e+00 -9.861329942941665649e-02 -3.802261054515838623e-01 4.384483993053436279e-01
2.840000000000000000e+02 3.373522949218750000e+01 -5.582165718078613281e+00 -2.392047196626663208e-01 -2.143459916114807129e-01 -1.360652148723602295e-01 1.139268517494201660e+00
2.850000000000000000e+02 3.376406097412109375e+01 -5.114959716796875000e+00 4.685487449169158936e-01 -2.788261743262410164e-03 1.397281438112258911e-01 1.920428752899169922e+00
2.860000000000000000e+02 3.339225006103515625e+01 -5.125494003295898438e+00 1.179878830909729004e+00 -6.834743916988372803e-02 3.334594368934631348e-01 2.121806144714355469e+00
2.870000000000000000e+02 3.257036590576171875e+01 -5.891199588775634766e+00 6.768944263458251953e-01 -7.508148998022079468e-02 1.805438846349716187e-01 2.658227086067199707e-01
2.880000000000000000e+02 3.367952728271484375e+01 -5.277604103088378906e+00 3.710236549377441406e-01 -1.473162472248077393e-01 6.711222231388092041e-02 1.631297230720520020e+00
2.890000000000000000e+02 3.160352897644042969e+01 -6.997088432312011719e+00 2.793473720550537109e+00 4.845777988433837891e+00 2.291775465011596680e+00 -2.941376209259033203e+00
2.900000000000000000e+02 3.113979530334472656e+01 -6.735100746154785156e+00 2.498430490493774414e+00 8.770702362060546875e+00 3.380739688873291016e+00 -2.518712282180786133e+00
2.910000000000000000e+02 3.080408287048339844e+01 -6.789701461791992188e+00 2.456335067749023438e+00 1.005313014984130859e+01 3.752839565277099609e+00 -9.091274440288543701e-02
2.920000000000000000e+02 3.095454597473144531e+01 -6.722638130187988281e+00 2.407109737396240234e+00 1.045295047760009766e+01 3.858018159866333008e+00 -1.148974299430847168e+00
2.930000000000000000e+02 3.264216232299804688e+01 -5.644304752349853516e+00 1.704208731651306152e+00 -3.479585945606231689e-01 4.068750441074371338e-01 7.867517471313476562e-01
2.940000000000000000e+02 3.233176422119140625e+01 -4.841561317443847656e+00 4.417574405670166016e+00 7.172606587409973145e-01 1.540450572967529297e+00 4.295772552490234375e+00
2.950000000000000000e+02 3.209010696411132812e+01 -5.158427715301513672e+00 6.008173942565917969e+00 3.473038673400878906e-01 1.906643271446228027e+00 3.573619842529296875e+00
2.960000000000000000e+02 3.213460159301757812e+01 -4.780920505523681641e+00 4.777766227722167969e+00 1.525318145751953125e+00 1.890925288200378418e+00 5.116175651550292969e+00
2.970000000000000000e+02 3.302187347412109375e+01 -4.771387577056884766e+00 2.220117807388305664e+00 1.129618287086486816e-01 6.999238729476928711e-01 3.218422412872314453e+00
2.980000000000000000e+02 3.293850326538085938e+01 -5.082293033599853516e+00 2.361628293991088867e+00 -8.178451657295227051e-02 6.839531064033508301e-01 2.515778064727783203e+00
2.990000000000000000e+02 3.175842094421386719e+01 -4.681964874267578125e+00 4.981583595275878906e+00 4.131888389587402344e+00 2.734041452407836914e+00 6.342545986175537109e+00
3.000000000000000000e+02 3.109165382385253906e+01 -4.447477817535400391e+00 2.195791244506835938e+00 1.037373828887939453e+01 3.770858764648437500e+00 4.713893890380859375e+00
3.010000000000000000e+02 2.974514770507812500e+01 -5.693967819213867188e+00 9.633658409118652344e+00 4.252142906188964844e+00 4.165740489959716797e+00 1.664892196655273438e+00
3.020000000000000000e+02 2.987720108032226562e+01 -6.031896114349365234e+00 7.919473171234130859e+00 5.515003204345703125e+00 4.030343055725097656e+00 2.801583766937255859e+00
3.030000000000000000e+02 3.052321243286132812e+01 -6.543398857116699219e+00 3.788544416427612305e+00 1.235834884643554688e+01 4.844068050384521484e+00 2.712729930877685547e+00
3.040000000000000000e+02 3.036716651916503906e+01 -6.468602180480957031e+00 4.840458869934082031e+00 1.024512863159179688e+01 4.525676250457763672e+00 2.702400684356689453e+00
3.050000000000000000e+02 3.019696807861328125e+01 -6.309403419494628906e+00 6.924169540405273438e+00 9.347032546997070312e+00 4.881360530853271484e+00 3.990834712982177734e+00
3.060000000000000000e+02 3.081916046142578125e+01 -4.589393138885498047e+00 3.499677419662475586e+00 1.044917297363281250e+01 4.184655189514160156e+00 2.064240455627441406e+00
3.070000000000000000e+02 3.080604743957519531e+01 -4.390611648559570312e+00 2.657785654067993164e+00 8.060621261596679688e+00 3.215522050857543945e+00 2.921012163162231445e+00
3.080000000000000000e+02 3.195232200622558594e+01 -4.688023090362548828e+00 4.753647327423095703e+00 2.559376239776611328e+00 2.193907022476196289e+00 5.834400177001953125e+00
3.090000000000000000e+02 3.156435585021972656e+01 -4.689099788665771484e+00 4.917267322540283203e+00 6.101765632629394531e+00 3.305709838867187500e+00 6.548233509063720703e+00
3.100000000000000000e+02 3.139822769165039062e+01 -4.652148723602294922e+00 4.491945266723632812e+00 7.393715858459472656e+00 3.565698385238647461e+00 6.265792369842529297e+00
3.110000000000000000e+02 3.123666763305664062e+01 -4.617239952087402344e+00 3.042075872421264648e+00 1.049621963500976562e+01 4.061488628387451172e+00 5.155273914337158203e+00
3.120000000000000000e+02 3.104016113281250000e+01 -4.585809707641601562e+00 3.038504600524902344e+00 1.055914402008056641e+01 4.079294681549072266e+00 4.831763267517089844e+00
3.130000000000000000e+02 3.008657455444335938e+01 -6.087408065795898438e+00 7.691843509674072266e+00 7.749239921569824219e+00 4.632325172424316406e+00 3.470709323883056641e+00
3.140000000000000000e+02 3.060489273071289062e+01 -4.651588439941406250e+00 4.005188465118408203e+00 1.125710868835449219e+01 4.578689098358154297e+00 5.488014221191406250e-01
3.150000000000000000e+02 3.044740867614746094e+01 -4.478393077850341797e+00 3.221868038177490234e+00 8.604139328002929688e+00 3.547802209854125977e+00 -1.218225732445716858e-01
3.160000000000000000e+02 3.314481353759765625e+01 -6.993155956268310547e+00 2.240391254425048828e+00 4.996457695960998535e-01 8.220111131668090820e-01 -9.948648810386657715e-01
3.170000000000000000e+02 3.267872238159179688e+01 -5.407234668731689453e+00 2.627844810485839844e+00 -2.557810544967651367e-01 7.116191387176513672e-01 1.535693645477294922e+00
3.180000000000000000e+02 3.272943115234375000e+01 -6.860897064208984375e+00 2.593440055847167969e+00 6.931386590003967285e-01 9.859736561775207520e-01 -1.262321472167968750e+00
3.190000000000000000e+02 3.249379730224609375e+01 -5.400868415832519531e+00 3.467381954193115234e+00 -4.620327651500701904e-01 9.016047716140747070e-01 1.505428433418273926e+00
3.200000000000000000e+02 3.179013633728027344e+01 -7.034672260284423828e+00 2.956382036209106445e+00 3.513295650482177734e+00 1.940903306007385254e+00 -2.786996841430664062e+00
3.210000000000000000e+02 3.189566802978515625e+01 -6.750668525695800781e+00 3.493812799453735352e+00 2.544809579849243164e+00 1.811586737632751465e+00 -2.672249078750610352e+00
3.220000000000000000e+02 3.199237251281738281e+01 -7.006643772125244141e+00 3.045650482177734375e+00 2.660015583038330078e+00 1.711699843406677246e+00 -2.481012821197509766e+00
3.230000000000000000e+02 3.376238632202148438e+01 -5.958648681640625000e+00 -1.037627696990966797e+00 -2.406915277242660522e-01 -3.834957480430603027e-01 7.063812017440795898e-01
3.240000000000000000e+02 3.355310440063476562e+01 -5.669807910919189453e+00 -1.638303399085998535e-01 -2.803944647312164307e-01 -1.332674473524093628e-01 1.062611103057861328e+00
3.250000000000000000e+02 3.259131240844726562e+01 -5.244632244110107422e+00 3.421759366989135742e+00 -1.581891328096389771e-01 9.790710806846618652e-01 2.369638204574584961e+00
3.260000000000000000e+02 3.358480453491210938e+01 -7.054991245269775391e+00 1.930799484252929688e+00 3.709390759468078613e-01 6.905215978622436523e-01 -8.117630481719970703e-01
3.270000000000000000e+02 3.362048339843750000e+01 -6.892692565917968750e+00 1.852756261825561523e+00 2.349680215120315552e-01 6.263172626495361328e-01 -6.237218379974365234e-01
3.280000000000000000e+02 3.386037445068359375e+01 -5.383140563964843750e+00 9.937650524079799652e-03 -1.279083043336868286e-01 -3.539119660854339600e-02 1.405895113945007324e+00
3.290000000000000000e+02 3.357281875610351562e+01 -5.453877449035644531e+00 4.206293523311614990e-01 -1.985107958316802979e-01 6.663557142019271851e-02 1.445188045501708984e+00
3.300000000000000000e+02 3.336404037475585938e+01 -5.402865409851074219e+00 7.447130084037780762e-01 -3.138307929039001465e-01 1.292646676301956177e-01 1.468902349472045898e+00
3.310000000000000000e+02 3.429402160644531250e+01 -7.353804111480712891e+00 1.506171464920043945e+00 2.645845115184783936e-01 5.312268137931823730e-01 -6.918982267379760742e-01
3.320000000000000000e+02 3.507444381713867188e+01 -6.908266544342041016e+00 1.155059456825256348e+00 6.756018102169036865e-02 3.667858839035034180e-01 -3.150548934936523438e-01
3.330000000000000000e+02 3.567445373535156250e+01 -7.993712902069091797e+00 1.082471966743469238e+00 2.458898425102233887e-01 3.985085487365722656e-01 -6.162270307540893555e-01
3.340000000000000000e+02 3.393905639648437500e+01 -7.537337303161621094e+00 1.700443148612976074e+00 4.511545598506927490e-01 6.454793214797973633e-01 -9.545385837554931641e-01
3.350000000000000000e+02 3.394311904907226562e+01 -7.334416389465332031e+00 1.748363256454467773e+00 3.314580321311950684e-01 6.239463686943054199e-01 -7.892308831214904785e-01
3.360000000000000000e+02 3.399810028076171875e+01 -7.785852432250976562e+00 1.762671232223510742e+00 5.269157886505126953e-01 6.868761181831359863e-01 -1.064330458641052246e+00
3.370000000000000000e+02 3.635964202880859375e+01 -8.121482849121093750e+00 7.993754148483276367e-01 2.030330747365951538e-01 3.007225394248962402e-01 -5.086050629615783691e-01
3.380000000000000000e+02 3.580031967163085938e+01 -7.011101722717285156e+00 8.855686783790588379e-01 8.104992657899856567e-02 2.899855673313140869e-01 -2.535851299762725830e-01
3.390000000000000000e+02 3.645144653320312500e+01 -7.633188247680664062e+00 7.731810212135314941e-01 1.217329800128936768e-01 2.684741914272308350e-01 -3.439651131629943848e-01
3.400000000000000000e+02 3.652091217041015625e+01 -7.143682479858398438e+00 6.746867299079895020e-01 4.956263303756713867e-02 2.172747999429702759e-01 -1.821761280298233032e-01
3.410000000000000000e+02 3.396145629882812500e+01 -7.118704795837402344e+00 1.766955614089965820e+00 2.732111513614654541e-01 6.120499968528747559e-01 -7.326181530952453613e-01
3.420000000000000000e+02 3.396584320068359375e+01 -6.771036624908447266e+00 1.654075860977172852e+00 1.434291601181030273e-01 5.392515063285827637e-01 -4.606717526912689209e-01
3.430000000000000000e+02 3.439606094360351562e+01 -6.734723091125488281e+00 1.394809722900390625e+00 1.034937798976898193e-01 4.494910538196563721e-01 -3.658246695995330811e-01
3.440000000000000000e+02 3.462826919555664062e+01 -7.734717845916748047e+00 1.447683811187744141e+00 3.312321305274963379e-01 5.336747765541076660e-01 -7.597609758377075195e-01
3.450000000000000000e+02 3.579330444335937500e+01 -7.512001991271972656e+00 9.168275594711303711e-01 1.310565471649169922e-01 3.143652379512786865e-01 -3.699371814727783203e-01
3.460000000000000000e+02 3.394547653198242188e+01 -6.928313255310058594e+00 1.549085259437561035e+00 2.213548570871353149e-01 5.311320424079895020e-01 -5.529198050498962402e-01
3.470000000000000000e+02 3.403761291503906250e+01 -6.648840427398681641e+00 1.587599158287048340e+00 7.867331802845001221e-02 4.998817443847656250e-01 -3.815269470214843750e-01
3.480000000000000000e+02 3.428041458129882812e+01 -7.035633563995361328e+00 1.446961402893066406e+00 1.934462487697601318e-01 4.921222925186157227e-01 -5.209751129150390625e-01
3.490000000000000000e+02 3.521083450317382812e+01 -7.560683727264404297e+00 1.160397887229919434e+00 2.022787481546401978e-01 4.088029861450195312e-01 -5.450244545936584473e-01
3.500000000000000000e+02 3.407891082763671875e+01 -6.845327377319335938e+00 1.510034084320068359e+00 1.178288459777832031e-01 4.883588552474975586e-01 -4.558413922786712646e-01
3.510000000000000000e+02 3.862352752685546875e+01 -8.463389396667480469e+00 3.019842505455017090e-01 1.158606410026550293e-01 1.253534704446792603e-01 -2.535876035690307617e-01
3.520000000000000000e+02 3.868669891357421875e+01 -7.975669860839843750e+00 2.510842382907867432e-01 6.028394028544425964e-02 9.341045469045639038e-02 -1.669805794954299927e-01
3.530000000000000000e+02 3.949477005004882812e+01 -7.591539382934570312e+00 6.177628412842750549e-02 8.815731853246688843e-03 2.117760479450225830e-02 -4.443763196468353271e-02
3.540000000000000000e+02 3.793351745605468750e+01 -7.867439746856689453e+00 3.927008807659149170e-01 7.832747697830200195e-02 1.413085013628005981e-01 -2.163363248109817505e-01
3.550000000000000000e+02 3.786329650878906250e+01 -8.354004859924316406e+00 4.386892318725585938e-01 1.383795291185379028e-01 1.731206327676773071e-01 -3.329613208770751953e-01
3.560000000000000000e+02 3.725650405883789062e+01 -7.269263744354248047e+00 4.933831691741943359e-01 3.449307009577751160e-02 1.583628803491592407e-01 -1.396538466215133667e-01
3.570000000000000000e+02 3.710268020629882812e+01 -8.243875503540039062e+00 6.120772361755371094e-01 1.694853156805038452e-01 2.344687581062316895e-01 -4.164110422134399414e-01
3.580000000000000000e+02 3.717971801757812500e+01 -7.757339477539062500e+00 5.610662698745727539e-01 9.156095981597900391e-02 1.957881748676300049e-01 -2.833950519561767578e-01
3.590000000000000000e+02 3.938305282592773438e+01 -8.572232246398925781e+00 2.018838822841644287e-01 9.666567295789718628e-02 8.956486731767654419e-02 -1.848851591348648071e-01
3.600000000000000000e+02 3.874882125854492188e+01 -7.485040664672851562e+00 1.720500886440277100e-01 2.201106026768684387e-02 5.821834504604339600e-02 -6.508098542690277100e-02
3.610000000000000000e+02 3.800277709960937500e+01 -7.377715110778808594e+00 3.128935396671295166e-01 2.673525363206863403e-02 1.018886417150497437e-01 -1.015716120600700378e-01
3.620000000000000000e+02 3.943908309936523438e+01 -8.082530975341796875e+00 1.456378102302551270e-01 4.625316709280014038e-02 5.756729468703269958e-02 -1.118771582841873169e-01
3.630000000000000000e+02 4.075194549560546875e+01 -8.727847099304199219e+00 5.724154412746429443e-02 8.874288201332092285e-02 4.379532858729362488e-02 -7.017939537763595581e-02
3.640000000000000000e+02 4.031767272949218750e+01 -7.686048507690429688e+00 -9.251465089619159698e-03 1.586122438311576843e-02 1.982928253710269928e-03 -9.342829696834087372e-03
3.650000000000000000e+02 4.019058609008789062e+01 -8.178953170776367188e+00 6.946919858455657959e-02 4.696713015437126160e-02 3.493089973926544189e-02 -6.334805488586425781e-02
3.660000000000000000e+02 4.010591506958007812e+01 -8.657554626464843750e+00 1.153557077050209045e-01 9.022445231676101685e-02 6.167404726147651672e-02 -1.203411296010017395e-01
3.670000000000000000e+02 4.118516159057617188e+01 -7.806575775146484375e+00 -1.696215756237506866e-02 -3.957508597522974014e-03 -6.275899708271026611e-03 3.640657290816307068e-03
3.680000000000000000e+02 4.171619796752929688e+01 -8.451806068420410156e+00 -4.560384550131857395e-04 -3.488363698124885559e-02 -1.060190238058567047e-02 2.238450199365615845e-02
3.690000000000000000e+02 4.130823898315429688e+01 -8.695766448974609375e+00 -3.462553431745618582e-04 3.396267816424369812e-02 1.008492708206176758e-02 6.072701071389019489e-04
3.700000000000000000e+02 4.086867523193359375e+01 -8.311434745788574219e+00 2.171362005174160004e-02 2.872069180011749268e-02 1.513029355555772781e-02 -1.225602068006992340e-02
3.710000000000000000e+02 4.136654663085937500e+01 -6.368330001831054688e+00 -2.977466881275177002e-01 -3.177886605262756348e-01 -1.846606135368347168e-01 -3.578341007232666016e-01
3.720000000000000000e+02 4.130027008056640625e+01 -7.105504035949707031e+00 -8.727524429559707642e-02 2.536337822675704956e-02 -1.857355982065200806e-02 -9.164129197597503662e-02
3.730000000000000000e+02 4.048490142822265625e+01 -6.293570041656494141e+00 -7.471929192543029785e-01 -2.624934539198875427e-02 -2.320326864719390869e-01 -5.763261914253234863e-01
3.740000000000000000e+02 4.041038513183593750e+01 -7.030169010162353516e+00 -4.773403406143188477e-01 -5.734777450561523438e-02 -1.604064404964447021e-01 -1.571236252784729004e-01
3.750000000000000000e+02 4.190933990478515625e+01 -6.585752010345458984e+00 2.495714090764522552e-02 -8.236667513847351074e-02 -1.722286082804203033e-02 3.416451811790466309e-02
3.760000000000000000e+02 4.111348724365234375e+01 -4.599012374877929688e+00 -9.059017896652221680e-01 -5.407140851020812988e-01 -4.339847564697265625e-01 -1.214663267135620117e+00
3.770000000000000000e+02 4.051028060913085938e+01 -5.519787788391113281e+00 -9.328247904777526855e-01 -1.085441932082176208e-01 -3.124106824398040771e-01 -9.017580151557922363e-01
3.780000000000000000e+02 3.546226882934570312e+01 -4.870453834533691406e+00 -1.024344563484191895e+00 5.514225363731384277e-01 -1.418766230344772339e-01 1.182118654251098633e+00
3.790000000000000000e+02 3.388753128051757812e+01 -4.612094879150390625e+00 6.212459206581115723e-01 3.444416522979736328e-01 2.897062599658966064e-01 2.606010437011718750e+00
3.800000000000000000e+02 3.183173370361328125e+01 -4.157404899597167969e+00 1.946321249008178711e+00 4.254581928253173828e+00 1.860270977020263672e+00 6.012514114379882812e+00
3.810000000000000000e+02 4.318305969238281250e+01 -1.179136991500854492e+00 -2.955960750579833984e+00 -5.771984100341796875e+00 -2.618383407592773438e+00 -3.897517204284667969e+00
3.820000000000000000e+02 4.420993423461914062e+01 1.188482999801635742e+00 -5.848062038421630859e+00 -3.513247251510620117e+00 -2.808392763137817383e+00 -2.775014877319335938e+00
3.830000000000000000e+02 3.954790115356445312e+01 6.775307178497314453e+00 2.138549566268920898e+00 9.520429611206054688e+00 3.497693777084350586e+00 4.152875423431396484e+00
3.840000000000000000e+02 4.219051361083984375e+01 1.204584789276123047e+01 7.362430095672607422e-01 4.495491504669189453e+00 1.569520354270935059e+00 1.558976411819458008e+00
3.850000000000000000e+02 4.165615081787109375e+01 1.797061729431152344e+01 8.585327863693237305e-02 3.687510967254638672e+00 1.132009267807006836e+00 2.354158610105514526e-01
3.860000000000000000e+02 4.162492752075195312e+01 2.649066734313964844e+01 4.137136414647102356e-02 2.993939399719238281e+00 9.105932116508483887e-01 -9.469641745090484619e-02
3.870000000000000000e+02 4.153311538696289062e+01 2.794336891174316406e+01 2.276878803968429565e-01 3.231319189071655273e+00 1.037702083587646484e+00 -3.711863756179809570e-01
3.880000000000000000e+02 4.697039794921875000e+01 1.395529866218566895e+00 -8.148025512695312500e+00 -7.841082811355590820e-01 -2.679640054702758789e+00 -8.752636313438415527e-01
3.890000000000000000e+02 4.560539245605468750e+01 1.236305117607116699e+00 -9.038696289062500000e+00 -3.328153848648071289e+00 -3.710055112838745117e+00 -3.448050260543823242e+00
3.900000000000000000e+02 4.844713973999023438e+01 1.258414149284362793e+00 -4.907664299011230469e+00 -3.056851327419281006e-01 -1.564004778861999512e+00 2.356912195682525635e-01
3.910000000000000000e+02 5.076457977294921875e+01 2.307330846786499023e+00 -2.705917596817016602e+00 6.553222984075546265e-02 -7.921156287193298340e-01 -5.860338211059570312e-01
3.920000000000000000e+02 5.121248245239257812e+01 1.850662976503372192e-01 -2.107932329177856445e+00 -9.042038768529891968e-02 -6.595058441162109375e-01 4.108124077320098877e-01
3.930000000000000000e+02 5.514019012451171875e+01 -8.300764560699462891e-01 -1.579897046089172363e+00 5.183691158890724182e-03 -4.724139869213104248e-01 1.530260890722274780e-01
3.940000000000000000e+02 6.048644256591796875e+01 -2.156287431716918945e+00 -7.162393331527709961e-01 -5.040476843714714050e-02 -2.299932241439819336e-01 1.946453899145126343e-01
3.950000000000000000e+02 6.416178131103515625e+01 -4.392751216888427734e+00 -1.056399792432785034e-01 -7.622731849551200867e-03 -3.397881239652633667e-02 3.374933451414108276e-02
3.960000000000000000e+02 6.500997161865234375e+01 -5.591063499450683594e+00 -2.504960261285305023e-02 2.469967305660247803e-02 -1.049786224029958248e-04 9.385116398334503174e-03
3.970000000000000000e+02 7.092050170898437500e+01 -1.193775749206542969e+01 1.053963042795658112e-02 -2.242614747956395149e-03 2.489104866981506348e-03 -3.532946808263659477e-03
3.980000000000000000e+02 7.478518676757812500e+01 -1.161215686798095703e+01 8.950627408921718597e-03 -1.227083965204656124e-03 2.317063044756650925e-03 4.958324600011110306e-03
3.990000000000000000e+02 7.613384246826171875e+01 -1.159474849700927734e+01 7.054588291794061661e-03 8.676993311382830143e-04 2.376686315983533859e-03 7.515619043260812759e-03
4.000000000000000000e+02 7.731094360351562500e+01 -4.941735744476318359e+00 -7.757935207337141037e-03 1.607741462066769600e-03 -1.845058053731918335e-03 -1.552680041640996933e-03
4.010000000000000000e+02 7.579496002197265625e+01 1.780390977859497070e+00 -4.010260850191116333e-02 -8.372984826564788818e-02 -3.714973852038383484e-02 -9.831713885068893433e-02
4.020000000000000000e+02 7.804886627197265625e+01 1.141564655303955078e+01 3.265463165007531643e-04 -4.453990757465362549e-01 -1.335217505693435669e-01 -1.065214723348617554e-01
4.030000000000000000e+02 7.816435241699218750e+01 1.831630134582519531e+01 5.351536441594362259e-03 -7.712920308113098145e-01 -2.297821491956710815e-01 -8.200049400329589844e-02
4.040000000000000000e+02 7.795845031738281250e+01 2.816217041015625000e+01 6.353207398205995560e-03 -1.025770664215087891e+00 -3.058252334594726562e-01 -2.924820408225059509e-02
4.050000000000000000e+02 7.828995513916015625e+01 3.551661682128906250e+01 1.134148892015218735e-02 -1.119466423988342285e+00 -3.324374854564666748e-01 1.340863667428493500e-02
4.060000000000000000e+02 7.735541534423828125e+01 3.800050735473632812e+01 9.473557583987712860e-03 -1.056409716606140137e+00 -3.140808641910552979e-01 3.107537887990474701e-02
4.070000000000000000e+02 7.921561431884765625e+01 3.737770080566406250e+01 4.649358801543712616e-03 -1.178844451904296875e+00 -3.522585332393646240e-01 1.625457033514976501e-02
4.080000000000000000e+02 7.086083221435546875e+01 3.729220199584960938e+01 2.352370508015155792e-02 -4.846339821815490723e-01 -1.383330821990966797e-01 -1.618381589651107788e-02
4.090000000000000000e+02 7.321380615234375000e+01 2.892969894409179688e+01 4.365418851375579834e-02 -6.339912414550781250e-01 -1.771011203527450562e-01 -7.655894011259078979e-02
4.100000000000000000e+02 7.220534515380859375e+01 2.139510154724121094e+01 7.839340716600418091e-02 -5.156809091567993164e-01 -1.311862617731094360e-01 -2.065734714269638062e-01
4.110000000000000000e+02 7.264512634277343750e+01 1.679167938232421875e+01 5.567580088973045349e-02 -4.558276534080505371e-01 -1.200455576181411743e-01 -2.707818448543548584e-01
4.120000000000000000e+02 7.284355926513671875e+01 1.021588706970214844e+01 -2.315744943916797638e-02 -2.783253788948059082e-01 -9.044485539197921753e-02 -2.993971407413482666e-01
4.130000000000000000e+02 7.167384338378906250e+01 3.494169950485229492e+00 -1.333507150411605835e-01 -7.353079319000244141e-02 -6.206445023417472839e-02 -2.175170332193374634e-01
4.140000000000000000e+02 6.599578094482421875e+01 -5.293293476104736328e+00 -6.526792049407958984e-02 1.809410750865936279e-02 -1.415214408189058304e-02 1.802262477576732635e-02
4.150000000000000000e+02 6.634299468994140625e+01 -3.901571273803710938e+00 -1.506889462471008301e-01 1.619618758559226990e-02 -4.034782573580741882e-02 8.591819554567337036e-03
4.160000000000000000e+02 7.944599914550781250e+01 -2.638683795928955078e+00 -1.696604769676923752e-03 2.610371448099613190e-02 7.322133053094148636e-03 -2.935898257419466972e-03
4.170000000000000000e+02 5.249440765380859375e+01 -2.884781658649444580e-01 -1.658879399299621582e+00 5.916323885321617126e-02 -4.799148738384246826e-01 2.944066822528839111e-01
4.180000000000000000e+02 5.380562973022460938e+01 -5.963715910911560059e-01 -1.623975396156311035e+00 -2.868326194584369659e-02 -4.957975745201110840e-01 1.488790661096572876e-01
4.190000000000000000e+02 6.552694702148437500e+01 -6.907261371612548828e+00 -3.501505416352301836e-04 3.758196532726287842e-02 1.116954442113637924e-02 -1.822196319699287415e-02
4.200000000000000000e+02 6.604373931884765625e+01 -8.130084037780761719e+00 1.049026381224393845e-02 3.573291748762130737e-02 1.386695448309183121e-02 -1.338135171681642532e-02
4.210000000000000000e+02 6.721646881103515625e+01 -1.034003353118896484e+01 9.641287848353385925e-03 1.976052112877368927e-02 8.820542134344577789e-03 -8.871321566402912140e-03
4.220000000000000000e+02 7.744751739501953125e+01 -1.138101673126220703e+01 4.182020202279090881e-03 2.034641802310943604e-03 1.864998601377010345e-03 6.457881536334753036e-03
4.230000000000000000e+02 7.891506958007812500e+01 -1.127101802825927734e+01 9.256959892809391022e-04 3.466933732852339745e-03 1.317788963206112385e-03 4.141278564929962158e-03
4.240000000000000000e+02 6.212002944946289062e+01 4.057414245605468750e+01 -6.849459372460842133e-03 2.695702612400054932e-01 7.881623506546020508e-02 1.492132153362035751e-02
4.250000000000000000e+02 6.290681457519531250e+01 3.114204025268554688e+01 1.409652680158615112e-01 1.295094639062881470e-01 8.114242553710937500e-02 -6.032722303643822670e-04
4.260000000000000000e+02 6.471447753906250000e+01 2.304110336303710938e+01 2.498160451650619507e-01 -1.373351514339447021e-01 3.374426811933517456e-02 -1.693403422832489014e-01
4.270000000000000000e+02 6.665024566650390625e+01 1.796969223022460938e+01 1.963834017515182495e-01 -2.511170804500579834e-01 -1.642010174691677094e-02 -3.226312696933746338e-01
4.280000000000000000e+02 6.602013397216796875e+01 1.089286327362060547e+01 -4.297504201531410217e-03 -1.627414375543594360e-01 -5.011168494820594788e-02 -4.745796024799346924e-01
4.290000000000000000e+02 6.043114471435546875e+01 1.497170090675354004e+00 -7.681249976158142090e-01 5.984340980648994446e-02 -2.124844789505004883e-01 -2.554158270359039307e-01
4.300000000000000000e+02 6.186752700805664062e+01 1.231121301651000977e+00 -6.619620919227600098e-01 6.132327392697334290e-02 -1.801916509866714478e-01 -2.496706098318099976e-01
4.310000000000000000e+02 5.731109619140625000e+01 4.086444854736328125e+01 -6.419600546360015869e-02 7.092561721801757812e-01 1.935180574655532837e-01 2.585538662970066071e-02
4.320000000000000000e+02 6.081277465820312500e+01 3.688538360595703125e+01 2.927580475807189941e-02 3.440189361572265625e-01 1.119884252548217773e-01 4.480749368667602539e-02
4.330000000000000000e+02 5.910763931274414062e+01 3.076529693603515625e+01 1.850833296775817871e-01 4.382635951042175293e-01 1.870040744543075562e-01 8.417171239852905273e-02
4.340000000000000000e+02 5.700091934204101562e+01 2.416197013854980469e+01 4.227185249328613281e-01 4.468998908996582031e-01 2.608855068683624268e-01 6.596294045448303223e-02
4.350000000000000000e+02 5.323978042602539062e+01 1.720245170593261719e+01 7.409892678260803223e-01 4.827086925506591797e-01 3.671093881130218506e-01 1.039789766073226929e-01
4.360000000000000000e+02 5.927865600585937500e+01 7.257349491119384766e+00 -3.028112649917602539e-01 -4.173925146460533142e-02 -1.033651605248451233e-01 -6.283210515975952148e-01
4.370000000000000000e+02 5.566530609130859375e+01 2.908348739147186279e-01 -1.424192667007446289e+00 -1.722796447575092316e-02 -4.324262142181396484e-01 -7.223250810056924820e-03
4.380000000000000000e+02 5.745776748657226562e+01 9.963959455490112305e-01 -1.144719839096069336e+00 7.904080674052238464e-03 -3.410447239875793457e-01 -1.667367368936538696e-01
4.390000000000000000e+02 5.258457565307617188e+01 4.104335784912109375e+01 -1.610688865184783936e-01 1.086294174194335938e+00 2.775675654411315918e-01 3.461061790585517883e-02
4.400000000000000000e+02 5.258247756958007812e+01 3.792627334594726562e+01 -1.051459759473800659e-01 1.075223445892333984e+00 2.910232245922088623e-01 1.088496372103691101e-01
4.410000000000000000e+02 4.895541000366210938e+01 3.105754852294921875e+01 1.702543348073959351e-01 1.394473314285278320e+00 4.694182872772216797e-01 1.899149417877197266e-01
4.420000000000000000e+02 4.917897033691406250e+01 2.825316047668457031e+01 2.963601946830749512e-01 1.424304485321044922e+00 5.161994099617004395e-01 1.930474191904067993e-01
4.430000000000000000e+02 4.706933212280273438e+01 1.813903808593750000e+01 6.278811693191528320e-01 1.882097959518432617e+00 7.529937624931335449e-01 6.099233031272888184e-01
4.440000000000000000e+02 4.679290771484375000e+01 1.138300323486328125e+01 1.429703116416931152e+00 9.804660081863403320e-01 7.230507731437683105e-01 8.708242177963256836e-01
4.450000000000000000e+02 4.346393203735351562e+01 3.849092483520507812e+01 -2.698665857315063477e-01 1.393081188201904297e+00 3.369643986225128174e-01 -3.769480437040328979e-02
4.460000000000000000e+02 4.306688690185546875e+01 4.113728332519531250e+01 -2.950290441513061523e-01 1.325396537780761719e+00 3.091102242469787598e-01 -9.823637083172798157e-03
4.470000000000000000e+02 3.910167694091796875e+01 3.340378952026367188e+01 4.075365960597991943e-01 1.041879415512084961e+00 4.348247945308685303e-01 -6.040224432945251465e-01
4.480000000000000000e+02 4.076833724975585938e+01 3.083863830566406250e+01 3.706627786159515381e-01 2.243371486663818359e+00 7.842103242874145508e-01 -7.620900869369506836e-01
4.490000000000000000e+02 4.123986816406250000e+01 2.939447975158691406e+01 2.939018011093139648e-01 2.822752237319946289e+00 9.349961876869201660e-01 -6.620260477066040039e-01
4.500000000000000000e+02 4.243136215209960938e+01 2.963480377197265625e+01 3.147344291210174561e-01 2.403801441192626953e+00 8.155606985092163086e-01 -2.702585458755493164e-01
4.510000000000000000e+02 3.774023818969726562e+01 3.818173217773437500e+01 -6.947325170040130615e-02 7.225855588912963867e-01 1.959336996078491211e-01 -2.027348875999450684e-01
4.520000000000000000e+02 3.547292709350585938e+01 3.589836120605468750e+01 -9.028169326484203339e-03 7.671572268009185791e-02 2.030626684427261353e-02 -5.897700414061546326e-02
4.530000000000000000e+02 2.052794456481933594e+00 4.163307571411132812e+01 1.453061122447252274e-05 3.446035261731594801e-04 1.077402484952472150e-04 5.093243998999241740e-06
4.540000000000000000e+02 1.256652164459228516e+01 4.158142852783203125e+01 -2.431653119856491685e-04 2.031446056207641959e-04 -1.200621318275807425e-05 -5.953338040853850543e-05
4.550000000000000000e+02 1.017848491668701172e+01 3.684152221679687500e+01 -2.802040835376828909e-04 -3.999541804660111666e-04 -2.040474792011082172e-04 -4.049573035445064306e-04
4.560000000000000000e+02 7.184158325195312500e+00 3.028092575073242188e+01 8.935985533753409982e-06 1.360837341053411365e-04 4.350591552793048322e-05 -1.201951017719693482e-04
4.570000000000000000e+02 1.635453796386718750e+01 2.809856796264648438e+01 1.465351961087435484e-04 1.021361022139899433e-04 7.460139022441580892e-05 5.770599091192707419e-05
4.580000000000000000e+02 1.693543243408203125e+01 2.945543861389160156e+01 -3.693651888170279562e-05 1.476411707699298859e-04 3.321139593026600778e-05 1.524478138890117407e-04
4.590000000000000000e+02 1.715916442871093750e+01 3.290594482421875000e+01 5.404527764767408371e-04 -5.594793401542119682e-05 1.453514560125768185e-04 6.268256111070513725e-04
4.600000000000000000e+02 1.940711402893066406e+01 3.282459640502929688e+01 1.940728747285902500e-03 9.366921149194240570e-04 8.632262470200657845e-04 -4.952707240590825677e-05
4.610000000000000000e+02 2.109713554382324219e+01 3.484709548950195312e+01 4.181016702204942703e-03 7.948303245939314365e-04 1.492754090577363968e-03 -2.277710300404578447e-04
4.620000000000000000e+02 2.215982437133789062e+01 3.823337936401367188e+01 -3.685812407638877630e-04 2.352960174903273582e-03 5.953136715106666088e-04 1.101018511690199375e-03
4.630000000000000000e+02 1.841237640380859375e+01 3.744134902954101562e+01 1.142303110100328922e-03 -1.638752437429502606e-04 2.935283700935542583e-04 -3.227992565371096134e-04
4.640000000000000000e+02 1.633259010314941406e+01 3.967395782470703125e+01 3.696185303851962090e-04 -2.141454024240374565e-04 4.664194057113490999e-05 2.845848503056913614e-04
4.650000000000000000e+02 1.578244590759277344e+01 3.769651794433593750e+01 -1.015306334011256695e-03 -5.257068551145493984e-04 -4.623039858415722847e-04 -3.808168403338640928e-04
4.660000000000000000e+02 7.678918838500976562e-01 3.456866073608398438e+01 1.961093039426486939e-05 1.653153449296951294e-04 5.547788532567210495e-05 -2.096111711580306292e-05
4.670000000000000000e+02 1.938363313674926758e+00 3.005464935302734375e+01 -1.884947050712071359e-05 5.972673170617781579e-05 1.226317817781819031e-05 -4.017743412987329066e-05
4.680000000000000000e+02 1.351311111450195312e+01 2.715133857727050781e+01 7.691945938859134912e-05 -3.002264384122099727e-05 1.406904448231216520e-05 -9.382352800457738340e-06
4.690000000000000000e+02 1.524897861480712891e+01 2.253145980834960938e+01 5.043229248258285224e-05 -5.697610504284966737e-06 1.342040468443883583e-05 3.192933945683762431e-06
4.700000000000000000e+02 1.551038265228271484e+01 2.534921455383300781e+01 7.157884829211980104e-05 2.184367258450947702e-05 2.802675589919090271e-05 1.011125186778372154e-05
4.710000000000000000e+02 1.587479686737060547e+01 2.673250770568847656e+01 -3.975487925345078111e-05 5.060759576736018062e-05 3.255815272495965473e-06 5.005870116292499006e-05
4.720000000000000000e+02 6.304766535758972168e-01 2.752218818664550781e+01 1.097018048312747851e-05 2.359662357775960118e-05 1.037004130921559408e-05 -6.785007371945539489e-06
4.730000000000000000e+02 1.891446352005004883e+00 2.590418815612792969e+01 2.139253592758905143e-05 2.291468081239145249e-05 1.329216502199415118e-05 -8.424477528023999184e-06
4.740000000000000000e+02 1.325231170654296875e+01 1.662570953369140625e+01 -4.489919319894397631e-06 -9.431662874703761190e-06 -4.176474703854182735e-06 -1.297640096709073987e-06
4.750000000000000000e+02 1.673888397216796875e+01 1.290218734741210938e+01 -2.878487430280074477e-05 -3.082095190620748326e-06 -9.560090802551712841e-06 -8.368767339561600238e-06
4.760000000000000000e+02 1.560285282135009766e+01 1.693239784240722656e+01 4.098150384379550815e-05 -5.744501322624273598e-06 1.057110057445243001e-05 5.163981768419034779e-06
4.770000000000000000e+02 1.633000183105468750e+01 1.423295879364013672e+01 3.391457357793115079e-05 1.975340637727640569e-07 1.023363165586488321e-05 8.935886398830916733e-06
4.780000000000000000e+02 6.430342197418212891e-01 2.047289657592773438e+01 -2.273775317007675767e-05 -7.064269993861671537e-06 -8.940606676333118230e-06 -1.993305573932957486e-07
4.790000000000000000e+02 1.852073192596435547e+00 1.604946136474609375e+01 -3.557715172064490616e-05 -2.410943579889135435e-06 -1.139642881753388792e-05 -2.010057869483716786e-06
4.800000000000000000e+02 8.758568763732910156e+00 7.823759555816650391e+00 -3.080107489950023592e-05 -1.227313714480260387e-05 -1.292226352234138176e-05 2.302382199559360743e-06
4.810000000000000000e+02 1.925613594055175781e+01 6.525909900665283203e+00 2.821450607370934449e-06 1.544053247926058248e-06 1.309651224801200442e-06 2.450388365105027333e-06
4.820000000000000000e+02 1.719071197509765625e+01 1.158846950531005859e+01 2.348773341509513557e-05 1.497859784649335779e-06 7.495678346458589658e-06 7.964913493196945637e-06
4.830000000000000000e+02 6.087913513183593750e-01 1.483090496063232422e+01 -3.634512540884315968e-05 -3.825794465228682384e-06 -1.205127591674681753e-05 4.108509074285393581e-06
4.840000000000000000e+02 1.676615834236145020e+00 9.104792594909667969e+00 2.800407855829689652e-05 2.705391352719743736e-06 9.212841177941299975e-06 -4.112348051421577111e-06
4.850000000000000000e+02 8.375858306884765625e+00 2.545711517333984375e+00 1.147386797129001934e-06 4.998835265723755583e-06 1.843866698436613660e-06 -2.528527375034173019e-06
4.860000000000000000e+02 9.791010856628417969e+00 1.829427719116210938e+00 -1.960569079528795555e-06 -4.439418717083754018e-06 -1.919996293509029783e-06 3.216899813196505420e-07
4.870000000000000000e+02 1.427760028839111328e+01 1.233155131340026855e+00 -2.451216005283640698e-06 -1.643367681936069857e-06 -1.228375140271964483e-06 -1.208876028613303788e-06
4.880000000000000000e+02 1.885497093200683594e+01 4.125549316406250000e+00 3.488970605758368038e-06 -1.000013071461580694e-06 7.466872489203524310e-07 -6.694008334307000041e-07
4.890000000000000000e+02 1.716244125366210938e+01 9.988022446632385254e-01 -1.505087311670649797e-06 -2.171629489566839766e-07 -5.166750725038582459e-07 2.373436274183404748e-07
4.900000000000000000e+02 1.924283790588378906e+01 2.349599599838256836e+00 3.080896249230136164e-06 -1.510960487394186202e-06 4.709807228664431022e-07 -2.399165623501176015e-06
4.910000000000000000e+02 2.167423820495605469e+01 1.302787780761718750e+00 2.142279669214985915e-07 2.628617721711634658e-06 8.528537023266835604e-07 6.445642952712660190e-07
4.920000000000000000e+02 1.196758866310119629e+00 3.837847232818603516e+00 -1.959169821930117905e-05 2.717348479563952424e-06 -5.062305262981681153e-06 -1.238226468558423221e-05
4.930000000000000000e+02 5.197994112968444824e-01 6.416619777679443359e+00 -2.889351162593811750e-05 -3.256146328567410819e-06 -9.644897545513231307e-06 -8.841535645842668600e-07
4.940000000000000000e+02 4.037481307983398438e+00 3.505894184112548828e+00 -8.468424312013667077e-06 1.766967784533335362e-06 -2.010437128774356097e-06 4.998705094294564333e-07
4.950000000000000000e+02 2.370907020568847656e+01 3.668049621582031250e+01 5.354410386644303799e-04 2.866933122277259827e-03 1.020712195895612240e-03 -2.147624269127845764e-03
4.960000000000000000e+02 2.972759819030761719e+01 3.724679565429687500e+01 -9.316357225179672241e-02 -1.216699741780757904e-02 -3.159917145967483521e-02 2.737447433173656464e-02
4.970000000000000000e+02 3.031106758117675781e+01 3.844818115234375000e+01 -2.490086667239665985e-02 5.787135101854801178e-03 -5.734119564294815063e-03 2.855966612696647644e-02
4.980000000000000000e+02 3.402304840087890625e+01 3.656614685058593750e+01 -6.000759452581405640e-02 3.349947556853294373e-02 -7.952435873448848724e-03 -9.816821664571762085e-03
4.990000000000000000e+02 3.751481246948242188e+01 3.608307266235351562e+01 1.953905075788497925e-02 5.534024834632873535e-01 1.718824505805969238e-01 -2.690083980560302734e-01
5.000000000000000000e+02 4.167631530761718750e+01 2.222619438171386719e+01 1.563196815550327301e-02 2.920002460479736328e+00 8.806903362274169922e-01 4.746004939079284668e-02
5.010000000000000000e+02 4.145820999145507812e+01 1.512155437469482422e+01 1.968106478452682495e-01 4.547055721282958984e+00 1.423159837722778320e+00 6.595696806907653809e-01
5.020000000000000000e+02 4.002325820922851562e+01 8.121305465698242188e+00 1.378589630126953125e+00 8.604141235351562500e+00 2.994819164276123047e+00 3.165934324264526367e+00
5.030000000000000000e+02 4.384725570678710938e+01 -5.991450324654579163e-02 -5.767248630523681641e+00 -5.241269588470458984e+00 -3.302555561065673828e+00 -4.579357147216796875e+00
5.040000000000000000e+02 3.830942535400390625e+01 4.136750221252441406e+00 3.529879093170166016e+00 9.414513587951660156e+00 3.883317947387695312e+00 5.352954387664794922e+00
5.050000000000000000e+02 2.897585678100585938e+01 -2.014518499374389648e+00 -9.690509796142578125e+00 -1.308338344097137451e-01 -2.946403026580810547e+00 -1.777045845985412598e+00
5.060000000000000000e+02 2.989452934265136719e+01 -4.102149963378906250e+00 1.368698835372924805e+00 5.138541221618652344e+00 1.952172040939331055e+00 -6.563180685043334961e-01
5.070000000000000000e+02 2.943474578857421875e+01 -4.667311191558837891e+00 5.034722328186035156e+00 3.065644979476928711e+00 2.430110216140747070e+00 -1.362535238265991211e+00
5.080000000000000000e+02 2.374424362182617188e+01 -2.879745006561279297e+00 -9.965294003486633301e-01 8.119199424982070923e-02 -2.746012210845947266e-01 -7.958872914314270020e-01
5.090000000000000000e+02 2.360154533386230469e+01 -2.116763591766357422e+00 -1.266858220100402832e+00 2.048367857933044434e-01 -3.186064064502716064e-01 -4.580160975456237793e-01
5.100000000000000000e+02 2.445230484008789062e+01 -1.899766206741333008e+00 -1.665958404541015625e+00 2.094786167144775391e-01 -4.369439482688903809e-01 -3.588049113750457764e-01
5.110000000000000000e+02 2.107685089111328125e+01 -2.614689826965332031e+00 -4.544291496276855469e-01 -1.365191638469696045e-01 -1.772844940423965454e-01 -3.688576221466064453e-01
5.120000000000000000e+02 1.782638549804687500e+01 -2.780853271484375000e+00 -2.022842317819595337e-01 -9.263355284929275513e-02 -8.847533911466598511e-02 -1.558206975460052490e-01
5.130000000000000000e+02 1.622856903076171875e+01 -2.709523916244506836e+00 -1.519097834825515747e-01 -5.136097967624664307e-02 -6.098122894763946533e-02 -6.709288060665130615e-02
5.140000000000000000e+02 1.466833972930908203e+01 -2.554724693298339844e+00 -1.264148503541946411e-01 -2.682033739984035492e-02 -4.597055539488792419e-02 -1.794543117284774780e-02
5.150000000000000000e+02 1.389934253692626953e+01 -2.460934638977050781e+00 -1.189322024583816528e-01 -8.799350820481777191e-03 -3.831946477293968201e-02 1.982857473194599152e-03
5.160000000000000000e+02 1.093957996368408203e+01 -2.048579216003417969e+00 -1.124729067087173462e-01 1.218856032937765121e-02 -3.008530288934707642e-02 5.261604674160480499e-03
5.170000000000000000e+02 3.793022394180297852e+00 -1.923485994338989258e+00 -4.041484743356704712e-02 -5.532098934054374695e-03 -1.378408353775739670e-02 -3.654142096638679504e-02
5.180000000000000000e+02 5.605456233024597168e-01 -1.075770568847656250e+01 -3.765843575820326805e-03 -3.930040597915649414e-01 -1.190309748053550720e-01 -4.257558658719062805e-02
5.190000000000000000e+02 1.691961884498596191e+00 -1.088176822662353516e+01 -1.095875725150108337e-02 -2.661496698856353760e-01 -8.313252776861190796e-02 -1.130339801311492920e-01
5.200000000000000000e+02 7.358490467071533203e+00 -1.828754043579101562e+01 7.258406281471252441e-01 1.456518650054931641e+00 6.547077894210815430e-01 8.069381713867187500e-01
5.210000000000000000e+02 6.267036199569702148e-01 -1.781419944763183594e+01 9.453184902667999268e-03 -8.815286755561828613e-01 -2.616226673126220703e-01 -8.805384859442710876e-03
5.220000000000000000e+02 8.859453201293945312e+00 -1.680797576904296875e+01 1.114342808723449707e+00 7.754763364791870117e-01 5.669457316398620605e-01 7.219796180725097656e-01
5.230000000000000000e+02 1.134427356719970703e+01 -1.516098690032958984e+01 5.577519536018371582e-01 1.752230525016784668e-01 2.198925018310546875e-01 3.202041983604431152e-01
5.240000000000000000e+02 1.558448314666748047e+01 -1.691050720214843750e+01 -1.575552076101303101e-01 -1.064330488443374634e-01 -7.919647544622421265e-02 1.503291279077529907e-01
5.250000000000000000e+02 1.681124114990234375e+01 -1.748035240173339844e+01 -2.936637401580810547e-01 -8.600328117609024048e-02 -1.139001101255416870e-01 1.941976249217987061e-01
5.260000000000000000e+02 2.444810104370117188e+01 -1.862603187561035156e+01 -1.370934605598449707e+00 2.751119621098041534e-02 -4.030270278453826904e-01 -4.458019882440567017e-02
5.270000000000000000e+02 2.660355186462402344e+01 -1.713136482238769531e+01 -1.606768846511840820e+00 1.237307861447334290e-01 -4.449114203453063965e-01 1.892851293087005615e-01
5.280000000000000000e+02 3.042134857177734375e+01 -1.698133468627929688e+01 -2.404970884323120117e+00 -1.203130483627319336e-01 -7.575851678848266602e-01 -2.167718410491943359e-01
5.290000000000000000e+02 3.282322311401367188e+01 -1.814070892333984375e+01 -1.138772964477539062e+00 4.661451876163482666e-01 -2.017883211374282837e-01 -1.502136588096618652e-01
5.300000000000000000e+02 3.406948089599609375e+01 -1.886010169982910156e+01 1.469152718782424927e-01 1.607449889183044434e+00 5.263095498085021973e-01 -9.398823380470275879e-01
5.310000000000000000e+02 3.546959304809570312e+01 -2.194710159301757812e+01 2.374879270792007446e-01 3.571304559707641602e+00 1.142637729644775391e+00 -2.553014457225799561e-01
5.320000000000000000e+02 3.498180770874023438e+01 -1.988728332519531250e+01 7.368515729904174805e-01 3.498389720916748047e+00 1.270572423934936523e+00 -9.123801589012145996e-01
5.330000000000000000e+02 4.222198104858398438e+01 -1.709144020080566406e+01 3.473610430955886841e-02 6.972404122352600098e-01 2.195929586887359619e-01 -1.132381558418273926e-01
5.340000000000000000e+02 4.290377807617187500e+01 -1.825844764709472656e+01 4.685897845774888992e-03 3.258274495601654053e-01 9.915400296449661255e-02 -7.013379037380218506e-02
5.350000000000000000e+02 4.064825820922851562e+01 -1.404944133758544922e+01 -3.830597270280122757e-03 8.282010555267333984e-01 2.473111450672149658e-01 -2.704295516014099121e-01
5.360000000000000000e+02 4.134150695800781250e+01 -1.141664409637451172e+01 1.935333572328090668e-02 3.318037390708923340e-01 1.053471267223358154e-01 -1.210673823952674866e-01
5.370000000000000000e+02 4.151535415649414062e+01 -1.265718364715576172e+01 2.113909926265478134e-03 5.725079774856567383e-01 1.723865717649459839e-01 -1.310674548149108887e-01
5.380000000000000000e+02 3.860255813598632812e+01 -9.042092323303222656e+00 3.186428546905517578e-01 1.989753842353820801e-01 1.552854776382446289e-01 -3.492275178432464600e-01
5.390000000000000000e+02 3.709447479248046875e+01 -9.581548690795898438e+00 5.375433564186096191e-01 4.042450487613677979e-01 2.825365364551544189e-01 -6.955114603042602539e-01
5.400000000000000000e+02 3.357154846191406250e+01 -8.158300399780273438e+00 1.737160563468933105e+00 9.578129053115844727e-01 8.084920644760131836e-01 -1.391076683998107910e+00
5.410000000000000000e+02 2.944485664367675781e+01 -6.523867607116699219e+00 5.986976623535156250e+00 4.663394451141357422e+00 3.195111274719238281e+00 2.855909347534179688e+00
5.420000000000000000e+02 2.917922973632812500e+01 -5.862048149108886719e+00 7.492771148681640625e+00 2.492121219635009766e+00 2.995467662811279297e+00 1.201189517974853516e+00
5.430000000000000000e+02 2.886093711853027344e+01 -5.228037834167480469e+00 5.972699165344238281e+00 1.393017411231994629e+00 2.209714889526367188e+00 -3.398032784461975098e-01
5.440000000000000000e+02 2.784502220153808594e+01 -3.940038204193115234e+00 7.905524969100952148e-01 -6.255871653556823730e-01 4.948960244655609131e-02 -2.157959461212158203e+00
5.450000000000000000e+02 6.095407009124755859e+00 -2.219126319885253906e+01 1.194208189845085144e-01 1.501819491386413574e+00 4.863721132278442383e-01 3.474026322364807129e-01
5.460000000000000000e+02 6.397232532501220703e+00 -2.083103942871093750e+01 2.568518221378326416e-01 1.652467727661132812e+00 5.727958679199218750e-01 5.220636129379272461e-01
5.470000000000000000e+02 6.123836040496826172e-01 -2.483678436279296875e+01 -8.639858104288578033e-03 3.401787951588630676e-02 7.613406050950288773e-03 1.383776664733886719e-01
5.480000000000000000e+02 5.923629760742187500e+00 -2.358415794372558594e+01 5.647318065166473389e-02 1.128544569015502930e+00 3.555053174495697021e-01 2.110475599765777588e-01
5.490000000000000000e+02 6.619101166725158691e-01 -2.907123947143554688e+01 -2.334537543356418610e-02 7.926920652389526367e-01 2.308039963245391846e-01 7.086323946714401245e-02
5.500000000000000000e+02 7.077263832092285156e+00 -2.828030776977539062e+01 -3.949621021747589111e-01 -2.218108028173446655e-01 -1.850318759679794312e-01 3.136844635009765625e-01
5.510000000000000000e+02 6.025300502777099609e+00 -2.635423660278320312e+01 -1.525250524282455444e-01 1.997313052415847778e-01 1.416187547147274017e-02 2.390895485877990723e-01
5.520000000000000000e+02 3.237890481948852539e+00 -2.898363876342773438e+01 -1.672371923923492432e-01 4.935016930103302002e-01 9.787935018539428711e-02 2.368212044239044189e-01
5.530000000000000000e+02 9.087150573730468750e+00 -3.018286323547363281e+01 -6.570471525192260742e-01 -3.790486156940460205e-01 -3.108287453651428223e-01 3.838287293910980225e-01
5.540000000000000000e+02 8.038907051086425781e+00 -2.916864776611328125e+01 -4.552392661571502686e-01 -3.107141256332397461e-01 -2.297860234975814819e-01 3.975134789943695068e-01
5.550000000000000000e+02 6.285315036773681641e+00 -2.962380981445312500e+01 -3.443516492843627930e-01 1.034080833196640015e-01 -7.228306680917739868e-02 2.246965318918228149e-01
5.560000000000000000e+02 3.011422395706176758e+00 -3.757706069946289062e+01 -9.822342544794082642e-03 5.802352428436279297e-01 1.711238771677017212e-01 -6.910108029842376709e-02
5.570000000000000000e+02 8.349914550781250000e-01 -3.725688934326171875e+01 -1.198784075677394867e-02 8.074256181716918945e-01 2.386313378810882568e-01 -3.699046745896339417e-02
5.580000000000000000e+02 6.618444919586181641e-01 -3.188907814025878906e+01 -1.284497231245040894e-02 9.507910609245300293e-01 2.813838422298431396e-01 1.065324898809194565e-02
5.590000000000000000e+02 7.940037727355957031e+00 -3.613609313964843750e+01 -2.413008175790309906e-02 3.851483762264251709e-02 4.315427038818597794e-03 9.267826564610004425e-03
5.600000000000000000e+02 9.878541946411132812e+00 -3.657744598388671875e+01 -3.838426619768142700e-02 -8.892593532800674438e-02 -3.819306194782257080e-02 5.277165770530700684e-02
5.610000000000000000e+02 1.596342563629150391e+01 -3.197503662109375000e+01 -4.599952995777130127e-01 -2.759764343500137329e-02 -1.462778896093368530e-01 8.181747794151306152e-02
5.620000000000000000e+02 7.211089611053466797e+00 -3.039099502563476562e+01 -4.336598813533782959e-01 -7.576867938041687012e-02 -1.528285592794418335e-01 1.948028206825256348e-01
5.630000000000000000e+02 1.671632957458496094e+01 -3.566865158081054688e+01 -2.076701521873474121e-01 -9.633117169141769409e-02 -9.120039641857147217e-02 7.899390906095504761e-02
5.640000000000000000e+02 1.551645851135253906e+01 -3.860658264160156250e+01 -6.467253714799880981e-02 -1.363719552755355835e-01 -6.031334772706031799e-02 6.285842508077621460e-02
5.650000000000000000e+02 1.871761131286621094e+01 -3.196440124511718750e+01 -3.813108205795288086e-01 -1.452932367101311684e-03 -1.148291230201721191e-01 4.133134149014949799e-03
5.660000000000000000e+02 1.734928703308105469e+01 -3.198763656616210938e+01 -4.245699942111968994e-01 -3.520699217915534973e-02 -1.379330903291702271e-01 3.938593342900276184e-02
5.670000000000000000e+02 2.426227760314941406e+01 -3.854138565063476562e+01 -1.361457258462905884e-01 6.070508435368537903e-02 -2.263219095766544342e-02 3.354173526167869568e-02
5.680000000000000000e+02 2.509888839721679688e+01 -3.467783355712890625e+01 -1.925924420356750488e-01 4.761738330125808716e-02 -4.349251836538314819e-02 4.464731365442276001e-02
5.690000000000000000e+02 2.944227027893066406e+01 -3.131120491027832031e+01 -1.006047725677490234e-01 1.407768279314041138e-01 1.205161493271589279e-02 1.079151853919029236e-01
5.700000000000000000e+02 2.409917259216308594e+01 -3.161561965942382812e+01 -3.307493925094604492e-01 1.916427630931138992e-03 -9.864988923072814941e-02 -2.415509335696697235e-02
5.710000000000000000e+02 3.060217857360839844e+01 -3.705253219604492188e+01 -2.162223160266876221e-01 4.435108602046966553e-01 6.818656623363494873e-02 1.189350411295890808e-01
5.720000000000000000e+02 3.100297355651855469e+01 -3.184819793701171875e+01 -7.776887714862823486e-02 3.972354829311370850e-01 9.583998471498489380e-02 2.098891437053680420e-01
5.730000000000000000e+02 2.822431564331054688e+01 -3.411625289916992188e+01 -1.644805967807769775e-01 1.829363256692886353e-01 5.536716431379318237e-03 1.317113339900970459e-01
5.740000000000000000e+02 3.804251861572265625e+01 -3.840228652954101562e+01 -3.089938759803771973e-01 8.087862133979797363e-01 1.499377042055130005e-01 -3.762735798954963684e-02
5.750000000000000000e+02 4.870636749267578125e+01 -2.448187255859375000e+01 3.255277127027511597e-02 1.198074780404567719e-02 1.336005516350269318e-02 -1.429915614426136017e-02
5.760000000000000000e+02 4.278909683227539062e+01 -2.005459594726562500e+01 8.914466202259063721e-02 4.409904778003692627e-01 1.590405404567718506e-01 -1.106568723917007446e-01
5.770000000000000000e+02 4.568191146850585938e+01 -2.331250000000000000e+01 1.285547018051147461e-01 1.096716746687889099e-01 7.146791368722915649e-02 -1.150174736976623535e-01
5.780000000000000000e+02 4.376852416992187500e+01 -1.937904739379882812e+01 -2.782680094242095947e-02 8.499052375555038452e-02 1.714911684393882751e-02 -1.790926675312221050e-03
5.790000000000000000e+02 4.252027893066406250e+01 -4.115365600585937500e+01 -2.461175322532653809e-01 6.911583542823791504e-01 1.335122436285018921e-01 -3.296786546707153320e-02
5.800000000000000000e+02 4.694952392578125000e+01 -3.819422531127929688e+01 -1.041250228881835938e-01 4.622085094451904297e-01 1.074250489473342896e-01 -1.061887741088867188e-01
5.810000000000000000e+02 5.159643936157226562e+01 -2.758339309692382812e+01 2.403581887483596802e-02 2.674691379070281982e-02 1.523481961339712143e-02 -3.458815440535545349e-02
5.820000000000000000e+02 5.229473876953125000e+01 -3.085052680969238281e+01 2.162632904946804047e-02 9.409425407648086548e-02 3.471617400646209717e-02 -6.316425651311874390e-02
5.830000000000000000e+02 4.729370880126953125e+01 -4.109733200073242188e+01 -1.231366917490959167e-01 4.671494066715240479e-01 1.032038182020187378e-01 -3.331815451383590698e-02
5.840000000000000000e+02 5.075339889526367188e+01 -3.793197631835937500e+01 -3.390249609947204590e-02 2.764669358730316162e-01 7.276933640241622925e-02 -8.000040799379348755e-02
5.850000000000000000e+02 5.463441848754882812e+01 -3.059517860412597656e+01 -3.957250621169805527e-03 2.201355621218681335e-02 5.416892003268003464e-03 -9.474076330661773682e-03
5.860000000000000000e+02 5.126733016967773438e+01 -2.979527282714843750e+01 3.815168514847755432e-02 9.002660214900970459e-02 3.845348581671714783e-02 -7.850790023803710938e-02
5.870000000000000000e+02 5.550433731079101562e+01 -3.631980133056640625e+01 6.824745330959558487e-03 7.628022134304046631e-02 2.493149042129516602e-02 -2.931442111730575562e-02
5.880000000000000000e+02 5.682972335815429688e+01 -3.777850723266601562e+01 1.643977873027324677e-02 5.745090171694755554e-02 2.216720394790172577e-02 -2.028115466237068176e-02
5.890000000000000000e+02 5.823809432983398438e+01 -3.312448120117187500e+01 -5.545354634523391724e-02 -6.994652096182107925e-03 -1.873446069657802582e-02 4.344937391579151154e-03
5.900000000000000000e+02 5.691666030883789062e+01 -3.244660186767578125e+01 -4.390778392553329468e-02 1.998759806156158447e-03 -1.257270760834217072e-02 1.047099195420742035e-02
5.910000000000000000e+02 5.571487426757812500e+01 -3.158708953857421875e+01 -2.573548629879951477e-02 1.109250914305448532e-02 -4.392893053591251373e-03 1.100987312383949757e-03
5.920000000000000000e+02 5.462477111816406250e+01 -3.278936767578125000e+01 -9.168811142444610596e-03 6.985694915056228638e-02 1.820644177496433258e-02 -3.431029245257377625e-02
5.930000000000000000e+02 6.732126617431640625e+01 -4.120250701904296875e+01 1.199684757739305496e-02 -3.885106649249792099e-03 2.433522138744592667e-03 2.110443776473402977e-03
5.940000000000000000e+02 6.212500762939453125e+01 -3.837203598022460938e+01 1.411413680762052536e-02 7.011431269347667694e-03 6.337670609354972839e-03 8.081335574388504028e-03
5.950000000000000000e+02 6.208884429931640625e+01 -3.248158264160156250e+01 -3.647522628307342529e-02 -1.952969003468751907e-03 -1.152845844626426697e-02 -8.640711195766925812e-03
5.960000000000000000e+02 6.087316513061523438e+01 -3.308701324462890625e+01 -5.274074152112007141e-02 -6.956473924219608307e-03 -1.790916360914707184e-02 7.665355806238949299e-04
5.970000000000000000e+02 7.059297943115234375e+01 -3.644982528686523438e+01 7.599655073136091232e-04 -1.984768547117710114e-03 -3.674408944789320230e-04 5.470428615808486938e-03
5.980000000000000000e+02 7.794483184814453125e+01 -3.068226051330566406e+01 -3.311880282126367092e-04 -7.932058069854974747e-04 -3.373181680217385292e-04 6.029024953022599220e-04
5.990000000000000000e+02 7.935437011718750000e+01 -2.651845359802246094e+01 -2.315536694368347526e-04 2.845097624231129885e-04 1.588682607689406723e-05 -1.939292815222870559e-05
6.000000000000000000e+02 7.822941589355468750e+01 -2.359266662597656250e+01 3.678178472910076380e-04 3.665634721983224154e-05 1.213422510772943497e-04 -1.009765674098161981e-05
6.010000000000000000e+02 7.952207946777343750e+01 -1.958561897277832031e+01 3.455816186033189297e-04 6.644464156124740839e-05 1.236078824149444699e-04 -5.439382584881968796e-05
6.020000000000000000e+02 7.960702514648437500e+01 -1.677099037170410156e+01 3.149100812152028084e-04 3.399122215341776609e-05 1.046703910105861723e-04 -5.222523395786993206e-05
6.030000000000000000e+02 7.801644134521484375e+01 -4.164345169067382812e+01 3.386958269402384758e-04 -5.383038893342018127e-03 -1.513302908279001713e-03 1.009767875075340271e-04
6.040000000000000000e+02 7.643176269531250000e+01 -3.782790756225585938e+01 7.732401718385517597e-04 -3.521920181810855865e-03 -8.246040088124573231e-04 1.687882351689040661e-03
6.050000000000000000e+02 7.767877960205078125e+01 -3.827476501464843750e+01 9.347403101855888963e-05 -4.398120101541280746e-03 -1.291393768042325974e-03 1.004106481559574604e-03
6.060000000000000000e+02 7.496417236328125000e+01 -1.535455608367919922e+01 7.491558062611147761e-05 8.994920790428295732e-05 4.945943510392680764e-05 3.146970266243442893e-05
6.070000000000000000e+02 7.210362243652343750e+01 -1.562667751312255859e+01 8.935506048146635294e-05 7.746349001536145806e-05 5.004556442145258188e-05 6.673887401120737195e-05
6.080000000000000000e+02 7.152966308593750000e+01 -1.655226707458496094e+01 1.214311196235939860e-04 9.386607416672632098e-05 6.458915595430880785e-05 1.054746462614275515e-04
6.090000000000000000e+02 6.858875274658203125e+01 -1.632601547241210938e+01 -5.171950760995969176e-05 -5.915244400966912508e-05 -3.326158548588864505e-05 -4.538632856565527618e-05
6.100000000000000000e+02 6.925856018066406250e+01 -1.610641098022460938e+01 4.654299482353962958e-05 3.115483195870183408e-05 2.330934694327879697e-05 -3.972196736867772415e-06
6.110000000000000000e+02 6.864727783203125000e+01 -2.510732841491699219e+01 -1.958572538569569588e-04 4.744640900753438473e-04 8.358204649994149804e-05 9.674208558863028884e-05
6.120000000000000000e+02 6.816054534912109375e+01 -2.650061416625976562e+01 7.777116115903481841e-05 2.208269725088030100e-04 8.957944373833015561e-05 -1.311601663473993540e-04
6.130000000000000000e+02 6.669862365722656250e+01 -2.904381561279296875e+01 -3.159237792715430260e-03 -1.071511185728013515e-03 -1.269224681891500950e-03 -2.067337976768612862e-03
6.140000000000000000e+02 6.831546020507812500e+01 -3.171274948120117188e+01 -9.440756402909755707e-03 2.322681946679949760e-03 -2.135422313585877419e-03 1.786879263818264008e-03
6.150000000000000000e+02 6.778507232666015625e+01 -2.968735122680664062e+01 -5.950321909040212631e-03 5.912940250709652901e-04 -1.607708400115370750e-03 -8.168981876224279404e-04
6.160000000000000000e+02 3.205152130126953125e+01 -3.613966226577758789e+00 -1.231601163744926453e-01 3.355191707611083984e+00 9.696094989776611328e-01 5.127172470092773438e+00
6.170000000000000000e+02 3.756960678100585938e+01 -5.162938117980957031e+00 -1.759977459907531738e+00 6.132931709289550781e-01 -3.440052866935729980e-01 -2.779840230941772461e-01
6.180000000000000000e+02 3.607609939575195312e+01 -2.089445114135742188e+01 5.338768959045410156e-01 3.097303628921508789e+00 1.089354157447814941e+00 -4.485601484775543213e-01
6.190000000000000000e+02 3.534207153320312500e+01 -2.320290946960449219e+01 2.892165072262287140e-02 3.312526702880859375e+00 1.002434492111206055e+00 1.057098582386970520e-01
6.200000000000000000e+02 3.524736404418945312e+01 -2.460576057434082031e+01 3.745507895946502686e-01 3.261864423751831055e+00 1.090924501419067383e+00 3.752511143684387207e-01
6.210000000000000000e+02 3.475259399414062500e+01 -2.591817665100097656e+01 4.451097548007965088e-01 2.434834241867065430e+00 8.639831542968750000e-01 7.279072999954223633e-01
6.220000000000000000e+02 3.399423980712890625e+01 -2.707250213623046875e+01 4.489434063434600830e-01 1.511197924613952637e+00 5.880423784255981445e-01 7.884404659271240234e-01
6.230000000000000000e+02 3.165049743652343750e+01 -3.031715011596679688e+01 8.801404386758804321e-02 4.462911784648895264e-01 1.602915674448013306e-01 2.964164316654205322e-01
6.240000000000000000e+02 3.327104568481445312e+01 -2.819617843627929688e+01 4.264994859695434570e-01 1.086915731430053711e+00 4.540245831012725830e-01 6.279858350753784180e-01
6.250000000000000000e+02 3.536382675170898438e+01 -3.172728919982910156e+01 -2.038094848394393921e-01 1.117308259010314941e+00 2.740496397018432617e-01 9.014248102903366089e-02
6.260000000000000000e+02 7.937274932861328125e+01 4.300621032714843750e+00 -6.646108231507241726e-04 -1.199376061558723450e-01 -3.618066757917404175e-02 -2.398660778999328613e-02
6.270000000000000000e+02 7.293367004394531250e+01 3.224149703979492188e+00 -9.855895489454269409e-02 -9.254109114408493042e-02 -5.733001232147216797e-02 -1.842485368251800537e-01
6.280000000000000000e+02 4.011535644531250000e+01 5.025171279907226562e+00 2.381571769714355469e+00 6.081479549407958984e+00 2.538915395736694336e+00 3.433661222457885742e+00
6.290000000000000000e+02 4.056484603881835938e+01 6.463431358337402344e+00 2.451160669326782227e+00 6.200428962707519531e+00 2.595476865768432617e+00 3.378887414932250977e+00
6.300000000000000000e+02 7.935257720947265625e+01 1.126194667816162109e+01 -1.120151137001812458e-03 -4.664388000965118408e-01 -1.402676850557327271e-01 -3.623473644256591797e-02
6.310000000000000000e+02 7.267407226562500000e+01 1.166438484191894531e+01 -3.821919672191143036e-03 -3.206436336040496826e-01 -9.733966737985610962e-02 -3.105004429817199707e-01
6.320000000000000000e+02 6.279086685180664062e+01 8.992160797119140625e+00 -1.056700274348258972e-01 -8.299900591373443604e-02 -5.660070851445198059e-02 -5.538970828056335449e-01
6.330000000000000000e+02 5.366033172607421875e+01 9.328026771545410156e+00 2.378039509057998657e-01 -1.695006638765335083e-01 2.049098350107669830e-02 -6.302739381790161133e-01
6.340000000000000000e+02 7.938364410400390625e+01 1.820824050903320312e+01 1.568822888657450676e-03 -8.450070023536682129e-01 -2.530314624309539795e-01 -2.900566719472408295e-02
6.350000000000000000e+02 7.329293823242187500e+01 1.864367294311523438e+01 5.366485938429832458e-02 -5.239540338516235352e-01 -1.410867422819137573e-01 -2.303431332111358643e-01
6.360000000000000000e+02 6.517333221435546875e+01 1.778233528137207031e+01 2.284570783376693726e-01 -2.066480666399002075e-01 6.542705930769443512e-03 -3.345384299755096436e-01
6.370000000000000000e+02 5.495216369628906250e+01 2.137504196166992188e+01 5.442327857017517090e-01 5.390198826789855957e-01 3.249757885932922363e-01 9.073572605848312378e-02
6.380000000000000000e+02 4.694205474853515625e+01 1.940806007385253906e+01 4.974579811096191406e-01 1.975063443183898926e+00 7.417564392089843750e-01 5.191396474838256836e-01
6.390000000000000000e+02 7.930549621582031250e+01 2.377705001831054688e+01 1.187949092127382755e-03 -1.056697607040405273e+00 -3.166528940200805664e-01 -1.924509555101394653e-02
6.400000000000000000e+02 7.252169036865234375e+01 2.472134017944335938e+01 7.373350113630294800e-02 -5.688650012016296387e-01 -1.485394388437271118e-01 -1.389802247285842896e-01
6.410000000000000000e+02 6.723160552978515625e+01 2.374403381347656250e+01 1.828027963638305664e-01 -2.621978223323822021e-01 -2.381850965321063995e-02 -1.680185645818710327e-01
6.420000000000000000e+02 5.543247604370117188e+01 2.421545410156250000e+01 4.368192255496978760e-01 5.859869122505187988e-01 3.068418502807617188e-01 1.093223020434379578e-01
6.430000000000000000e+02 4.793804550170898438e+01 2.473762702941894531e+01 3.509845733642578125e-01 1.695679903030395508e+00 6.139993667602539062e-01 1.983727365732192993e-01
6.440000000000000000e+02 7.932872772216796875e+01 3.074993515014648438e+01 -4.848253447562456131e-04 -1.183150410652160645e+00 -3.550905883312225342e-01 -4.161643795669078827e-03
6.450000000000000000e+02 6.495230865478515625e+01 3.251839447021484375e+01 1.017122566699981689e-01 -5.318349227309226990e-02 1.455862820148468018e-02 -7.348337210714817047e-03
6.460000000000000000e+02 5.950878524780273438e+01 3.362317276000976562e+01 9.139922261238098145e-02 4.413894116878509521e-01 1.598365902900695801e-01 7.568104565143585205e-02
6.470000000000000000e+02 4.725545501708984375e+01 3.226311492919921875e+01 1.011903807520866394e-01 1.522396683692932129e+00 4.870761334896087646e-01 1.502717137336730957e-01
6.480000000000000000e+02 1.132038784027099609e+01 3.058135795593261719e+01 3.709470038302242756e-04 -1.286333135794848204e-04 7.269410707522183657e-05 1.141363645729143173e-05
6.490000000000000000e+02 1.420978450775146484e+01 2.402594184875488281e+01 3.548092718119733036e-05 8.855994565237779170e-06 1.330107625108212233e-05 2.408020009170286357e-05
6.500000000000000000e+02 1.446267986297607422e+01 1.679264640808105469e+01 -1.368766061204951257e-05 9.742700513015734032e-07 -3.814016963588073850e-06 -3.760992967727361247e-06
6.510000000000000000e+02 1.333271408081054688e+01 9.509191513061523438e+00 2.087945358653087169e-05 -6.291828640314633958e-07 6.075081273593241349e-06 -3.246203959861304611e-06
6.520000000000000000e+02 1.164277935028076172e+01 -2.883074045181274414e+00 -9.312374144792556763e-02 9.367587976157665253e-03 -2.512684650719165802e-02 7.475042715668678284e-03
6.530000000000000000e+02 1.010934257507324219e+01 -1.413776683807373047e+01 2.656044960021972656e-01 4.282014667987823486e-01 2.081417888402938843e-01 3.189798593521118164e-01
6.540000000000000000e+02 1.392521190643310547e+01 -1.438501834869384766e+01 3.231611549854278564e-01 -7.794775813817977905e-02 7.356402277946472168e-02 3.274745047092437744e-01
6.550000000000000000e+02 1.839187622070312500e+01 -1.439319515228271484e+01 1.077075824141502380e-01 -2.020501792430877686e-01 -2.830277942121028900e-02 4.074387848377227783e-01
6.560000000000000000e+02 2.344785118103027344e+01 -1.497532653808593750e+01 -3.330871462821960449e-01 6.872089952230453491e-02 -7.930987328290939331e-02 6.812645792961120605e-01
6.570000000000000000e+02 2.428096389770507812e+01 -1.449917030334472656e+01 -2.235100567340850830e-01 1.184935122728347778e-01 -3.150496259331703186e-02 7.554231882095336914e-01
6.580000000000000000e+02 2.120590209960937500e+01 -3.321706056594848633e+00 -2.682625055313110352e-01 -1.755135208368301392e-01 -1.331328153610229492e-01 -4.331465065479278564e-01
6.590000000000000000e+02 1.007044315338134766e+01 -1.645043182373046875e+01 1.031476020812988281e+00 1.935430765151977539e-01 3.675057291984558105e-01 4.241904020309448242e-01
6.600000000000000000e+02 3.935940170288085938e+01 -9.104899406433105469e+00 2.092794179916381836e-01 1.644608825445175171e-01 1.121220886707305908e-01 -2.493857145309448242e-01
6.610000000000000000e+02 2.949661445617675781e+01 -1.761834907531738281e+01 -2.882543325424194336e+00 -6.699867546558380127e-02 -8.848626017570495605e-01 -2.792225778102874756e-01
6.620000000000000000e+02 4.410089111328125000e+01 -2.752229309082031250e+01 1.745326817035675049e-01 4.897801578044891357e-01 1.992938518524169922e-01 -3.167532682418823242e-01
6.630000000000000000e+02 6.987905120849609375e+01 -2.539582252502441406e+01 3.648049314506351948e-04 -1.708141498966142535e-04 5.819723082822747529e-05 -1.476471661590039730e-04
6.640000000000000000e+02 3.971340179443359375e+01 -5.471783638000488281e+00 -1.259704709053039551e+00 2.403221279382705688e-01 -3.058147728443145752e-01 -9.269611835479736328e-01
6.650000000000000000e+02 4.265901947021484375e+01 -2.409286499023437500e+00 -1.556975126266479492e+00 -4.513469219207763672e+00 -1.821133255958557129e+00 -2.275264024734497070e+00
6.660000000000000000e+02 4.989199066162109375e+01 8.135870695114135742e-01 -3.245686054229736328e+00 -1.853006333112716675e-01 -1.029296040534973145e+00 4.317055046558380127e-01
6.670000000000000000e+02 5.783090972900390625e+01 -1.355768084526062012e+00 -1.230171561241149902e+00 -2.189243212342262268e-02 -3.756191730499267578e-01 1.934434324502944946e-01
6.680000000000000000e+02 5.648575973510742188e+01 -1.069828867912292480e+00 -1.462190151214599609e+00 -6.304759532213211060e-02 -4.575713276863098145e-01 1.483557522296905518e-01
6.690000000000000000e+02 5.917147064208984375e+01 -1.701556801795959473e+00 -1.007379531860351562e+00 -7.940981537103652954e-02 -3.260368108749389648e-01 1.842308491468429565e-01
6.700000000000000000e+02 6.177181625366210938e+01 -2.729943752288818359e+00 -4.768304824829101562e-01 -6.864307820796966553e-02 -1.636420786380767822e-01 1.432047635316848755e-01
6.710000000000000000e+02 6.300133132934570312e+01 -3.459284543991088867e+00 -2.566300630569458008e-01 -3.256893157958984375e-02 -8.675970137119293213e-02 1.031832844018936157e-01
6.720000000000000000e+02 7.016890716552734375e+01 -1.204089832305908203e+01 1.120414026081562042e-02 -4.682817030698060989e-03 1.956397201865911484e-03 -5.957223940640687943e-03
6.730000000000000000e+02 6.879135131835937500e+01 -1.231754589080810547e+01 7.788081187754869461e-03 -2.727162791416049004e-04 2.254609484225511551e-03 -5.334126763045787811e-03
6.740000000000000000e+02 6.765286254882812500e+01 -1.177020645141601562e+01 8.655004203319549561e-04 5.640109535306692123e-03 1.951682963408529758e-03 -1.027468591928482056e-02
6.750000000000000000e+02 6.748837280273437500e+01 -1.236362934112548828e+01 2.077471697703003883e-03 1.173063833266496658e-02 4.142432939261198044e-03 -8.648251183331012726e-03
6.760000000000000000e+02 6.945549774169921875e+01 -1.217266941070556641e+01 8.557057008147239685e-03 -9.435644024051725864e-04 2.284047892317175865e-03 -6.337334867566823959e-03
6.770000000000000000e+02 7.168160247802734375e+01 -1.184958171844482422e+01 1.160605810582637787e-02 -4.721281584352254868e-03 2.065433189272880554e-03 -2.635065931826829910e-03
6.780000000000000000e+02 7.244969177246093750e+01 -1.176766109466552734e+01 1.083950046449899673e-02 -2.136413240805268288e-03 2.610926283523440361e-03 1.561851531732827425e-04
6.790000000000000000e+02 7.400620269775390625e+01 -1.164534664154052734e+01 9.346789680421352386e-03 -8.052554912865161896e-04 2.562460256740450859e-03 4.148905631154775620e-03
6.800000000000000000e+02 7.551506805419921875e+01 -1.163792037963867188e+01 8.275002241134643555e-03 -8.165360777638852596e-04 2.237539738416671753e-03 5.711080040782690048e-03
6.810000000000000000e+02 7.947640991210937500e+01 -6.773452281951904297e+00 -4.188627644907683134e-04 2.465556561946868896e-02 7.271010894328355789e-03 2.250537276268005371e-03
6.820000000000000000e+02 7.964292144775390625e+01 -1.121515369415283203e+01 -2.348349953535944223e-04 3.891846630722284317e-03 1.097103464417159557e-03 6.558019085787236691e-04
6.830000000000000000e+02 7.817635345458984375e+01 -1.127792930603027344e+01 1.760931336320936680e-03 2.574224490672349930e-03 1.300546689890325069e-03 5.088610574603080750e-03
6.840000000000000000e+02 7.798162078857421875e+01 4.162990570068359375e+01 -3.642233088612556458e-02 -1.107642412185668945e+00 -3.432194292545318604e-01 1.018434949219226837e-02
6.850000000000000000e+02 7.869219970703125000e+01 4.007850646972656250e+01 1.896187104284763336e-02 -1.121954441070556641e+00 -3.308977782726287842e-01 3.048522025346755981e-02
6.860000000000000000e+02 7.664797210693359375e+01 3.906074523925781250e+01 7.997914217412471771e-03 -1.051222205162048340e+00 -3.129673004150390625e-01 2.728358609601855278e-03
6.870000000000000000e+02 7.939353179931640625e+01 3.611758422851562500e+01 7.382668089121580124e-03 -1.203039526939392090e+00 -3.586970567703247070e-01 5.303236190229654312e-03
6.880000000000000000e+02 7.931896209716796875e+01 3.488565063476562500e+01 -1.062022754922509193e-03 -1.204874634742736816e+00 -3.617809712886810303e-01 -3.870040643960237503e-03
6.890000000000000000e+02 7.702536773681640625e+01 3.461103820800781250e+01 1.552597433328628540e-02 -1.002998709678649902e+00 -2.962418198585510254e-01 -1.152784656733274460e-02
6.900000000000000000e+02 7.922944641113281250e+01 3.352574920654296875e+01 -4.694337840192019939e-04 -1.199186205863952637e+00 -3.598966896533966064e-01 -2.591122873127460480e-03
6.910000000000000000e+02 7.932112884521484375e+01 2.937598037719726562e+01 2.369236433878540993e-03 -1.170934915542602539e+00 -3.505697250366210938e-01 -6.655671633780002594e-03
6.920000000000000000e+02 7.931470489501953125e+01 2.798051261901855469e+01 2.299901563674211502e-03 -1.150877237319946289e+00 -3.445731997489929199e-01 -1.125886850059032440e-02
6.930000000000000000e+02 7.791736602783203125e+01 2.674241447448730469e+01 7.810943759977817535e-03 -1.003143787384033203e+00 -2.985998690128326416e-01 -3.871951997280120850e-02
6.940000000000000000e+02 7.930523681640625000e+01 2.657822799682617188e+01 4.037748149130493402e-04 -1.124291777610778809e+00 -3.371663987636566162e-01 -1.387809030711650848e-02
6.950000000000000000e+02 7.932535552978515625e+01 2.238086891174316406e+01 1.094235572963953018e-03 -1.014004111289978027e+00 -3.038729727268218994e-01 -2.137336134910583496e-02
6.960000000000000000e+02 7.934914398193359375e+01 2.098762512207031250e+01 1.388036995194852352e-03 -9.649255275726318359e-01 -2.890612483024597168e-01 -2.413675747811794281e-02
6.970000000000000000e+02 7.804415130615234375e+01 2.106901550292968750e+01 7.249183952808380127e-03 -8.681450486183166504e-01 -2.582687735557556152e-01 -7.163512706756591797e-02
6.980000000000000000e+02 7.938270568847656250e+01 1.681996536254882812e+01 5.162190063856542110e-04 -7.752512097358703613e-01 -2.324204891920089722e-01 -3.103211149573326111e-02
6.990000000000000000e+02 7.937296295166015625e+01 1.543031311035156250e+01 1.753781689330935478e-03 -7.012635469436645508e-01 -2.098529338836669922e-01 -3.383298218250274658e-02
7.000000000000000000e+02 7.936226654052734375e+01 1.404156112670898438e+01 -2.136944531230255961e-04 -6.241218447685241699e-01 -1.873006671667098999e-01 -3.507921844720840454e-02
7.010000000000000000e+02 7.808057403564453125e+01 1.419397640228271484e+01 3.072574269026517868e-03 -5.815179347991943359e-01 -1.735336184501647949e-01 -1.018918827176094055e-01
7.020000000000000000e+02 7.935348510742187500e+01 9.870822906494140625e+00 7.843033527024090290e-04 -3.880501091480255127e-01 -1.161797344684600830e-01 -3.619962930679321289e-02
7.030000000000000000e+02 7.935603332519531250e+01 8.477632522583007812e+00 -2.468093531206250191e-03 -3.121722340583801270e-01 -9.439209848642349243e-02 -3.378072008490562439e-02
7.040000000000000000e+02 7.935987854003906250e+01 7.085110187530517578e+00 1.021925199893303216e-04 -2.412979304790496826e-01 -7.235872000455856323e-02 -3.161418065428733826e-02
7.050000000000000000e+02 7.807514953613281250e+01 7.231369018554687500e+00 -7.599008735269308090e-03 -2.500023841857910156e-01 -7.728041708469390869e-02 -9.078684449195861816e-02
7.060000000000000000e+02 7.938497161865234375e+01 2.911509275436401367e+00 -3.087256103754043579e-03 -7.175403833389282227e-02 -2.245238982141017914e-02 -1.931888610124588013e-02
7.070000000000000000e+02 7.940075683593750000e+01 1.524528503417968750e+00 -1.051425351761281490e-03 -3.320155292749404907e-02 -1.027589384466409683e-02 -1.495143212378025055e-02
7.080000000000000000e+02 7.941776275634765625e+01 1.380953192710876465e-01 -2.693450544029474258e-03 -4.147041589021682739e-03 -2.052147639915347099e-03 -1.014438550919294357e-02
7.090000000000000000e+02 7.825867462158203125e+01 3.035844266414642334e-01 -7.783833425492048264e-03 -3.343798965215682983e-02 -1.236654631793498993e-02 -3.121896460652351379e-02
7.100000000000000000e+02 7.945738220214843750e+01 -4.023980617523193359e+00 -3.878373536281287670e-04 3.002372384071350098e-02 8.890765719115734100e-03 -6.500801537185907364e-04
7.110000000000000000e+02 7.946878051757812500e+01 -5.403113842010498047e+00 -7.055426249280571938e-04 2.940672263503074646e-02 8.610353805124759674e-03 9.564848151057958603e-04
7.120000000000000000e+02 7.839592742919921875e+01 -5.168445110321044922e+00 -2.496435772627592087e-03 1.342527009546756744e-02 3.278650343418121338e-03 1.616193214431405067e-03
7.130000000000000000e+02 7.839325714111328125e+01 -7.789813518524169922e+00 -6.489210645668208599e-04 1.095440890640020370e-02 3.091646358370780945e-03 6.693968083709478378e-03
7.140000000000000000e+02 8.187819480895996094e+00 4.135443115234375000e+01 -1.112096142605878413e-04 1.003445941023528576e-04 -3.259505547248409130e-06 4.302353318053064868e-06
7.150000000000000000e+02 2.448578453063964844e+01 4.010753631591796875e+01 -4.229621845297515392e-04 -1.411744020879268646e-02 -4.362120758742094040e-03 3.106040880084037781e-03
7.160000000000000000e+02 4.786049652099609375e+01 4.109457397460937500e+01 -2.757764160633087158e-01 1.376799702644348145e+00 3.303070068359375000e-01 2.840197645127773285e-02
7.170000000000000000e+02 6.705023956298828125e+01 4.055326843261718750e+01 1.330475509166717529e-02 -1.401198953390121460e-01 -3.804454207420349121e-02 4.207204561680555344e-03
7.180000000000000000e+02 1.141232013702392578e+00 1.938494205474853516e+00 1.696739104772859719e-06 -5.999956556479446590e-06 -1.290965315092762467e-06 -9.779619176697451621e-06
7.190000000000000000e+02 3.262116193771362305e+00 2.708908796310424805e+00 -7.740078217466361821e-06 -6.534401563840219751e-06 -4.282343979866709560e-06 8.868042641552165151e-06
7.200000000000000000e+02 5.450237274169921875e+00 2.605425834655761719e+00 4.157504008617252111e-06 3.393870656509534456e-06 2.265412376800668426e-06 -5.571645033342065290e-06
7.210000000000000000e+02 1.593812108039855957e+00 6.340169429779052734e+00 1.847185012593399733e-05 7.096721674315631390e-06 7.670571903872769326e-06 9.035882158059393987e-07
7.220000000000000000e+02 5.561417937278747559e-01 9.211371421813964844e+00 -3.075177664868533611e-05 -2.395968749624444172e-06 -9.944323210220318288e-06 4.216233264742186293e-06
7.230000000000000000e+02 5.826494097709655762e-01 1.201740646362304688e+01 -3.612189902924001217e-05 -2.370121819694759324e-06 -1.154760593635728583e-05 5.133333161211339757e-06
7.240000000000000000e+02 1.751248359680175781e+00 1.186581325531005859e+01 3.311891487101092935e-05 -6.032080364093417302e-07 9.754712664289399981e-06 -2.390736199231469072e-06
7.250000000000000000e+02 6.185374855995178223e-01 1.623768234252929688e+01 3.429137359489686787e-05 -2.943303798019769602e-06 9.404421689396258444e-06 -2.415381004539085552e-06
7.260000000000000000e+02 1.877339363098144531e+00 1.744302940368652344e+01 3.443495006649754941e-05 -2.079666728604934178e-06 9.706584933155681938e-06 6.018107796990079805e-06
7.270000000000000000e+02 6.275582909584045410e-01 1.764617538452148438e+01 -3.118230597465299070e-05 -5.751396656705765054e-06 -1.108011110773077235e-05 2.358392521273344755e-06
7.280000000000000000e+02 6.468705534934997559e-01 2.188618087768554688e+01 1.841822813730686903e-05 -4.841136160393944010e-06 4.073127456649672240e-06 7.779390216455794871e-07
7.290000000000000000e+02 6.483879089355468750e-01 2.329816627502441406e+01 -1.308623177465051413e-05 -4.785323653777595609e-06 -5.361466719477903098e-06 -3.310380407128832303e-06
7.300000000000000000e+02 1.932670235633850098e+00 2.309717750549316406e+01 2.509642035875003785e-05 5.437925210571847856e-06 9.160304216493386775e-06 5.206449259276269004e-06
7.310000000000000000e+02 6.456995010375976562e-01 2.470746421813964844e+01 1.073038311005802825e-05 3.642937826953129843e-06 4.311996235628612339e-06 -1.300919961977342609e-06
7.320000000000000000e+02 6.369468569755554199e-01 2.892719459533691406e+01 -8.510458428645506501e-06 3.738860323210246861e-05 8.663443622936028987e-06 -9.496078746451530606e-06
7.330000000000000000e+02 6.592074632644653320e-01 3.033987617492675781e+01 6.634444616793189198e-06 5.961773786111734807e-05 1.987565519812051207e-05 -6.467779712693300098e-06
7.340000000000000000e+02 3.122973203659057617e+00 2.976908111572265625e+01 5.572253940044902265e-05 3.003416713909246027e-05 2.572701123426668346e-05 -4.343381442595273256e-05
7.350000000000000000e+02 6.978605985641479492e-01 3.175425910949707031e+01 1.112980407924624160e-05 9.754912025528028607e-05 3.260367884649895132e-05 -3.018833558598998934e-05
7.360000000000000000e+02 7.883770465850830078e-01 3.596121597290039062e+01 1.284980044147232547e-05 2.357417106395587325e-04 7.457745232386514544e-05 -4.551046367851085961e-05
7.370000000000000000e+02 2.356489419937133789e+00 3.692362594604492188e+01 3.282450052211061120e-05 2.173786633647978306e-04 7.506094698328524828e-05 -1.359877496724948287e-04
7.380000000000000000e+02 1.008851408958435059e+00 3.869606399536132812e+01 9.142670751316472888e-05 3.165749949403107166e-04 1.224005100084468722e-04 -5.762696309830062091e-05
7.390000000000000000e+02 1.374777555465698242e+00 4.006480026245117188e+01 -9.213302109856158495e-05 3.429821517784148455e-04 7.525473483838140965e-05 -1.100824010791257024e-05
7.400000000000000000e+02 1.054266929626464844e+01 1.763649821281433105e+00 1.962488482831759029e-07 3.448639972702949308e-06 1.093466721613367554e-06 6.219458441591996234e-07
7.410000000000000000e+02 9.057520866394042969e+00 1.844957947731018066e+00 1.356199618385289796e-06 5.620483989332569763e-06 2.093004923153785057e-06 -1.817724751163041219e-06
7.420000000000000000e+02 8.329541206359863281e+00 1.850342988967895508e+00 -1.606074192750384100e-06 -6.132998805696843192e-06 -2.321721922271535732e-06 2.836885869328398257e-06
7.430000000000000000e+02 7.604074001312255859e+00 1.853120326995849609e+00 1.647287831474386621e-06 6.331311851681675762e-06 2.393579734416562133e-06 -3.626113084465032443e-06
7.440000000000000000e+02 5.425634384155273438e+00 1.865583896636962891e+00 -2.623267391754779965e-06 -6.066832156648160890e-06 -2.607029955470352434e-06 5.319215233612339944e-06
7.450000000000000000e+02 4.700726032257080078e+00 1.873748779296875000e+00 2.237510898339678533e-06 6.229376595001667738e-06 2.540066361689241603e-06 -5.186383532418403774e-06
7.460000000000000000e+02 3.976446390151977539e+00 1.883840441703796387e+00 -3.281233603047439829e-06 -6.361778105201665312e-06 -2.892903466999996454e-06 6.232871783140581101e-06
7.470000000000000000e+02 3.256494998931884766e+00 1.890163898468017578e+00 8.956835699791554362e-06 3.728983983819489367e-06 3.805746018770150840e-06 -6.642439075221773237e-06
7.480000000000000000e+02 2.547484159469604492e+00 1.888031363487243652e+00 -1.574870293552521616e-05 2.598619630589382723e-07 -4.646652087103575468e-06 3.495981104606471490e-07
7.490000000000000000e+02 1.845407247543334961e+00 1.887426376342773438e+00 1.014481222227914259e-05 1.296969685427029617e-06 3.432534640523954295e-06 6.941213541722390801e-06
7.500000000000000000e+02 1.281434440612792969e+01 1.416181445121765137e+00 -2.248039891128428280e-06 -1.987815494430833496e-06 -1.270756683879881166e-06 -1.725120796436385717e-06
7.510000000000000000e+02 1.355415344238281250e+01 1.317919135093688965e+00 2.584396042948355898e-06 1.868006165750557557e-06 1.335720639872306492e-06 1.378640490656835027e-06
7.520000000000000000e+02 1.499935626983642578e+01 1.153121948242187500e+00 1.963894874279503711e-06 1.424105903424788266e-06 1.016400233311287593e-06 9.298311169914086349e-07
7.530000000000000000e+02 1.572333145141601562e+01 1.081255793571472168e+00 -1.999358119064709172e-06 -9.712149449114804156e-07 -8.911719646675919648e-07 -8.355688123629079200e-07
7.540000000000000000e+02 1.644677352905273438e+01 1.034482002258300781e+00 2.436845079500926659e-06 3.352509452270169277e-07 8.316287676279898733e-07 2.830580569934681989e-07
7.550000000000000000e+02 1.785959815979003906e+01 9.400615096092224121e-01 3.946323658965411596e-07 4.530664199364764499e-08 1.319816931300010765e-07 2.065621202973488835e-07
7.560000000000000000e+02 1.854789924621582031e+01 8.958523869514465332e-01 -1.622508079890394583e-06 6.548447686327563133e-07 -2.902989990616333671e-07 -3.481196415577869629e-07
7.570000000000000000e+02 1.991760826110839844e+01 9.481475949287414551e-01 -8.678119911564863287e-07 -9.845390422924538143e-07 -5.557052986659982707e-07 9.616238685339340009e-07
7.580000000000000000e+02 2.056451416015625000e+01 9.524954557418823242e-01 -1.388138031188645982e-07 2.101593736369977705e-06 5.888339842385903466e-07 -5.947550221208075527e-07
7.590000000000000000e+02 2.099613952636718750e+01 1.938560247421264648e+00 -1.232363956660265103e-06 -2.324679144294350408e-06 -1.067112862074282020e-06 -5.419181903221215180e-08
7.600000000000000000e+02 2.112546730041503906e+01 1.044451951980590820e+00 -2.425059619781677611e-07 -3.222421355530968867e-06 -1.039478206621424761e-06 1.238212377074887627e-07
7.610000000000000000e+02 2.227548980712890625e+01 1.618550777435302734e+00 -1.243717520083009731e-06 -1.224618813466804568e-06 -7.405009228023118339e-07 -1.008783897304965649e-06
7.620000000000000000e+02 1.923638534545898438e+01 9.130746126174926758e-01 2.247634483865112998e-06 -4.155319004439661512e-07 5.496307835528568830e-07 -6.391566671481996309e-07
7.630000000000000000e+02 1.848268890380859375e+01 5.280430316925048828e+00 -2.008280944210127927e-06 3.894249857694376260e-06 5.657906285705394112e-07 3.085790694967727177e-06
7.640000000000000000e+02 1.871887588500976562e+01 7.766279697418212891e+00 -6.974739335419144481e-06 -1.551346258565899916e-06 -2.557825609983410686e-06 -4.497142526815878227e-06
7.650000000000000000e+02 1.768620300292968750e+01 1.029804229736328125e+01 -1.808061642805114388e-05 -2.397404614384868182e-06 -6.143406153569230810e-06 -6.974267307668924332e-06
7.660000000000000000e+02 1.594030284881591797e+01 1.557289123535156250e+01 -3.855664908769540489e-05 -2.968807166325859725e-06 -1.245763633050955832e-05 -7.838399142201524228e-06
7.670000000000000000e+02 1.526694774627685547e+01 1.972294807434082031e+01 4.134426126256585121e-05 -7.009248747635865584e-06 1.030050316330743954e-05 1.674079612712375820e-06
7.680000000000000000e+02 1.523203086853027344e+01 2.112740516662597656e+01 -4.399618410388939083e-05 -1.022144806483993307e-05 -1.626529046916402876e-05 -1.969512823052355088e-06
7.690000000000000000e+02 1.531744194030761719e+01 2.394116783142089844e+01 -5.269635221338830888e-05 2.151263515770551749e-06 -1.516352676844689995e-05 6.411148206098005176e-06
7.700000000000000000e+02 1.653152465820312500e+01 3.155648422241210938e+01 -2.644776250235736370e-04 1.183295171358622611e-04 -4.384443673188798130e-05 -7.854607247281819582e-05
7.710000000000000000e+02 1.770212173461914062e+01 3.079165077209472656e+01 6.571097183041274548e-04 2.344914682907983661e-04 2.674803545232862234e-04 1.422409259248524904e-04
7.720000000000000000e+02 2.014539146423339844e+01 3.389332199096679688e+01 -8.318790933117270470e-04 4.059184284415096045e-04 -1.277881819987669587e-04 1.233141170814633369e-03
7.730000000000000000e+02 2.223843193054199219e+01 3.575793457031250000e+01 -2.795657841488718987e-03 -2.665073261596262455e-04 -9.186495444737374783e-04 2.664973028004169464e-03
7.740000000000000000e+02 2.532796478271484375e+01 3.703330993652343750e+01 -3.994809929281473160e-03 -9.341434575617313385e-03 -4.000873304903507233e-03 5.400430411100387573e-03
7.750000000000000000e+02 2.677062225341796875e+01 3.714992904663085938e+01 -2.784386090934276581e-02 4.672131501138210297e-03 -6.951518822461366653e-03 1.076781656593084335e-02
7.760000000000000000e+02 2.826440811157226562e+01 3.739859771728515625e+01 -5.919104069471359253e-02 -4.075031727552413940e-03 -1.897982135415077209e-02 1.453735493123531342e-02
7.770000000000000000e+02 3.098786735534667969e+01 3.708820343017578125e+01 -1.106010675430297852e-01 1.242375001311302185e-02 -2.945319563150405884e-02 1.828058063983917236e-02
7.780000000000000000e+02 3.793666839599609375e+01 3.431738662719726562e+01 2.727071642875671387e-01 5.355413556098937988e-01 2.424745559692382812e-01 -3.657824695110321045e-01
7.790000000000000000e+02 4.009138488769531250e+01 3.223032760620117188e+01 4.726418554782867432e-01 1.714196801185607910e+00 6.560515761375427246e-01 -7.424046397209167480e-01
7.800000000000000000e+02 4.285118103027343750e+01 2.651659584045410156e+01 1.895661354064941406e-01 2.674268245697021484e+00 8.591503500938415527e-01 -1.871629804372787476e-01
7.810000000000000000e+02 4.166321945190429688e+01 2.363941764831542969e+01 1.219382509589195251e-02 2.848255157470703125e+00 8.581346869468688965e-01 1.731275953352451324e-02
7.820000000000000000e+02 4.168260192871093750e+01 2.081234359741210938e+01 2.106879092752933502e-02 3.063253402709960938e+00 9.252966642379760742e-01 8.605407178401947021e-02
7.830000000000000000e+02 4.167606735229492188e+01 1.939366722106933594e+01 1.719012111425399780e-02 3.283460140228271484e+00 9.901950955390930176e-01 1.267313510179519653e-01
7.840000000000000000e+02 4.285102844238281250e+01 1.643614578247070312e+01 3.333915174007415771e-01 3.522892951965332031e+00 1.156885385513305664e+00 6.880112886428833008e-01
7.850000000000000000e+02 4.158375549316406250e+01 1.654629135131835938e+01 1.043514236807823181e-01 4.070851325988769531e+00 1.252560734748840332e+00 4.142809212207794189e-01
7.860000000000000000e+02 4.074820327758789062e+01 1.087602043151855469e+01 5.190855860710144043e-01 6.336329460144042969e+00 2.056624650955200195e+00 1.651326179504394531e+00
7.870000000000000000e+02 3.745471572875976562e+01 2.935804605484008789e+00 3.845440149307250977e+00 8.028447151184082031e+00 3.562166213989257812e+00 5.262823581695556641e+00
7.880000000000000000e+02 3.649556350708007812e+01 1.824783802032470703e+00 3.916380405426025391e+00 6.423471450805664062e+00 3.101955652236938477e+00 4.779870033264160156e+00
7.890000000000000000e+02 3.544484710693359375e+01 7.833605408668518066e-01 3.812820672988891602e+00 4.681658267974853516e+00 2.548343658447265625e+00 3.941560029983520508e+00
7.900000000000000000e+02 3.045410728454589844e+01 -2.585430145263671875e+00 -5.477750778198242188e+00 1.954454541206359863e+00 -1.056988954544067383e+00 1.315946102142333984e+00
7.910000000000000000e+02 2.793463897705078125e+01 -2.349452972412109375e+00 -6.837036609649658203e+00 -7.491942048072814941e-01 -2.275869369506835938e+00 -1.381554365158081055e+00
7.920000000000000000e+02 2.273890495300292969e+01 -2.343719244003295898e+00 -8.636410236358642578e-01 7.661609351634979248e-02 -2.361074686050415039e-01 -4.360361099243164062e-01
7.930000000000000000e+02 2.189437675476074219e+01 -2.512763023376464844e+00 -6.123415231704711914e-01 -4.524051398038864136e-02 -1.972746104001998901e-01 -3.880121409893035889e-01
7.940000000000000000e+02 1.862782096862792969e+01 -2.802836418151855469e+00 -2.386971116065979004e-01 -9.479434043169021606e-02 -1.000474393367767334e-01 -1.962198615074157715e-01
7.950000000000000000e+02 2.026175308227539062e+01 -2.702696561813354492e+00 -3.664157390594482422e-01 -1.206722259521484375e-01 -1.461263895034790039e-01 -3.110773265361785889e-01
7.960000000000000000e+02 1.702737045288085938e+01 -2.748972654342651367e+00 -1.763271689414978027e-01 -5.033555999398231506e-02 -6.799881905317306519e-02 -9.702487289905548096e-02
7.970000000000000000e+02 1.544104099273681641e+01 -2.644317626953125000e+00 -1.345009356737136841e-01 -2.552963420748710632e-02 -4.800917208194732666e-02 -2.984292432665824890e-02
7.980000000000000000e+02 1.238729572296142578e+01 -2.263662576675415039e+00 -1.128945946693420410e-01 2.293362515047192574e-03 -3.318037092685699463e-02 1.044971309602260590e-02
7.990000000000000000e+02 1.313294696807861328e+01 -2.365356206893920898e+00 -1.166762858629226685e-01 -9.718398563563823700e-03 -3.791840374469757080e-02 3.310098545625805855e-03
8.000000000000000000e+02 1.166227149963378906e+01 -2.155556678771972656e+00 -1.134308725595474243e-01 2.847435418516397476e-03 -3.317502886056900024e-02 4.540093243122100830e-03
8.010000000000000000e+02 9.458860397338867188e+00 -1.885779380798339844e+00 -1.072202920913696289e-01 1.560112740844488144e-02 -2.748574875295162201e-02 -4.263685084879398346e-03
8.020000000000000000e+02 8.657716751098632812e+00 -1.869861841201782227e+00 -1.026576533913612366e-01 1.213294081389904022e-02 -2.715741470456123352e-02 -1.202164497226476669e-02
8.030000000000000000e+02 7.849200248718261719e+00 -1.863884210586547852e+00 -9.423431754112243652e-02 1.229039207100868225e-02 -2.458317764103412628e-02 -1.892293803393840790e-02
8.040000000000000000e+02 6.227802276611328125e+00 -1.863358616828918457e+00 -7.624720036983489990e-02 7.544007617980241776e-03 -2.061095833778381348e-02 -3.222807869315147400e-02
8.050000000000000000e+02 4.606080532073974609e+00 -1.886622905731201172e+00 -5.313491076231002808e-02 1.524786814115941525e-03 -1.548303756862878799e-02 -3.753364831209182739e-02
8.060000000000000000e+02 2.979064226150512695e+00 -1.987137794494628906e+00 -2.888845838606357574e-02 -7.645368576049804688e-03 -1.096014864742755890e-02 -3.320430964231491089e-02
8.070000000000000000e+02 3.232492685317993164e+00 -2.912444829940795898e+00 -3.073500841856002808e-02 -1.502012461423873901e-02 -1.372653990983963013e-02 -4.691370204091072083e-02
8.080000000000000000e+02 2.160276174545288086e+00 -2.076017141342163086e+00 -1.721196621656417847e-02 -1.667515374720096588e-02 -1.016613561660051346e-02 -2.676364220678806305e-02
8.090000000000000000e+02 1.326722502708435059e+00 -2.169881343841552734e+00 -7.395777385681867599e-03 -1.730421185493469238e-02 -7.409996818751096725e-03 -1.551273278892040253e-02
8.100000000000000000e+02 4.525071084499359131e-01 -2.210410356521606445e+00 -1.830770866945385933e-03 -1.125840656459331512e-02 -3.926753066480159760e-03 -5.931027233600616455e-03
8.110000000000000000e+02 2.097871303558349609e+00 -4.160218429565429688e+01 5.886448547244071960e-02 6.694249510765075684e-01 2.184868305921554565e-01 -1.674660854041576385e-02
8.120000000000000000e+02 1.103053808212280273e+00 -3.857569885253906250e+01 9.532819967716932297e-05 7.467445135116577148e-01 2.240519523620605469e-01 -4.146693646907806396e-02
8.130000000000000000e+02 5.857235193252563477e-01 -3.462677764892578125e+01 -1.052111387252807617e-02 9.262635707855224609e-01 2.747227549552917480e-01 -1.917058974504470825e-02
8.140000000000000000e+02 6.204533576965332031e-01 -3.327172470092773438e+01 -1.172481686808168888e-03 9.559382796287536621e-01 2.864297330379486084e-01 -4.390823189169168472e-03
8.150000000000000000e+02 4.628866672515869141e+00 -2.999485778808593750e+01 -2.274255305528640747e-01 3.255681693553924561e-01 2.944279275834560394e-02 1.630577743053436279e-01
8.160000000000000000e+02 1.939963698387145996e+00 -2.763420677185058594e+01 -6.320009380578994751e-02 5.057824850082397461e-01 1.327747106552124023e-01 2.692214250564575195e-01
8.170000000000000000e+02 6.354635953903198242e-01 -2.624174499511718750e+01 -3.396637912373989820e-04 3.340603411197662354e-01 1.001162081956863403e-01 1.280430406332015991e-01
8.180000000000000000e+02 5.892693519592285156e+00 -2.499455833435058594e+01 -7.379343267530202866e-03 6.893626451492309570e-01 2.045949995517730713e-01 1.584402918815612793e-01
8.190000000000000000e+02 1.675841331481933594e+00 -2.214465713500976562e+01 6.051473692059516907e-02 -1.843198686838150024e-01 -3.714153915643692017e-02 2.732860743999481201e-01
8.200000000000000000e+02 6.827027797698974609e+00 -1.952178573608398438e+01 3.426657915115356445e-01 1.614829540252685547e+00 5.872486233711242676e-01 6.789919734001159668e-01
8.210000000000000000e+02 5.644529461860656738e-01 -2.204891967773437500e+01 1.241640094667673111e-02 -5.661175251007080078e-01 -1.661103367805480957e-01 9.631980955600738525e-02
8.220000000000000000e+02 6.292768120765686035e-01 -1.639136695861816406e+01 9.789237752556800842e-03 -8.359987139701843262e-01 -2.478628456592559814e-01 -3.031377680599689484e-02
8.230000000000000000e+02 6.153531670570373535e-01 -1.497098636627197266e+01 6.386148743331432343e-03 -7.452005743980407715e-01 -2.216443270444869995e-01 -4.834255203604698181e-02
8.240000000000000000e+02 5.971721410751342773e-01 -1.355783939361572266e+01 -2.675419906154274940e-03 -6.271977424621582031e-01 -1.889619380235671997e-01 -5.208931118249893188e-02
8.250000000000000000e+02 1.793154001235961914e+00 -1.361906147003173828e+01 -1.316242967732250690e-03 -3.691104948520660400e-01 -1.111280173063278198e-01 -1.305694729089736938e-01
8.260000000000000000e+02 5.467672944068908691e-01 -9.366847038269042969e+00 -1.655575120821595192e-03 -2.933084368705749512e-01 -8.848920464515686035e-02 -3.582173213362693787e-02
8.270000000000000000e+02 5.420377850532531738e-01 -7.977878570556640625e+00 -2.765410812571644783e-03 -2.080624401569366455e-01 -6.324835866689682007e-02 -2.982845716178417206e-02
8.280000000000000000e+02 4.002389907836914062e+00 -2.739914894104003906e+00 -4.182958602905273438e-02 -3.576299408450722694e-03 -1.362176518887281418e-02 -4.867190122604370117e-02
8.290000000000000000e+02 4.255540370941162109e+00 -3.477241277694702148e+00 -4.226469248533248901e-02 -5.494911689311265945e-03 -1.432788092643022537e-02 -5.780185014009475708e-02
8.300000000000000000e+02 7.096046447753906250e+01 -3.875541305541992188e+01 3.906534053385257721e-03 -2.198014408349990845e-03 5.125558818690478802e-04 4.485622514039278030e-03
8.310000000000000000e+02 5.178385543823242188e+01 -4.093688583374023438e+01 -2.832865342497825623e-02 2.457051575183868408e-01 6.521295011043548584e-02 -2.341305650770664215e-02
8.320000000000000000e+02 3.365715026855468750e+01 -3.824390411376953125e+01 -2.873933911323547363e-01 6.577287912368774414e-01 1.111006215214729309e-01 7.853261381387710571e-02
8.330000000000000000e+02 9.318132400512695312e+00 -3.883778762817382812e+01 3.303896635770797729e-02 2.363127568969503045e-04 9.982583113014698029e-03 1.213091332465410233e-02
8.340000000000000000e+02 7.966899871826171875e+01 -1.544703769683837891e+01 -3.184109227731823921e-04 -6.667929847026243806e-05 -1.155270656454376876e-04 1.784923733794130385e-05
8.350000000000000000e+02 7.835067749023437500e+01 -1.531790161132812500e+01 -5.748939656768925488e-05 -5.848817818332463503e-05 -3.479327278910204768e-05 -4.332342723500914872e-05
8.360000000000000000e+02 7.705130767822265625e+01 -1.618329238891601562e+01 3.317515802336856723e-05 1.214219446410425007e-04 4.637912934413179755e-05 -9.370612679049372673e-05
8.370000000000000000e+02 7.698527526855468750e+01 -1.799909210205078125e+01 4.551627716864459217e-05 6.686834967695176601e-05 3.371538696228526533e-05 -7.553453178843483329e-05
8.380000000000000000e+02 7.945112609863281250e+01 -2.234659957885742188e+01 3.569672990124672651e-04 1.722561428323388100e-04 1.587670412845909595e-04 -3.466924681561067700e-05
8.390000000000000000e+02 7.813060760498046875e+01 -2.499772834777832031e+01 -3.808163164649158716e-04 8.560907735954970121e-05 -8.856217027641832829e-05 -1.314244145760312676e-04
8.400000000000000000e+02 7.937564086914062500e+01 -2.512182998657226562e+01 2.654591517057269812e-04 2.864815760403871536e-04 1.655822125030681491e-04 8.815096407488454133e-06
8.410000000000000000e+02 7.932232666015625000e+01 -2.931554603576660156e+01 -1.108139404095709324e-04 -9.733779734233394265e-05 -6.244552059797570109e-05 1.151139076682738960e-04
8.420000000000000000e+02 7.794793701171875000e+01 -3.206844329833984375e+01 -9.837949619395658374e-05 -1.090156496502459049e-03 -3.565608058124780655e-04 9.966220241039991379e-04
8.430000000000000000e+02 7.931791687011718750e+01 -3.208895111083984375e+01 -2.625135311973281205e-05 -1.146850641816854477e-03 -3.519306192174553871e-04 3.258187789469957352e-04
8.440000000000000000e+02 7.936282348632812500e+01 -3.619152832031250000e+01 1.846513478085398674e-04 -3.520103404298424721e-03 -1.000635558739304543e-03 3.448520728852599859e-04
8.450000000000000000e+02 7.811006927490234375e+01 -3.612262344360351562e+01 -5.034432979300618172e-05 -3.130826633423566818e-03 -9.543512715026736259e-04 1.112970639951527119e-03
8.460000000000000000e+02 7.931818389892578125e+01 -3.751299285888671875e+01 -1.528512075310572982e-04 -4.287636838853359222e-03 -1.332146464847028255e-03 3.292587061878293753e-04
8.470000000000000000e+02 7.877307128906250000e+01 -4.013389968872070312e+01 -1.022812648443505168e-04 -5.252944771200418472e-03 -1.606567879207432270e-03 2.864308480639010668e-04
8.480000000000000000e+02 7.900882720947265625e+01 -1.537201786041259766e+01 4.607764640240930021e-05 1.127532377722673118e-04 4.764926416100934148e-05 3.816443131654523313e-05
8.490000000000000000e+02 7.832262420654296875e+01 -1.622898292541503906e+01 2.094570663757622242e-04 2.384778053965419531e-05 6.999145261943340302e-05 5.335322566679678857e-05
8.500000000000000000e+02 7.769497680664062500e+01 -1.530709552764892578e+01 6.169467087602242827e-05 6.636168836848810315e-05 3.841690704575739801e-05 -4.285321483621373773e-05
8.510000000000000000e+02 7.703851318359375000e+01 -1.530704212188720703e+01 3.381499482202343643e-06 -9.926615894073620439e-05 -2.876539838325697929e-05 6.167526589706540108e-05
8.520000000000000000e+02 7.637552642822265625e+01 -1.530880069732666016e+01 1.877909744507633150e-05 1.031977953971363604e-04 3.659306821646168828e-05 -5.510210758075118065e-05
8.530000000000000000e+02 7.353184509277343750e+01 -1.544970226287841797e+01 1.059942151186987758e-04 7.960219954838976264e-05 5.567892367253080010e-05 5.294185393722727895e-05
8.540000000000000000e+02 7.424629974365234375e+01 -1.539773941040039062e+01 -5.423997572506777942e-05 -9.822881838772445917e-05 -4.574063859763555229e-05 -5.208685615798458457e-05
8.550000000000000000e+02 7.223260498046875000e+01 -1.641371345520019531e+01 -6.713046605000272393e-05 -1.154996207333169878e-04 -5.478902676259167492e-05 -5.297721145325340331e-05
8.560000000000000000e+02 7.065605163574218750e+01 -1.587890625000000000e+01 9.864872117759659886e-05 4.174587957095354795e-05 4.211837949696928263e-05 7.650065526831895113e-05
8.570000000000000000e+02 6.883835601806640625e+01 -1.811396789550781250e+01 1.352103863609954715e-04 2.134952046617399901e-05 4.696796895586885512e-05 -1.405588045599870384e-05
8.580000000000000000e+02 6.993653869628906250e+01 -1.602123260498046875e+01 -1.121454406529664993e-04 1.669153971306513995e-05 -2.863616828108206391e-05 -1.742928907333407551e-05
8.590000000000000000e+02 7.292823791503906250e+01 -1.631108474731445312e+01 1.289589563384652138e-04 8.444672130281105638e-05 6.402170401997864246e-05 6.230694270925596356e-05
8.600000000000000000e+02 6.880468750000000000e+01 -2.079727935791015625e+01 1.677201653365045786e-04 1.138914376497268677e-04 8.448347944067791104e-05 1.160424517365754582e-06
8.610000000000000000e+02 6.883805847167968750e+01 -2.220662307739257812e+01 -1.296041591558605433e-04 2.246687508886680007e-04 2.851937642844859511e-05 8.231548417825251818e-05
8.620000000000000000e+02 6.884741210937500000e+01 -2.365689468383789062e+01 1.600298855919390917e-04 3.993919526692479849e-04 1.678265543887391686e-04 7.589894084958359599e-05
8.630000000000000000e+02 6.751593017578125000e+01 -2.782470703125000000e+01 -1.249586464837193489e-03 -2.917410165537148714e-04 -4.623982531484216452e-04 -5.173860117793083191e-04
8.640000000000000000e+02 6.570069885253906250e+01 -3.010782051086425781e+01 -8.781117387115955353e-03 -1.947081647813320160e-03 -3.218459663912653923e-03 -3.221057821065187454e-03
8.650000000000000000e+02 6.333459472656250000e+01 -3.180618095397949219e+01 -2.718503586947917938e-02 -3.712102770805358887e-03 -9.269141592085361481e-03 -6.578248459845781326e-03
8.660000000000000000e+02 5.359741973876953125e+01 -2.960579109191894531e+01 7.103201467543840408e-03 2.625852450728416443e-02 1.000851765275001526e-02 -2.074954658746719360e-02
8.670000000000000000e+02 5.062903594970703125e+01 -2.654526519775390625e+01 3.480194136500358582e-02 3.121758997440338135e-02 1.980585977435112000e-02 -2.600137516856193542e-02
8.680000000000000000e+02 4.967580032348632812e+01 -2.550445175170898438e+01 2.419022284448146820e-02 1.476479228585958481e-02 1.168650388717651367e-02 -3.155288845300674438e-02
8.690000000000000000e+02 4.671578598022460938e+01 -2.246073913574218750e+01 1.389504317194223404e-02 -1.429478265345096588e-02 -1.199218240799382329e-04 1.358625758439302444e-02
8.700000000000000000e+02 4.571291351318359375e+01 -2.145178985595703125e+01 -1.598097570240497589e-02 -2.424957603216171265e-02 -1.206916570663452148e-02 1.407002098858356476e-02
8.710000000000000000e+02 4.472455215454101562e+01 -2.043321037292480469e+01 -1.383724063634872437e-02 -2.139145042747259140e-03 -4.792915657162666321e-03 2.622005902230739594e-02
8.720000000000000000e+02 4.166220855712890625e+01 -1.396446609497070312e+01 2.527959644794464111e-02 7.882572412490844727e-01 2.440610527992248535e-01 -1.359110921621322632e-01
8.730000000000000000e+02 4.047698593139648438e+01 -1.001217651367187500e+01 9.687069803476333618e-02 2.230413556098937988e-01 9.597361832857131958e-02 -1.935915499925613403e-01
8.740000000000000000e+02 4.004708099365234375e+01 -9.118346214294433594e+00 1.457676887512207031e-01 1.365041583776473999e-01 8.468155562877655029e-02 -1.686615645885467529e-01
8.750000000000000000e+02 4.061307907104492188e+01 -9.192934989929199219e+00 8.730848133563995361e-02 1.178044602274894714e-01 6.153388321399688721e-02 -1.106566339731216431e-01
8.760000000000000000e+02 3.707408523559570312e+01 -8.845650672912597656e+00 5.988416671752929688e-01 2.770473062992095947e-01 2.627666890621185303e-01 -5.606505274772644043e-01
8.770000000000000000e+02 3.480837249755859375e+01 -8.435104370117187500e+00 1.220151543617248535e+00 4.969495534896850586e-01 5.151303410530090332e-01 -9.511448740959167480e-01
8.780000000000000000e+02 3.308067321777343750e+01 -7.967572689056396484e+00 2.034703731536865234e+00 1.270017385482788086e+00 9.914162755012512207e-01 -1.622994303703308105e+00
8.790000000000000000e+02 3.272762298583984375e+01 -7.761456966400146484e+00 2.224674463272094727e+00 1.637486815452575684e+00 1.158648371696472168e+00 -1.828450798988342285e+00
8.800000000000000000e+02 3.189298057556152344e+01 -7.557948589324951172e+00 2.248893260955810547e+00 3.481675386428833008e+00 1.719170570373535156e+00 -2.352685928344726562e+00
8.810000000000000000e+02 3.074463272094726562e+01 -7.412791728973388672e+00 1.428079605102539062e+00 7.353501796722412109e+00 2.634474277496337891e+00 -6.020382046699523926e-01
8.820000000000000000e+02 3.214019775390625000e+01 -4.294035911560058594e+00 2.630900382995605469e+00 2.623281478881835938e+00 1.576254606246948242e+00 5.714368820190429688e+00
8.830000000000000000e+02 3.231697463989257812e+01 -4.156584739685058594e+00 1.926738262176513672e+00 2.238986253738403320e+00 1.249717354774475098e+00 5.490835189819335938e+00
8.840000000000000000e+02 3.246323013305664062e+01 -4.141244411468505859e+00 1.845791339874267578e+00 2.061673641204833984e+00 1.172239422798156738e+00 5.305990219116210938e+00
8.850000000000000000e+02 3.249523162841796875e+01 -4.349996089935302734e+00 2.534316062927246094e+00 1.464287757873535156e+00 1.199581146240234375e+00 5.066876888275146484e+00
8.860000000000000000e+02 3.309851074218750000e+01 -4.390608787536621094e+00 1.658913731575012207e+00 7.955552935600280762e-01 7.363407015800476074e-01 3.988993883132934570e+00
8.870000000000000000e+02 3.288872528076171875e+01 -4.342646121978759766e+00 1.970930814743041992e+00 8.390027284622192383e-01 8.429800868034362793e-01 4.309787273406982422e+00
8.880000000000000000e+02 3.368732452392578125e+01 -4.579843521118164062e+00 7.418059110641479492e-01 3.284314870834350586e-01 3.210712373256683350e-01 2.735572099685668945e+00
8.890000000000000000e+02 3.410511779785156250e+01 -4.654392719268798828e+00 1.918889731168746948e-01 3.662664592266082764e-01 1.674466282129287720e-01 2.333220720291137695e+00
8.900000000000000000e+02 3.434984970092773438e+01 -4.697833061218261719e+00 6.873226724565029144e-03 3.942160308361053467e-01 1.203267797827720642e-01 2.137490510940551758e+00
8.910000000000000000e+02 3.479861068725585938e+01 -4.773064613342285156e+00 -5.864596962928771973e-01 3.943069279193878174e-01 -5.764582380652427673e-02 1.662569880485534668e+00
8.920000000000000000e+02 3.686194992065429688e+01 -5.065024375915527344e+00 -1.670963406562805176e+00 6.907355189323425293e-01 -2.940683662891387939e-01 1.464067995548248291e-01
8.930000000000000000e+02 3.835443496704101562e+01 -4.512434482574462891e+00 -1.665776371955871582e+00 8.712855577468872070e-01 -2.383472621440887451e-01 -7.247813940048217773e-01
8.940000000000000000e+02 4.139954376220703125e+01 -5.506848812103271484e+00 -5.005652308464050293e-01 -4.834975600242614746e-01 -2.952188551425933838e-01 -7.392222881317138672e-01
8.950000000000000000e+02 1.427688884735107422e+01 -1.634054183959960938e+01 1.236889213323593140e-01 -4.822640866041183472e-02 2.263875491917133331e-02 1.218501478433609009e-01
8.960000000000000000e+02 1.959274291992187500e+01 -1.723542022705078125e+01 -4.190083146095275879e-01 -4.128379747271537781e-02 -1.380876302719116211e-01 2.738305032253265381e-01
8.970000000000000000e+02 1.928839111328125000e+01 -1.836245918273925781e+01 -5.265602469444274902e-01 -3.311480954289436340e-02 -1.679025143384933472e-01 1.899288296699523926e-01
8.980000000000000000e+02 2.184823417663574219e+01 -1.875242042541503906e+01 -8.272376060485839844e-01 2.323843725025653839e-02 -2.411997616291046143e-01 1.013285294175148010e-01
8.990000000000000000e+02 2.425810623168945312e+01 -1.758211517333984375e+01 -1.180639266967773438e+00 1.202024742960929871e-01 -3.181310296058654785e-01 2.272663116455078125e-01
9.000000000000000000e+02 2.201971244812011719e+01 -1.656457901000976562e+01 -5.764049887657165527e-01 2.852297760546207428e-02 -1.643646061420440674e-01 4.291906058788299561e-01
9.010000000000000000e+02 2.829911613464355469e+01 -1.791674232482910156e+01 -2.529727458953857422e+00 1.693212613463401794e-02 -7.538386583328247070e-01 -2.810157835483551025e-01
9.020000000000000000e+02 3.249041748046875000e+01 -2.928011512756347656e+01 2.902137339115142822e-01 6.902633309364318848e-01 2.941431105136871338e-01 4.519007503986358643e-01
9.030000000000000000e+02 2.678944587707519531e+01 -3.147365379333496094e+01 -2.935051918029785156e-01 9.264376014471054077e-03 -8.527224510908126831e-02 -2.093180781230330467e-03
9.040000000000000000e+02 2.276354598999023438e+01 -3.173906707763671875e+01 -3.491059541702270508e-01 -7.053073961287736893e-03 -1.068477109074592590e-01 -2.397175319492816925e-02
9.050000000000000000e+02 2.403366088867187500e+01 -3.299978256225585938e+01 -2.676540315151214600e-01 8.620515465736389160e-03 -7.771005481481552124e-02 6.100285099819302559e-04
9.060000000000000000e+02 2.142229652404785156e+01 -3.184528732299804688e+01 -3.543951809406280518e-01 -3.438508836552500725e-03 -1.073501110076904297e-01 -1.684004068374633789e-02
9.070000000000000000e+02 2.015782165527343750e+01 -3.345985794067382812e+01 -3.003086149692535400e-01 -2.051353454589843750e-02 -9.624665230512619019e-02 7.583940867334604263e-03
9.080000000000000000e+02 1.750795936584472656e+01 -3.349246215820312500e+01 -3.240311741828918457e-01 -5.108572542667388916e-02 -1.125350669026374817e-01 6.516003608703613281e-02
9.090000000000000000e+02 1.179979705810546875e+01 -3.123467254638671875e+01 -6.177289485931396484e-01 -7.766520231962203979e-02 -2.086182534694671631e-01 1.909126043319702148e-01
9.100000000000000000e+02 1.283912563323974609e+01 -1.606342315673828125e+01 4.764321148395538330e-01 -1.493196189403533936e-02 1.384500414133071899e-01 1.219255551695823669e-01
9.110000000000000000e+02 3.268222808837890625e+01 -4.354953289031982422e+00 2.250828027725219727e+00 1.273487567901611328e+00 1.057294726371765137e+00 4.723632812500000000e+00
9.120000000000000000e+02 3.028200721740722656e+01 -1.728494644165039062e+00 -1.006046867370605469e+01 1.031686291098594666e-01 -2.987190008163452148e+00 -1.215579509735107422e+00
9.130000000000000000e+02 3.371593856811523438e+01 -4.209505558013916016e+00 7.134372591972351074e-01 8.025792241096496582e-01 4.548049271106719971e-01 3.414749860763549805e+00
9.140000000000000000e+02 3.456602478027343750e+01 -4.233445167541503906e+00 -2.353480607271194458e-01 7.328638434410095215e-01 1.492547392845153809e-01 2.312303543090820312e+00
9.150000000000000000e+02 3.423912429809570312e+01 -4.240033626556396484e+00 7.253725081682205200e-02 8.325812816619873047e-01 2.715355753898620605e-01 2.691384553909301758e+00
9.160000000000000000e+02 3.199068450927734375e+01 -4.229637622833251953e+00 2.317107200622558594e+00 3.338961839675903320e+00 1.696820735931396484e+00 6.029891490936279297e+00
9.170000000000000000e+02 3.291627502441406250e+01 -8.040785789489746094e-01 -1.697881966829299927e-01 1.519086003303527832e+00 4.047893285751342773e-01 1.307385802268981934e+00
9.180000000000000000e+02 3.330778503417968750e+01 -4.442177772521972656e+00 1.340437293052673340e+00 4.972727894783020020e-01 5.513130426406860352e-01 3.488801717758178711e+00
9.190000000000000000e+02 3.615753936767578125e+01 -4.965613842010498047e+00 -1.469155311584472656e+00 5.556566119194030762e-01 -2.740496397018432617e-01 5.601203441619873047e-01
9.200000000000000000e+02 3.305072021484375000e+01 -3.695113420486450195e+00 5.357381701469421387e-01 1.631698250770568848e+00 6.502309441566467285e-01 4.531063079833984375e+00
9.210000000000000000e+02 3.168714332580566406e+01 -7.791708946228027344e+00 1.818070888519287109e+00 4.126104354858398438e+00 1.783252596855163574e+00 -2.094372034072875977e+00
9.220000000000000000e+02 3.290047454833984375e+01 -7.825455665588378906e+00 2.149026393890380859e+00 1.429262757301330566e+00 1.073486685752868652e+00 -1.716783046722412109e+00
9.230000000000000000e+02 3.330824279785156250e+01 -8.057732582092285156e+00 1.904080986976623535e+00 1.150483846664428711e+00 9.163694977760314941e-01 -1.523198843002319336e+00
9.240000000000000000e+02 3.252807617187500000e+01 -7.735721588134765625e+00 2.300264120101928711e+00 1.933960556983947754e+00 1.270267367362976074e+00 -1.975732803344726562e+00
9.250000000000000000e+02 3.156052970886230469e+01 -7.414952278137207031e+00 2.061703205108642578e+00 5.002182960510253906e+00 2.119165897369384766e+00 -2.356192588806152344e+00
9.260000000000000000e+02 3.027201080322265625e+01 -7.283174514770507812e+00 2.412934541702270508e+00 7.384854316711425781e+00 2.939336538314819336e+00 1.301955103874206543e+00
9.270000000000000000e+02 3.007814216613769531e+01 -7.949772834777832031e+00 1.638985037803649902e+00 5.340382575988769531e+00 2.093810319900512695e+00 8.147163391113281250e-01
9.280000000000000000e+02 7.568327331542968750e+01 -1.532248115539550781e+01 -1.324783625022973865e-05 -9.783596760826185346e-05 -3.332514097564853728e-05 -1.438457911717705429e-05
9.290000000000000000e+02 7.954193115234375000e+01 -1.816897583007812500e+01 -2.992983791045844555e-04 2.138714080501813442e-05 -8.337337203556671739e-05 3.886520062224008143e-05
9.300000000000000000e+02 7.569542694091796875e+01 -1.611686897277832031e+01 4.439260374056175351e-05 1.083426323020830750e-04 4.582057226798497140e-05 3.822903636319097131e-06
9.310000000000000000e+02 7.770396423339843750e+01 -1.621505165100097656e+01 -1.361945905955508351e-04 -6.223547825356945395e-05 -5.952902210992760956e-05 5.940021219430491328e-05
9.320000000000000000e+02 7.729619598388671875e+01 -7.388752460479736328e+00 -2.654599724337458611e-03 4.867304116487503052e-03 6.638113409280776978e-04 6.936852354556322098e-03
9.330000000000000000e+02 7.674903106689453125e+01 -1.146245193481445312e+01 4.415353294461965561e-03 7.526910630986094475e-04 1.550413318909704685e-03 6.418180186301469803e-03
9.340000000000000000e+02 7.946120452880859375e+01 -9.409446716308593750e+00 -6.827291217632591724e-04 1.138058584183454514e-02 3.209356917068362236e-03 2.977479714900255203e-03
9.350000000000000000e+02 7.841274261474609375e+01 -6.490545749664306641e+00 -1.924184150993824005e-03 1.419102400541305542e-02 3.680051770061254501e-03 4.491136409342288971e-03
9.360000000000000000e+02 7.947748565673828125e+01 -8.125108718872070312e+00 3.442301822360605001e-04 1.876211725175380707e-02 5.731904413551092148e-03 2.245479729026556015e-03
9.370000000000000000e+02 7.629959106445312500e+01 -1.062331104278564453e+01 5.312678869813680649e-03 4.039604100398719311e-04 1.714991754852235317e-03 7.894648239016532898e-03
9.380000000000000000e+02 4.116164779663085938e+01 -9.388743400573730469e+00 3.839072957634925842e-02 1.001946479082107544e-01 4.157561436295509338e-02 -6.527804583311080933e-02
9.390000000000000000e+02 3.865857315063476562e+01 -9.732477188110351562e+00 2.838897109031677246e-01 3.044615983963012695e-01 1.765054017305374146e-01 -4.332990646362304688e-01
9.400000000000000000e+02 2.030503082275390625e+01 4.128678321838378906e+00 3.401931394364510197e-07 1.194591874309480772e-07 1.378956966391342576e-07 2.164525625403257436e-07
9.410000000000000000e+02 2.148962211608886719e+01 2.557826519012451172e+00 1.470963297833804972e-06 2.873728590202517807e-06 1.303407543673529290e-06 1.196484163301647641e-06
9.420000000000000000e+02 1.914398384094238281e+01 3.152185440063476562e+00 -3.556605179255711846e-06 2.531681957407272421e-06 -3.074769381328223972e-07 1.096761593544215430e-06
9.430000000000000000e+02 1.763516998291015625e+01 7.662997722625732422e+00 1.261064312529924791e-06 3.391504151295521297e-06 1.395770482304214966e-06 8.540258932043798268e-06
9.440000000000000000e+02 1.998629379272460938e+01 1.590193986892700195e+00 3.251413716043316526e-07 -4.147741776705515804e-07 -2.688983968823777104e-08 -1.656525000726105645e-06
9.450000000000000000e+02 1.978904914855957031e+01 5.298848152160644531e+00 -9.147075843429774977e-07 -8.151800443556567188e-07 -5.189663170312996954e-07 -8.087988021543424111e-07
9.460000000000000000e+02 1.644929122924804688e+01 2.590753555297851562e+00 2.671128868314553984e-06 3.572047489797114395e-06 1.872952907433500513e-06 2.029770485023618676e-06
9.470000000000000000e+02 6.152705192565917969e+00 1.860657453536987305e+00 2.459013558109290898e-06 6.112516075518215075e-06 2.571458935562986881e-06 -4.861001798417419195e-06
9.480000000000000000e+02 9.863860130310058594e+00 2.489168643951416016e+00 1.184973598356009461e-06 3.243593027946189977e-06 1.328569965153292287e-06 6.963545615690236446e-07
9.490000000000000000e+02 7.646608829498291016e+00 2.557344913482666016e+00 -2.501639073670958169e-06 -4.822649771085707471e-06 -2.197286676164367236e-06 3.892034783348208293e-06
9.500000000000000000e+02 6.879532337188720703e+00 1.856631159782409668e+00 -2.258863105453201570e-06 -6.322064564301399514e-06 -2.574278369138482958e-06 4.567009455058723688e-06
9.510000000000000000e+02 6.919457435607910156e+00 2.570602893829345703e+00 2.664661451490246691e-06 4.667097073252080008e-06 2.199527443735860288e-06 -4.358949809102341533e-06
9.520000000000000000e+02 8.452693939208984375e+00 3.235209465026855469e+00 -5.003514615964377299e-07 -3.946901870222063735e-06 -1.334176090495020617e-06 2.272415713377995417e-06
9.530000000000000000e+02 6.364174842834472656e+00 4.066115856170654297e+00 -7.062420536385616288e-06 1.834220370255934540e-06 -1.568459992995485663e-06 5.712999154638964683e-06
9.540000000000000000e+02 1.643861770629882812e+00 7.726888179779052734e+00 -2.375756230321712792e-05 -6.103933628764934838e-06 -8.958448233897797763e-06 2.670071353350067511e-06
9.550000000000000000e+02 4.082547426223754883e-01 3.793306350708007812e+00 -4.150548920733854175e-05 -1.085047642845893279e-05 -1.570678978168871254e-05 -1.504423744336236268e-05
9.560000000000000000e+02 2.478550672531127930e+00 3.655720949172973633e+00 -2.494923137419391423e-05 -1.188539499707985669e-05 -1.105038791138213128e-05 1.185630935651715845e-05
9.570000000000000000e+02 7.155674099922180176e-01 3.039539813995361328e+00 2.928216235886793584e-05 5.776176749350270256e-06 1.051750132319284603e-05 2.141511140507645905e-05
9.580000000000000000e+02 1.130440235137939453e+01 1.650771856307983398e+00 -1.142355358751956373e-06 -2.697790478123351932e-06 -1.152043751062592492e-06 -9.573639090376673266e-07
9.590000000000000000e+02 9.191659927368164062e+00 3.200602531433105469e+00 -2.445257223371299915e-07 3.418119831621879712e-06 9.520782668914762326e-07 5.075084459349454846e-07
9.600000000000000000e+02 1.021754360198974609e+01 -1.946524739265441895e+00 -1.115747690200805664e-01 1.166965067386627197e-02 -2.997153438627719879e-02 -7.111366139724850655e-04
9.610000000000000000e+02 1.091307830810546875e+01 -2.790079355239868164e+00 -9.680754691362380981e-02 1.305192429572343826e-02 -2.512668631970882416e-02 -3.331846528453752398e-05
9.620000000000000000e+02 1.017361831665039062e+01 -3.448191404342651367e+00 -8.328370004892349243e-02 2.485530637204647064e-02 -1.752851903438568115e-02 -5.126128904521465302e-03
9.630000000000000000e+02 9.445456504821777344e+00 -2.646627426147460938e+00 -9.602316468954086304e-02 2.013147994875907898e-02 -2.276750467717647552e-02 -1.006847340613603592e-02
9.640000000000000000e+02 1.430007934570312500e+01 1.939073801040649414e+00 3.555402372512617148e-06 3.565447457276604837e-07 1.173584109892544802e-06 8.444156378573097754e-07
9.650000000000000000e+02 1.574130344390869141e+01 1.841089963912963867e+00 2.397739763182471506e-06 1.275709564652061090e-06 1.102034843825094867e-06 1.209258243761723861e-06
9.660000000000000000e+02 1.501573562622070312e+01 1.880286812782287598e+00 -2.736183887463994324e-06 -1.087616283257375471e-06 -1.147139983004308306e-06 -8.859767035573895555e-07
9.670000000000000000e+02 1.206007480621337891e+01 1.531609416007995605e+00 1.561582735121191945e-06 2.233339046142646112e-06 1.138476591222570278e-06 1.575378178131359164e-06
9.680000000000000000e+02 3.828187179565429688e+01 -5.261464595794677734e+00 -1.645303606986999512e+00 5.674986839294433594e-01 -3.233414590358734131e-01 -5.765194296836853027e-01
9.690000000000000000e+02 3.694963073730468750e+01 -4.361021518707275391e+00 -1.524707078933715820e+00 1.101796507835388184e+00 -1.268731802701950073e-01 1.877002865076065063e-01
9.700000000000000000e+02 4.038897705078125000e+01 -4.724338054656982422e+00 -1.092801928520202637e+00 -1.037991866469383240e-01 -3.589803278446197510e-01 -1.232622146606445312e+00
9.710000000000000000e+02 3.906556320190429688e+01 -4.635878562927246094e+00 -1.481189012527465820e+00 6.128824949264526367e-01 -2.604919373989105225e-01 -9.959444999694824219e-01
9.720000000000000000e+02 3.899694442749023438e+01 -5.368513107299804688e+00 -1.524118065834045410e+00 4.022480249404907227e-01 -3.365609943866729736e-01 -7.778581380844116211e-01
9.730000000000000000e+02 3.436586380004882812e+01 -2.428470611572265625e+00 -8.405603170394897461e-01 2.978952407836914062e+00 6.415176391601562500e-01 3.299952268600463867e+00
9.740000000000000000e+02 3.764546966552734375e+01 -4.420920848846435547e+00 -1.598861694335937500e+00 1.115703821182250977e+00 -1.449473649263381958e-01 -2.638471722602844238e-01
9.750000000000000000e+02 3.577787017822265625e+01 -2.913336515426635742e+00 -9.936485886573791504e-01 2.421102046966552734e+00 4.282360076904296875e-01 1.949519753456115723e+00
9.760000000000000000e+02 3.423377609252929688e+01 -1.259534507989883423e-01 2.356070995330810547e+00 2.724152803421020508e+00 1.524067163467407227e+00 2.776856660842895508e+00
9.770000000000000000e+02 3.490545654296875000e+01 -1.041500687599182129e+00 8.586770296096801758e-02 3.614641904830932617e+00 1.110152840614318848e+00 2.565919637680053711e+00
9.780000000000000000e+02 7.281847381591796875e+01 -1.552505779266357422e+01 -5.482837150339037180e-05 -9.327104635303840041e-05 -4.442982390173710883e-05 -4.160030948696658015e-05
9.790000000000000000e+02 7.303450775146484375e+01 -1.711493492126464844e+01 -7.364688644884154201e-05 -1.374694838887080550e-04 -6.333491182886064053e-05 -2.876249163819011301e-05
9.800000000000000000e+02 7.862687683105468750e+01 -1.814164543151855469e+01 3.429464704822748899e-04 8.465867722406983376e-05 1.282815355807542801e-04 1.027389134833356366e-05
9.810000000000000000e+02 7.361819458007812500e+01 -1.623517799377441406e+01 -9.783284622244536877e-05 -9.901872545015066862e-05 -5.905547004658728838e-05 -5.267272354103624821e-05
9.820000000000000000e+02 7.138417816162109375e+01 -1.574469089508056641e+01 -5.810223956359550357e-05 -6.404917075997218490e-05 -3.664542236947454512e-05 -4.344103581388480961e-05
9.830000000000000000e+02 7.236323547363281250e+01 -1.721166229248046875e+01 1.374819257762283087e-04 1.197426536236889660e-04 7.716737309237942100e-05 1.106040581362321973e-04
9.840000000000000000e+02 7.847286987304687500e+01 -2.083050155639648438e+01 3.374344378244131804e-04 7.998853834578767419e-05 1.252268993994221091e-04 -6.141774065326899290e-05
9.850000000000000000e+02 6.908869934082031250e+01 -1.700860023498535156e+01 -7.617743540322408080e-05 8.226780482800677419e-05 1.827110395424824674e-06 6.881720764795318246e-05
9.860000000000000000e+02 6.981919860839843750e+01 -1.955155944824218750e+01 2.535772800911217928e-04 6.855597894173115492e-05 9.663997479947283864e-05 6.004473107168450952e-05
9.870000000000000000e+02 7.322576141357421875e+01 -1.169903087615966797e+01 1.102856080979108810e-02 -3.505032509565353394e-03 2.257058629766106606e-03 1.991666620597243309e-03
9.880000000000000000e+02 7.176229858398437500e+01 -1.021547698974609375e+01 5.379566457122564316e-03 -9.905740618705749512e-03 -1.357852248474955559e-03 -1.249905326403677464e-03
9.890000000000000000e+02 7.092778778076171875e+01 -1.106541633605957031e+01 9.527006186544895172e-03 -6.891037337481975555e-03 7.907907129265367985e-04 -5.051457323133945465e-03
9.900000000000000000e+02 6.822371673583984375e+01 -1.173042964935302734e+01 5.846724845468997955e-03 4.163429606705904007e-03 3.003046382218599319e-03 -7.002359721809625626e-03
9.910000000000000000e+02 7.246675872802734375e+01 -1.100961494445800781e+01 8.534033782780170441e-03 -6.571735721081495285e-03 5.886894650757312775e-04 3.870171494781970978e-04
9.920000000000000000e+02 6.870596313476562500e+01 -9.787315368652343750e+00 1.106230448931455612e-02 1.186621608212590218e-03 3.674677805975079536e-03 -6.028814706951379776e-03
9.930000000000000000e+02 7.324841308593750000e+01 -1.096408367156982422e+01 6.548493169248104095e-03 -3.052961546927690506e-03 1.048659440129995346e-03 2.541695721447467804e-03
9.940000000000000000e+02 7.491419982910156250e+01 -1.085885047912597656e+01 5.312100052833557129e-03 -9.306586580350995064e-04 1.314432360231876373e-03 6.943722255527973175e-03
9.950000000000000000e+02 3.558183288574218750e+01 -9.291091918945312500e+00 8.700870871543884277e-01 5.566204786300659180e-01 4.280122816562652588e-01 -9.660339951515197754e-01
9.960000000000000000e+02 3.407174682617187500e+01 -8.311892509460449219e+00 1.544484615325927734e+00 7.355709671974182129e-01 6.840167045593261719e-01 -1.178414583206176758e+00
9.970000000000000000e+02 3.631399536132812500e+01 -8.716614723205566406e+00 7.946779727935791016e-01 3.142753839492797852e-01 3.326860070228576660e-01 -6.729339957237243652e-01
9.980000000000000000e+02 3.555915832519531250e+01 -8.574075698852539062e+00 9.978902935981750488e-01 4.110281765460968018e-01 4.226755499839782715e-01 -8.173632025718688965e-01
9.990000000000000000e+02 3.416779327392578125e+01 -9.078129768371582031e+00 1.211627483367919922e+00 9.604472517967224121e-01 6.516224145889282227e-01 -1.343348026275634766e+00
1.000000000000000000e+03 3.783845138549804688e+01 -8.953537940979003906e+00 4.439137279987335205e-01 2.294971197843551636e-01 2.020232528448104858e-01 -4.485769569873809814e-01
1.001000000000000000e+03 3.708915710449218750e+01 -1.116355895996093750e+01 2.852017283439636230e-01 7.337523698806762695e-01 3.056862354278564453e-01 -8.802770972251892090e-01
1.002000000000000000e+03 3.991559600830078125e+01 -1.103271007537841797e+01 9.430987387895584106e-02 4.527643322944641113e-01 1.641222536563873291e-01 -3.544277846813201904e-01
1.003000000000000000e+03 3.787287521362304688e+01 -9.685491561889648438e+00 4.030366539955139160e-01 3.641791641712188721e-01 2.301647514104843140e-01 -5.726258158683776855e-01
1.004000000000000000e+03 3.632997512817382812e+01 -9.441287040710449219e+00 6.921662688255310059e-01 4.852454066276550293e-01 3.532235026359558105e-01 -8.389321565628051758e-01
1.005000000000000000e+03 1.467259311676025391e+01 -3.257851123809814453e+00 -8.581435680389404297e-02 -3.410402312874794006e-02 -3.597551211714744568e-02 -1.732976175844669342e-02
1.006000000000000000e+03 1.313119506835937500e+01 -3.074868202209472656e+00 -8.835072815418243408e-02 -8.500738069415092468e-03 -2.905543893575668335e-02 5.724101793020963669e-03
1.007000000000000000e+03 1.625611495971679688e+01 -3.404563188552856445e+00 -9.061792492866516113e-02 -7.106710970401763916e-02 -4.850551113486289978e-02 -7.299264520406723022e-02
1.008000000000000000e+03 9.113484382629394531e+00 2.527593135833740234e+00 -1.391428213537437841e-06 -4.200095645501278341e-06 -1.677457248661085032e-06 7.278085831785574555e-07
1.009000000000000000e+03 1.138348960876464844e+01 2.320475101470947266e+00 1.482494212723395322e-06 9.402712635164789390e-07 7.268296258189366199e-07 1.734431407385272905e-06
1.010000000000000000e+03 1.358168029785156250e+01 2.009315490722656250e+00 -4.201957835903158411e-06 2.442453705953084864e-07 -1.187313728223671205e-06 -1.549697003611072432e-06
1.011000000000000000e+03 1.285308933258056641e+01 2.093439817428588867e+00 3.364683607287588529e-06 -3.444706067057268228e-07 9.060639172275841702e-07 1.901193854791927151e-06
1.012000000000000000e+03 3.110152244567871094e+01 -3.692062139511108398e+00 -6.513242721557617188e-01 5.702990055084228516e+00 1.515499711036682129e+00 3.470642805099487305e+00
1.013000000000000000e+03 3.031203651428222656e+01 -3.447803497314453125e+00 -8.594628572463989258e-01 4.667707443237304688e+00 1.142473340034484863e+00 1.089204907417297363e+00
1.014000000000000000e+03 2.615254211425781250e+01 -2.517028570175170898e+00 -3.435316085815429688e+00 -4.049252867698669434e-01 -1.152072429656982422e+00 -1.579763412475585938e+00
1.015000000000000000e+03 2.892417716979980469e+01 -7.394136428833007812e+00 3.819324254989624023e+00 3.260493516921997070e+00 2.123945236206054688e+00 2.308379411697387695e+00
1.016000000000000000e+03 2.959444618225097656e+01 -7.205105781555175781e+00 3.587442159652709961e+00 5.632247447967529297e+00 2.765906810760498047e+00 2.468540430068969727e+00
1.017000000000000000e+03 1.944145393371582031e+01 -2.777238607406616211e+00 -2.889102399349212646e-01 -1.391351968050003052e-01 -1.284136325120925903e-01 -2.661222815513610840e-01
1.018000000000000000e+03 1.545588016510009766e+01 -3.338147401809692383e+00 -8.961170166730880737e-02 -5.651417374610900879e-02 -4.383775964379310608e-02 -5.034429207444190979e-02
1.019000000000000000e+03 1.788042831420898438e+01 -3.485903263092041016e+00 -1.031564176082611084e-01 -1.255176216363906860e-01 -6.860221177339553833e-02 -1.658583134412765503e-01
1.020000000000000000e+03 1.706777763366699219e+01 -3.454150676727294922e+00 -9.639183431863784790e-02 -1.042287573218345642e-01 -6.018617749214172363e-02 -1.284983754158020020e-01
1.021000000000000000e+03 2.037414169311523438e+01 -3.411772489547729492e+00 -1.823173761367797852e-01 -1.962929815053939819e-01 -1.135831102728843689e-01 -3.746140599250793457e-01
1.022000000000000000e+03 2.289022064208984375e+01 -3.049286603927612305e+00 -6.597189307212829590e-01 -2.762814611196517944e-02 -2.062041163444519043e-01 -6.488692164421081543e-01
1.023000000000000000e+03 1.869740486145019531e+01 -3.494918346405029297e+00 -1.154563054442405701e-01 -1.624331772327423096e-01 -8.336684107780456543e-02 -2.387208640575408936e-01
1.024000000000000000e+03 8.681105613708496094e+00 -2.612897872924804688e+00 -9.097650647163391113e-02 2.153965085744857788e-02 -2.083105780184268951e-02 -1.628253236413002014e-02
1.025000000000000000e+03 6.335816860198974609e+00 -2.595787048339843750e+00 -7.135438174009323120e-02 1.044814288616180420e-02 -1.827187091112136841e-02 -4.031706973910331726e-02
1.026000000000000000e+03 7.038591384887695312e+00 -1.862284898757934570e+00 -8.630327135324478149e-02 7.316591218113899231e-03 -2.369600348174571991e-02 -2.669553086161613464e-02
1.027000000000000000e+03 7.903051853179931641e+00 -2.598640680313110352e+00 -8.698504418134689331e-02 1.814610511064529419e-02 -2.065168134868144989e-02 -2.558794803917407990e-02
1.028000000000000000e+03 7.119552135467529297e+00 -2.594382047653198242e+00 -7.911291718482971191e-02 1.642438024282455444e-02 -1.880656182765960693e-02 -3.331829980015754700e-02
1.029000000000000000e+03 5.417318344116210938e+00 -1.869485020637512207e+00 -6.479907035827636719e-02 1.857572118751704693e-03 -1.888244971632957458e-02 -3.580852225422859192e-02
1.030000000000000000e+03 4.777377128601074219e+00 -2.647909164428710938e+00 -5.183821171522140503e-02 -3.202604602847713977e-06 -1.555242482572793961e-02 -4.762585088610649109e-02
1.031000000000000000e+03 1.648240327835083008e+00 -9.544144630432128906e+00 -1.021572947502136230e-02 -2.113003730773925781e-01 -6.645482778549194336e-02 -9.764122962951660156e-02
1.032000000000000000e+03 5.575290322303771973e-01 -6.585750102996826172e+00 -1.221542246639728546e-03 -1.378663182258605957e-01 -4.172635823488235474e-02 -2.489353902637958527e-02
1.033000000000000000e+03 2.951683282852172852e+00 -4.102085113525390625e+00 -2.494584210216999054e-02 -2.878293022513389587e-02 -1.611863262951374054e-02 -5.804440379142761230e-02
1.034000000000000000e+03 5.834335684776306152e-01 -3.677968025207519531e+00 -4.804240539669990540e-03 -4.175318777561187744e-02 -1.396722905337810516e-02 -1.535583101212978363e-02
1.035000000000000000e+03 2.516625595092773438e+01 -1.704513311386108398e+00 -2.396850347518920898e+00 4.999791458249092102e-02 -7.040557265281677246e-01 1.775034703314304352e-02
1.036000000000000000e+03 4.228360748291015625e+01 -3.618191957473754883e+00 -4.290199875831604004e-01 -2.389764785766601562e+00 -8.456354141235351562e-01 -1.209487915039062500e+00
1.037000000000000000e+03 4.211808776855468750e+01 -5.425505638122558594e+00 -2.103700041770935059e-01 -9.665675759315490723e-01 -3.530812561511993408e-01 -4.431302249431610107e-01
1.038000000000000000e+03 4.181560897827148438e+01 -4.394097328186035156e+00 -5.846250653266906738e-01 -1.231815457344055176e+00 -5.449321866035461426e-01 -1.003495812416076660e+00
1.039000000000000000e+03 2.040341138839721680e+00 -3.190626144409179688e+01 -4.258420318365097046e-02 7.091444134712219238e-01 1.999680697917938232e-01 2.594087831676006317e-02
1.040000000000000000e+03 3.153045463562011719e+01 -1.771336364746093750e+01 -2.790284156799316406e+00 -1.272365450859069824e-01 -8.752561807632446289e-01 -8.184342086315155029e-02
1.041000000000000000e+03 3.822202301025390625e+01 -2.083994483947753906e+01 4.373502731323242188e-01 1.768707156181335449e+00 6.618171930313110352e-01 -1.814781129360198975e-01
1.042000000000000000e+03 3.493492507934570312e+01 -1.813563537597656250e+01 -6.423617601394653320e-01 2.381240129470825195e+00 5.216634869575500488e-01 -5.949205160140991211e-01
1.043000000000000000e+03 7.745148181915283203e+00 -1.531391716003417969e+01 3.152241408824920654e-01 6.551746129989624023e-01 2.911196351051330566e-01 1.986721307039260864e-01
1.044000000000000000e+03 5.879471302032470703e+00 -2.774101829528808594e+01 -3.317662775516510010e-01 8.762114495038986206e-02 -7.324354350566864014e-02 2.882988452911376953e-01
1.045000000000000000e+03 3.313490295410156250e+01 -1.722281265258789062e+01 -1.342720389366149902e+00 1.054970741271972656e+00 -8.632489293813705444e-02 -9.925270676612854004e-01
1.046000000000000000e+03 3.742585754394531250e+01 -2.346178054809570312e+01 5.742033123970031738e-01 1.930962562561035156e+00 7.515497803688049316e-01 -8.988829702138900757e-02
1.047000000000000000e+03 1.005180168151855469e+01 -3.456401443481445312e+01 -1.470646709203720093e-01 -1.207217425107955933e-01 -8.033592253923416138e-02 9.209015220403671265e-02
1.048000000000000000e+03 4.491276264190673828e+00 -1.849421310424804688e+01 3.076132535934448242e-01 4.205869138240814209e-01 2.184600383043289185e-01 1.559892743825912476e-01
1.049000000000000000e+03 1.812839508056640625e+00 -1.938303375244140625e+01 7.745013386011123657e-02 -3.846931159496307373e-01 -9.217289090156555176e-02 9.838147461414337158e-02
1.050000000000000000e+03 1.271796131134033203e+01 -1.495252799987792969e+01 3.900072872638702393e-01 6.310082972049713135e-02 1.359324306249618530e-01 3.041530549526214600e-01
1.051000000000000000e+03 2.814073371887207031e+01 -3.139456367492675781e+01 -2.513880133628845215e-01 6.715101189911365509e-03 -7.340186834335327148e-02 1.096535660326480865e-02
1.052000000000000000e+03 3.035760879516601562e+01 -3.379565811157226562e+01 -1.778863519430160522e-01 3.884780108928680420e-01 6.317749619483947754e-02 1.833622306585311890e-01
1.053000000000000000e+03 1.318252468109130859e+01 -3.155502891540527344e+01 -5.338197350502014160e-01 -5.156597867608070374e-02 -1.756157130002975464e-01 1.421655565500259399e-01
1.054000000000000000e+03 1.037122821807861328e+01 -3.091057777404785156e+01 -7.270020246505737305e-01 -2.257264405488967896e-01 -2.858185470104217529e-01 3.040148615837097168e-01
1.055000000000000000e+03 3.186381816864013672e+00 -1.653449821472167969e+01 1.248834505677223206e-01 -3.616560623049736023e-02 2.661535330116748810e-02 -4.741640016436576843e-02
1.056000000000000000e+03 3.395410537719726562e+01 -2.994237136840820312e+01 -3.261625766754150391e-02 1.115617394447326660e+00 3.249003589153289795e-01 2.738234400749206543e-01
1.057000000000000000e+03 2.191107177734375000e+01 -1.763445854187011719e+01 -7.412545680999755859e-01 4.918242990970611572e-02 -2.076216340065002441e-01 2.729088068008422852e-01
1.058000000000000000e+03 3.555375671386718750e+01 -2.676234817504882812e+01 2.269162684679031372e-01 2.155444622039794922e+00 7.147082686424255371e-01 2.180260419845581055e-01
1.059000000000000000e+03 1.005481529235839844e+01 -1.529508686065673828e+01 6.074880957603454590e-01 4.452997744083404541e-01 3.158363699913024902e-01 4.632524847984313965e-01
1.060000000000000000e+03 1.140718078613281250e+01 -1.618753814697265625e+01 8.102863430976867676e-01 1.316631585359573364e-01 2.825848460197448730e-01 2.336310297250747681e-01
1.061000000000000000e+03 1.728921127319335938e+01 -1.643290138244628906e+01 -1.503158807754516602e-01 -1.278553456068038940e-01 -8.345136791467666626e-02 2.427064180374145508e-01
1.062000000000000000e+03 1.612165069580078125e+01 -1.589125061035156250e+01 2.768007665872573853e-02 -1.507029831409454346e-01 -3.690687194466590881e-02 2.342156171798706055e-01
1.063000000000000000e+03 3.440258026123046875e+01 -2.872115325927734375e+01 1.068824529647827148e-01 1.332623839378356934e+00 4.318518936634063721e-01 3.612005412578582764e-01
1.064000000000000000e+03 6.491569280624389648e-01 -2.765353012084960938e+01 -1.432187017053365707e-02 5.963255167007446289e-01 1.746010929346084595e-01 1.116653457283973694e-01
1.065000000000000000e+03 8.867462158203125000e+00 -1.536165428161621094e+01 3.580312430858612061e-01 6.771972775459289551e-01 3.105685710906982422e-01 3.614933788776397705e-01
1.066000000000000000e+03 1.803601264953613281e+01 -1.797793197631835938e+01 -4.082202017307281494e-01 -7.175991684198379517e-02 -1.439940333366394043e-01 1.941451430320739746e-01
1.067000000000000000e+03 3.347788619995117188e+01 -3.126540184020996094e+01 -1.478093862533569336e-01 9.390032887458801270e-01 2.373581677675247192e-01 2.485328167676925659e-01
1.068000000000000000e+03 3.747984695434570312e+01 -2.181855773925781250e+01 4.543425440788269043e-01 1.984020590782165527e+00 7.315089702606201172e-01 -1.791625916957855225e-01
1.069000000000000000e+03 1.843774414062500000e+01 -1.688138008117675781e+01 -2.824642658233642578e-01 -8.473642915487289429e-02 -1.101602092385292053e-01 2.735766172409057617e-01
1.070000000000000000e+03 2.056157112121582031e+01 -1.863208580017089844e+01 -6.488456130027770996e-01 -1.464904518797993660e-03 -1.950931549072265625e-01 1.519046425819396973e-01
1.071000000000000000e+03 2.007114601135253906e+01 -3.190934181213378906e+01 -3.528248369693756104e-01 -9.289301000535488129e-03 -1.086342483758926392e-01 -5.190578754991292953e-03
1.072000000000000000e+03 2.281986999511718750e+01 -3.319315719604492188e+01 -2.762176990509033203e-01 -2.129047643393278122e-03 -8.350402116775512695e-02 -9.327742271125316620e-03
1.073000000000000000e+03 2.151153564453125000e+01 -3.334381103515625000e+01 -2.808561623096466064e-01 -1.572281308472156525e-02 -8.897369354963302612e-02 -6.180701311677694321e-03
1.074000000000000000e+03 2.075164794921875000e+01 -1.748820686340332031e+01 -5.751835107803344727e-01 7.946150377392768860e-03 -1.701712012290954590e-01 2.830099463462829590e-01
1.075000000000000000e+03 2.574258995056152344e+01 -1.842101860046386719e+01 -1.767139673233032227e+00 2.286478504538536072e-02 -5.232824683189392090e-01 -1.536664217710494995e-01
1.076000000000000000e+03 2.407760238647460938e+01 -1.658769035339355469e+01 -9.191609621047973633e-01 1.260335296392440796e-01 -2.379382252693176270e-01 4.667221605777740479e-01
1.077000000000000000e+03 2.870778274536132812e+01 -1.642936134338378906e+01 -1.558527231216430664e+00 1.773669868707656860e-01 -4.143480658531188965e-01 1.546470671892166138e-01
1.078000000000000000e+03 2.799873352050781250e+01 -3.287221908569335938e+01 -1.249693632125854492e-01 7.883033901453018188e-02 -1.384170819073915482e-02 1.085739657282829285e-01
1.079000000000000000e+03 2.670018005371093750e+01 -3.303027725219726562e+01 -1.986378729343414307e-01 3.520137816667556763e-02 -4.903095215559005737e-02 3.896881267428398132e-02
1.080000000000000000e+03 2.544061470031738281e+01 -3.154292869567871094e+01 -3.124298155307769775e-01 4.039347171783447266e-03 -9.251713752746582031e-02 -1.522454805672168732e-02
1.081000000000000000e+03 1.490679264068603516e+01 -1.524656772613525391e+01 2.057274878025054932e-01 -1.374197751283645630e-01 2.049231342971324921e-02 2.570748925209045410e-01
1.082000000000000000e+03 3.202054595947265625e+01 -1.678654289245605469e+01 -1.381744980812072754e+00 3.839102983474731445e-01 -2.993503808975219727e-01 -8.805033564567565918e-01
1.083000000000000000e+03 2.543603706359863281e+01 -1.739070320129394531e+01 -1.464827775955200195e+00 1.171156540513038635e-01 -4.043136239051818848e-01 2.405778318643569946e-01
1.084000000000000000e+03 2.703094100952148438e+01 -1.816937065124511719e+01 -2.283802032470703125e+00 -3.890623152256011963e-02 -6.968124508857727051e-01 -1.979667693376541138e-01
1.085000000000000000e+03 3.324078750610351562e+01 -1.641410064697265625e+01 -1.097068309783935547e+00 1.233531713485717773e+00 4.093901067972183228e-02 -1.148069739341735840e+00
1.086000000000000000e+03 2.314789962768554688e+01 -1.873918914794921875e+01 -1.076195359230041504e+00 3.264455869793891907e-02 -3.130652308464050293e-01 3.642804920673370361e-02
1.087000000000000000e+03 1.890101313591003418e+00 -1.793696403503417969e+01 6.897106766700744629e-02 -4.198945462703704834e-01 -1.052770391106605530e-01 3.109699580818414688e-03
1.088000000000000000e+03 1.456501197814941406e+01 -3.184406280517578125e+01 -4.929011464118957520e-01 -4.182620346546173096e-02 -1.604181975126266479e-01 1.100970134139060974e-01
1.089000000000000000e+03 1.443494415283203125e+01 -3.387651824951171875e+01 -3.163374364376068115e-01 -9.154586493968963623e-02 -1.223649904131889343e-01 1.333151459693908691e-01
1.090000000000000000e+03 1.156875419616699219e+01 -3.286943817138671875e+01 -3.915005922317504883e-01 -1.648980081081390381e-01 -1.669195741415023804e-01 2.216316163539886475e-01
1.091000000000000000e+03 1.289061546325683594e+01 -3.338152694702148438e+01 -3.522239029407501221e-01 -1.082673072814941406e-01 -1.381473541259765625e-01 1.618269830942153931e-01
1.092000000000000000e+03 3.674085617065429688e+01 -2.260138893127441406e+01 3.373371362686157227e-01 2.518331050872802734e+00 8.567004203796386719e-01 -2.951456904411315918e-01
1.093000000000000000e+03 3.647933578491210938e+01 -2.355920600891113281e+01 3.646233379840850830e-01 2.832886695861816406e+00 9.592530131340026855e-01 -8.630250394344329834e-02
1.094000000000000000e+03 2.561486434936523438e+01 -4.196399688720703125e+00 3.531740307807922363e-01 -7.857143282890319824e-01 -1.297620981931686401e-01 -1.705174088478088379e+00
1.095000000000000000e+03 2.534115982055664062e+01 -2.597719907760620117e+00 -2.418869972229003906e+00 4.165866225957870483e-02 -7.131633758544921875e-01 -1.154395699501037598e+00
1.096000000000000000e+03 6.224553680419921875e+01 -1.762440443038940430e+00 -5.429868698120117188e-01 2.928956970572471619e-02 -1.541091799736022949e-01 3.535358235239982605e-02
1.097000000000000000e+03 6.757449340820312500e+01 -6.615238666534423828e+00 -2.510546334087848663e-02 4.873598227277398109e-04 -7.385431323200464249e-03 4.458446986973285675e-03
1.098000000000000000e+03 5.959499359130859375e+01 -7.377769351005554199e-01 -9.129351973533630371e-01 3.215024480596184731e-03 -2.729160487651824951e-01 2.324065379798412323e-02
1.099000000000000000e+03 1.294092464447021484e+01 2.261540031433105469e+01 -2.636804310895968229e-06 1.642213101149536669e-05 4.135597919230349362e-06 1.705087379377800971e-05
1.100000000000000000e+03 5.094484329223632812e+01 4.310359477996826172e+00 -1.476989388465881348e+00 -1.974002867937088013e-01 -5.023168921470642090e-01 -1.029958844184875488e+00
1.101000000000000000e+03 1.537986278533935547e+01 1.832024192810058594e+01 -4.115128831472247839e-05 -7.078491762513294816e-06 -1.446893384127179161e-05 -2.360138751100748777e-06
1.102000000000000000e+03 1.423191928863525391e+01 1.822625350952148438e+01 1.504469219071324915e-05 -2.147458189938333817e-06 3.869170086545636877e-06 -1.104571651922015008e-06
1.103000000000000000e+03 6.491036987304687500e+01 -3.271667242050170898e+00 -2.352505922317504883e-01 4.540833830833435059e-02 -5.695267766714096069e-02 3.081767633557319641e-02
1.104000000000000000e+03 2.833957862854003906e+01 3.908255386352539062e+01 1.319777918979525566e-03 -8.863618597388267517e-03 -2.263152040541172028e-03 3.930522873997688293e-02
1.105000000000000000e+03 5.319472503662109375e+01 1.078671932220458984e+00 -1.914256334304809570e+00 1.250929683446884155e-01 -5.367490053176879883e-01 2.521024830639362335e-02
1.106000000000000000e+03 5.284410095214843750e+01 2.842733621597290039e+00 -1.837080240249633789e+00 1.199926212430000305e-01 -5.151262879371643066e-01 -5.588428378105163574e-01
1.107000000000000000e+03 6.356455612182617188e+01 -2.468099117279052734e+00 -3.779049217700958252e-01 2.788875438272953033e-02 -1.050048545002937317e-01 2.062043175101280212e-02
1.108000000000000000e+03 6.092452621459960938e+01 -1.188015937805175781e+00 -7.424924969673156738e-01 -2.029168419539928436e-03 -2.233565002679824829e-01 9.782989509403705597e-03
1.109000000000000000e+03 5.695503997802734375e+01 -4.082896560430526733e-02 -1.263190984725952148e+00 4.906772170215845108e-03 -3.774852752685546875e-01 5.579148884862661362e-03
1.110000000000000000e+03 5.826757812500000000e+01 -3.721755146980285645e-01 -1.118527889251708984e+00 -2.971772663295269012e-02 -3.444736897945404053e-01 -6.470900960266590118e-03
1.111000000000000000e+03 4.980268478393554688e+01 3.381588697433471680e+00 -2.421777248382568359e+00 -3.601019084453582764e-01 -8.345637321472167969e-01 -1.061382412910461426e+00
1.112000000000000000e+03 6.816502380371093750e+01 -1.241460704803466797e+01 4.900270141661167145e-03 4.112177062779664993e-03 2.703734207898378372e-03 -6.115375086665153503e-03
1.113000000000000000e+03 6.662121582031250000e+01 -9.287209510803222656e+00 4.251861944794654846e-03 2.084055356681346893e-02 7.527724374085664749e-03 -1.787184178829193115e-02
1.114000000000000000e+03 2.796440124511718750e+01 4.123813629150390625e+01 3.203201666474342346e-02 -2.761518955230712891e-02 1.325048739090561867e-03 1.829830557107925415e-02
1.115000000000000000e+03 6.874747467041015625e+01 -8.285472869873046875e+00 -1.097365515306591988e-03 -1.546075101941823959e-03 -7.930321735329926014e-04 -3.533564275130629539e-03
1.116000000000000000e+03 6.743048095703125000e+01 -8.395627021789550781e+00 5.443551111966371536e-03 8.430009707808494568e-03 4.162068478763103485e-03 -7.419460918754339218e-03
1.117000000000000000e+03 1.862071990966796875e+01 3.186831283569335938e+01 -7.635399233549833298e-04 2.476950467098504305e-04 -1.547534629935398698e-04 8.605232578702270985e-04
1.118000000000000000e+03 1.564744281768798828e+01 3.010513687133789062e+01 4.315058467909693718e-04 5.051483458373695612e-05 1.446062087779864669e-04 2.167629427276551723e-04
1.119000000000000000e+03 1.612712860107421875e+01 1.138822746276855469e+01 -5.663107458531158045e-06 -4.305843503971118480e-06 -2.990685288750682957e-06 -9.621873687137849629e-06
1.120000000000000000e+03 1.564958572387695312e+01 1.269522380828857422e+01 8.040604370762594044e-06 2.168640776289976202e-06 3.062773430428933352e-06 9.468113603361416608e-06
1.121000000000000000e+03 1.733423995971679688e+01 3.435262680053710938e+01 8.231036481447517872e-04 -2.602163294795900583e-04 1.688662014203146100e-04 -4.674326046369969845e-04
1.122000000000000000e+03 1.842868614196777344e+01 3.292457962036132812e+01 7.134764455258846283e-04 4.893026925856247544e-05 2.287220122525468469e-04 -1.442270586267113686e-04
1.123000000000000000e+03 1.411027145385742188e+01 1.967715072631835938e+01 -1.515070744062541053e-05 -7.935042958706617355e-06 -6.925725301698548719e-06 -1.981752802748815157e-06
1.124000000000000000e+03 1.520459365844726562e+01 1.402971172332763672e+01 -1.032006730383727700e-05 -2.663762643351219594e-06 -3.895148893207078800e-06 -9.370102816319558769e-06
1.125000000000000000e+03 1.797082519531250000e+01 1.682042956352233887e+00 4.814732506019936409e-07 4.231587809044867754e-06 1.413918312209716532e-06 7.479167862811664236e-08
1.126000000000000000e+03 1.471135330200195312e+01 2.698393821716308594e+01 1.318940339842811227e-04 2.500632763258181512e-05 4.707010884885676205e-05 7.364469638559967279e-05
1.127000000000000000e+03 2.066291236877441406e+01 1.426236271858215332e+00 8.967308531282469630e-07 7.019647227934910916e-07 4.796086727765214164e-07 6.143147288639738690e-07
1.128000000000000000e+03 2.040125656127929688e+01 3.111213684082031250e+00 -8.547776246814464685e-07 -2.568214313214411959e-06 -1.026897621159150731e-06 -1.386159965477418154e-06
1.129000000000000000e+03 1.407259464263916016e+01 2.112648582458496094e+01 1.774996417225338519e-05 4.367397650639759377e-06 6.635208592342678457e-06 5.352209427655907348e-06
1.130000000000000000e+03 1.819503784179687500e+01 9.021980285644531250e+00 1.251297453563893214e-05 1.747352257552847732e-06 4.278098003851482645e-06 5.790182967757573351e-06
1.131000000000000000e+03 1.725390052795410156e+01 5.435204029083251953e+00 2.072652478091185912e-06 -9.415402928425464779e-06 -2.202825044150813483e-06 -6.413477422029245645e-06
1.132000000000000000e+03 7.933636474609375000e+01 -2.791884231567382812e+01 1.025094898068346083e-04 1.745074550854042172e-04 8.310508565045893192e-05 1.315123517997562885e-04
1.133000000000000000e+03 7.948912811279296875e+01 -2.096416473388671875e+01 -3.624259261414408684e-04 1.163915294455364347e-04 -7.381031900877133012e-05 5.543176484934519976e-06
1.134000000000000000e+03 7.913630676269531250e+01 -3.882743072509765625e+01 1.569023879710584879e-04 -4.837228450924158096e-03 -1.404097769409418106e-03 2.869754680432379246e-04
1.135000000000000000e+03 7.933959960937500000e+01 -3.484821701049804688e+01 -8.435260679107159376e-05 -2.715459326282143593e-03 -8.399435901083052158e-04 4.350620729383081198e-04
1.136000000000000000e+03 7.932562255859375000e+01 -3.347247314453125000e+01 3.072742629228741862e-06 -1.849280088208615780e-03 -5.538621917366981506e-04 3.810747875832021236e-04
1.137000000000000000e+03 7.775023651123046875e+01 -1.712920570373535156e+01 1.905035023810341954e-04 1.273523666895925999e-04 9.535675781080499291e-05 -1.377226726617664099e-04
1.138000000000000000e+03 7.940902709960937500e+01 -2.373370361328125000e+01 -3.264707920607179403e-04 2.452724729664623737e-04 -2.435948954371269792e-05 -3.645273318397812545e-05
1.139000000000000000e+03 7.802844238281250000e+01 -2.785382270812988281e+01 -4.436290473677217960e-04 -7.392984116449952126e-05 -1.552676694700494409e-04 8.013551268959417939e-05
1.140000000000000000e+03 7.808271026611328125e+01 -2.642434501647949219e+01 2.157260169042274356e-04 2.018967279582284391e-05 7.077470945660024881e-05 1.700163411442190409e-04
1.141000000000000000e+03 7.931613159179687500e+01 -3.070569419860839844e+01 -3.619717608671635389e-05 -4.982721875421702862e-04 -1.603408018127083778e-04 2.950118505395948887e-04
1.142000000000000000e+03 7.797677612304687500e+01 -3.345105743408203125e+01 -2.010736934607848525e-04 -1.880639116279780865e-03 -6.245138356462121010e-04 1.139641855843365192e-03
1.143000000000000000e+03 7.807572937011718750e+01 -3.720893859863281250e+01 3.545216750353574753e-04 -3.872303990647196770e-03 -1.055334694683551788e-03 1.028776983730494976e-03
1.144000000000000000e+03 7.891674041748046875e+01 -1.645445442199707031e+01 -5.007049185223877430e-05 4.743791214423254132e-05 -7.897734803918865509e-07 -7.486091635655611753e-05
1.145000000000000000e+03 1.440662097930908203e+01 2.549961280822753906e+01 -1.362268267257604748e-05 1.186381996376439929e-05 -5.276588694869133178e-07 1.452138894819654524e-05
1.146000000000000000e+03 1.662537002563476562e+01 1.011119556427001953e+01 4.248552158969687298e-06 3.259978711867006496e-06 2.252559397675213404e-06 9.012178452394437045e-06
1.147000000000000000e+03 1.511528491973876953e+01 2.849965858459472656e+01 -5.167930339666781947e-06 2.842566937033552676e-05 6.977321845624828711e-06 5.583146048593334854e-05
1.148000000000000000e+03 1.479971981048583984e+01 1.539303016662597656e+01 1.220369722432224080e-05 -5.600726581178605556e-06 1.980891283892560750e-06 5.464753940032096580e-06
1.149000000000000000e+03 1.570157527923583984e+01 2.560338497161865234e+00 -2.566046305219060741e-06 -2.529371386117418297e-06 -1.528625261926208623e-06 -6.261225280468352139e-07
1.150000000000000000e+03 7.619824218750000000e+01 3.600373077392578125e+01 2.580786123871803284e-02 -9.415497779846191406e-01 -2.747225761413574219e-01 -1.389018073678016663e-02
1.151000000000000000e+03 7.834355926513671875e+01 -2.452361583709716797e+00 -4.832374397665262222e-03 2.080288948491215706e-03 -8.256255532614886761e-04 -1.033585052937269211e-02
1.152000000000000000e+03 7.814889526367187500e+01 3.053191661834716797e+00 -8.238093927502632141e-03 -9.920037537813186646e-02 -3.223153948783874512e-02 -5.716531723737716675e-02
1.153000000000000000e+03 7.805339050292968750e+01 1.002288246154785156e+01 -3.440988017246127129e-03 -3.778339326381683350e-01 -1.143824756145477295e-01 -1.028190702199935913e-01
1.154000000000000000e+03 7.815832519531250000e+01 1.694949150085449219e+01 5.421804729849100113e-03 -7.122035026550292969e-01 -2.120345085859298706e-01 -9.038181602954864502e-02
1.155000000000000000e+03 7.902804565429687500e+01 3.871849822998046875e+01 -3.913139924407005310e-03 -1.155133485794067383e+00 -3.477140069007873535e-01 1.411549840122461319e-02
1.156000000000000000e+03 7.780718231201171875e+01 3.335140609741210938e+01 8.122683502733707428e-03 -1.059620141983032227e+00 -3.154492378234863281e-01 -1.252834312617778778e-02
1.157000000000000000e+03 7.932295989990234375e+01 3.211447906494140625e+01 1.268515945412218571e-03 -1.192320585250854492e+00 -3.573156297206878662e-01 -3.677521133795380592e-03
1.158000000000000000e+03 7.797363281250000000e+01 2.956963157653808594e+01 6.446326151490211487e-03 -1.046570658683776855e+00 -3.120372891426086426e-01 -2.478399127721786499e-02
1.159000000000000000e+03 7.803184509277343750e+01 3.217136001586914062e+01 -2.250200137495994568e-03 -1.085554957389831543e+00 -3.263415396213531494e-01 -1.649112626910209656e-02
1.160000000000000000e+03 7.929853820800781250e+01 2.517594718933105469e+01 1.875828253105282784e-03 -1.093009829521179199e+00 -3.273402154445648193e-01 -1.614842005074024200e-02
1.161000000000000000e+03 7.795944976806640625e+01 2.246617317199707031e+01 7.785489782691001892e-03 -9.074818491935729980e-01 -2.699089050292968750e-01 -6.492987275123596191e-02
1.162000000000000000e+03 7.787970733642578125e+01 2.531412696838378906e+01 7.109193596988916397e-03 -9.722083806991577148e-01 -2.895297408103942871e-01 -4.995680972933769226e-02
1.163000000000000000e+03 7.812015533447265625e+01 1.968760490417480469e+01 5.376636516302824020e-03 -8.230308294296264648e-01 -2.452962547540664673e-01 -7.775792479515075684e-02
1.164000000000000000e+03 7.937114715576171875e+01 1.959683799743652344e+01 7.420312613248825073e-04 -9.084466099739074707e-01 -2.723113894462585449e-01 -2.619336545467376709e-02
1.165000000000000000e+03 7.811909484863281250e+01 1.557508277893066406e+01 3.091157181188464165e-03 -6.471239328384399414e-01 -1.932098269462585449e-01 -9.596176445484161377e-02
1.166000000000000000e+03 7.673558807373046875e+01 1.295525360107421875e+01 3.609998151659965515e-03 -4.783037602901458740e-01 -1.424081325531005859e-01 -1.664961427450180054e-01
1.167000000000000000e+03 7.935498046875000000e+01 1.265179729461669922e+01 1.304499455727636814e-03 -5.456081628799438477e-01 -1.632910966873168945e-01 -3.654051944613456726e-02
1.168000000000000000e+03 7.805616760253906250e+01 1.280578899383544922e+01 1.024752506054937840e-03 -5.135768055915832520e-01 -1.537656188011169434e-01 -1.046713739633560181e-01
1.169000000000000000e+03 7.806299591064453125e+01 8.625916481018066406e+00 -3.305002348497509956e-03 -3.129460811614990234e-01 -9.487532079219818115e-02 -9.907691180706024170e-02
1.170000000000000000e+03 7.808968353271484375e+01 5.836000442504882812e+00 -6.862809881567955017e-03 -1.938433200120925903e-01 -6.021184101700782776e-02 -8.119793236255645752e-02
1.171000000000000000e+03 7.936481475830078125e+01 5.692464828491210938e+00 -3.107488853856921196e-03 -1.764904111623764038e-01 -5.387937277555465698e-02 -2.775597386062145233e-02
1.172000000000000000e+03 7.680794525146484375e+01 5.947659015655517578e+00 -2.044174633920192719e-02 -1.966497004032135010e-01 -6.512743234634399414e-02 -1.291793733835220337e-01
1.173000000000000000e+03 7.820120239257812500e+01 1.676612734794616699e+00 -9.821602143347263336e-03 -6.220490857958793640e-02 -2.160795219242572784e-02 -4.391738772392272949e-02
1.174000000000000000e+03 7.830760192871093750e+01 -1.073575496673583984e+00 -7.712691091001033783e-03 -1.136726234108209610e-02 -5.723986309021711349e-03 -1.947708055377006531e-02
1.175000000000000000e+03 7.943339538574218750e+01 -1.250090479850769043e+00 -7.978217327035963535e-04 1.502580102533102036e-02 4.268393851816654205e-03 -6.328359246253967285e-03
1.176000000000000000e+03 7.721153259277343750e+01 -9.317153692245483398e-01 -1.660207472741603851e-02 -2.934693917632102966e-02 -1.378470472991466522e-02 -3.432103991508483887e-02
1.177000000000000000e+03 7.716604614257812500e+01 -9.728920936584472656e+00 -1.434625010006129742e-04 1.627682126127183437e-03 4.452659050002694130e-04 7.849894464015960693e-03
1.178000000000000000e+03 7.779879760742187500e+01 -1.033623504638671875e+01 2.458036877214908600e-03 5.432550329715013504e-03 2.367176115512847900e-03 7.632663007825613022e-03
1.179000000000000000e+03 7.710736083984375000e+01 -1.048003196716308594e+01 2.640696940943598747e-03 9.811192285269498825e-04 1.086544827558100224e-03 8.408463560044765472e-03
1.180000000000000000e+03 7.830526733398437500e+01 -9.816287040710449219e+00 -2.351205912418663502e-04 5.796716082841157913e-03 1.668478711508214474e-03 5.729821510612964630e-03
1.181000000000000000e+03 3.899558258056640625e+01 5.437367439270019531e+00 2.781974077224731445e+00 9.802574157714843750e+00 3.775364398956298828e+00 4.950838565826416016e+00
1.182000000000000000e+03 6.325830459594726562e+01 -3.374816513061523438e+01 -2.884345315396785736e-02 4.079119767993688583e-03 -7.429299876093864441e-03 8.052117191255092621e-03
1.183000000000000000e+03 4.179096984863281250e+01 -1.978447914123535156e+00 -2.403485059738159180e+00 -1.619630217552185059e+00 -1.206934571266174316e+00 -2.398811578750610352e+00
1.184000000000000000e+03 4.255157089233398438e+01 2.962201237678527832e-01 -3.820766210556030273e+00 -1.093094825744628906e+00 -1.474158287048339844e+00 -1.526613712310791016e+00
1.185000000000000000e+03 3.605502700805664062e+01 -2.160079002380371094e+00 -8.307790756225585938e-01 3.244424343109130859e+00 7.240935564041137695e-01 1.773640275001525879e+00
1.186000000000000000e+03 5.459873580932617188e+01 -3.496304321289062500e+01 -1.510326634161174297e-03 9.878067672252655029e-02 2.918110415339469910e-02 -4.237086698412895203e-02
1.187000000000000000e+03 5.701037216186523438e+01 -3.490996932983398438e+01 -1.133478945121169090e-03 2.496990188956260681e-02 7.150926627218723297e-03 -2.152878604829311371e-02
1.188000000000000000e+03 4.083461380004882812e+01 -1.521751308441162109e+01 -8.273276500403881073e-03 9.350888729095458984e-01 2.780446708202362061e-01 -1.669264882802963257e-01
1.189000000000000000e+03 3.698110198974609375e+01 -1.997617149353027344e+01 4.422194361686706543e-01 2.106392860412597656e+00 7.645837068557739258e-01 -1.550734639167785645e-01
1.190000000000000000e+03 4.141283416748046875e+01 3.315741729736328125e+01 1.038800328969955444e-01 1.689026355743408203e+00 5.378718972206115723e-01 -2.931974530220031738e-01
1.191000000000000000e+03 6.858269500732421875e+01 -2.832936668395996094e+01 -1.644171541556715965e-03 1.139414889621548355e-04 -4.590690368786454201e-04 -1.077038701623678207e-03
1.192000000000000000e+03 4.270964813232421875e+01 2.804357337951660156e+01 3.376559913158416748e-01 2.511239290237426758e+00 8.546685576438903809e-01 -2.378999441862106323e-01
1.193000000000000000e+03 3.194733619689941406e+01 -3.930659294128417969e+00 6.602748632431030273e-01 3.758985042572021484e+00 1.325778007507324219e+00 5.882111549377441406e+00
1.194000000000000000e+03 3.160616111755371094e+01 -1.336036920547485352e+00 -5.953584194183349609e+00 2.278777956962585449e-01 -1.717711925506591797e+00 -2.006971240043640137e-01
1.195000000000000000e+03 3.673967742919921875e+01 3.512168502807617188e+01 1.039322093129158020e-01 2.005923241376876831e-01 9.135735780000686646e-02 -1.587409228086471558e-01
1.196000000000000000e+03 3.241999435424804688e+01 3.699161148071289062e+01 -8.912099152803421021e-02 -7.962475647218525410e-04 -2.697517164051532745e-02 6.762254517525434494e-03
1.197000000000000000e+03 4.126953125000000000e+01 1.370018100738525391e+01 3.145413100719451904e-01 5.007746219635009766e+00 1.596686244010925293e+00 9.872328639030456543e-01
1.198000000000000000e+03 4.295960617065429688e+01 1.789133834838867188e+01 2.189696729183197021e-01 3.240622520446777344e+00 1.037877678871154785e+00 5.089085102081298828e-01
1.199000000000000000e+03 4.204572677612304688e+01 3.131038093566894531e+01 2.688716053962707520e-01 2.090476512908935547e+00 7.078044414520263672e-01 -3.395755887031555176e-01
1.200000000000000000e+03 6.456461334228515625e+01 -3.101968955993652344e+01 -1.438881177455186844e-02 -2.213341416791081429e-03 -4.980646073818206787e-03 -6.174584385007619858e-03
1.201000000000000000e+03 4.027527999877929688e+01 1.769793391227722168e+00 3.578534815460443497e-03 3.761678934097290039e+00 1.129577159881591797e+00 1.065723061561584473e+00
1.202000000000000000e+03 6.789070892333984375e+01 -3.317655944824218750e+01 -7.091102655977010727e-03 2.748569939285516739e-03 -1.302759861573576927e-03 6.037438288331031799e-03
1.203000000000000000e+03 2.954968643188476562e+01 -2.874749183654785156e+00 -3.990830421447753906e+00 9.189795851707458496e-01 -9.215552806854248047e-01 -1.394383668899536133e+00
1.204000000000000000e+03 2.716045570373535156e+01 -1.861557722091674805e+00 -8.136331558227539062e+00 -3.052832484245300293e-01 -2.532484292984008789e+00 -4.413122236728668213e-01
1.205000000000000000e+03 4.044525146484375000e+01 -1.288467597961425781e+01 3.103988617658615112e-02 6.683340072631835938e-01 2.098121643066406250e-01 -3.283839821815490723e-01
1.206000000000000000e+03 4.042660903930664062e+01 9.483631134033203125e+00 9.024158120155334473e-01 7.475891113281250000e+00 2.513492107391357422e+00 2.285987377166748047e+00
1.207000000000000000e+03 4.368764114379882812e+01 -2.120339775085449219e+01 1.110603287816047668e-01 2.637092173099517822e-01 1.124308630824089050e-01 -1.310932785272598267e-01
1.208000000000000000e+03 3.561190032958984375e+01 -4.291616916656494141e+00 -9.747990369796752930e-01 9.908487200736999512e-01 4.814893472939729691e-03 1.360718607902526855e+00
1.209000000000000000e+03 4.335715866088867188e+01 1.182436275482177734e+01 1.123982429504394531e+00 3.368176221847534180e+00 1.347647547721862793e+00 1.593348026275634766e+00
1.210000000000000000e+03 3.221669387817382812e+01 3.895884704589843750e+01 1.665214262902736664e-02 4.372865706682205200e-02 1.811424084007740021e-02 -1.803101040422916412e-02
1.211000000000000000e+03 4.060317230224609375e+01 -1.687191772460937500e+01 -4.071945324540138245e-02 1.035639166831970215e+00 2.984758913516998291e-01 -6.996612995862960815e-02
1.212000000000000000e+03 3.840770721435546875e+01 2.221979379653930664e+00 1.785992503166198730e+00 6.265871047973632812e+00 2.415559053421020508e+00 2.978510618209838867e+00
1.213000000000000000e+03 3.464700698852539062e+01 3.835166168212890625e+01 2.453608810901641846e-02 1.580661684274673462e-01 5.478067696094512939e-02 -9.008157253265380859e-02
1.214000000000000000e+03 2.383963775634765625e+01 -3.659171819686889648e+00 -5.053393244743347168e-01 -1.909178048372268677e-01 -2.088771313428878784e-01 -1.057864427566528320e+00
1.215000000000000000e+03 2.829649925231933594e+01 -4.811182975769042969e+00 3.992093324661254883e+00 1.482796818017959595e-01 1.242111921310424805e+00 -1.453572988510131836e+00
1.216000000000000000e+03 3.626596450805664062e+01 -4.322643280029296875e+00 -1.260086297988891602e+00 1.163241744041442871e+00 -2.905334904789924622e-02 8.178955912590026855e-01
1.217000000000000000e+03 6.686670684814453125e+01 -3.100204277038574219e+01 -8.403302170336246490e-03 1.394541468471288681e-03 -2.102628117427229881e-03 -6.358748069033026695e-04
1.218000000000000000e+03 3.620465850830078125e+01 -6.041861325502395630e-02 1.077074408531188965e+00 4.668066978454589844e+00 1.723542451858520508e+00 2.436644792556762695e+00
1.219000000000000000e+03 3.731903457641601562e+01 1.104572892189025879e+00 1.813178539276123047e+00 5.691978931427001953e+00 2.251547098159790039e+00 2.828904628753662109e+00
1.220000000000000000e+03 4.152325439453125000e+01 9.150015830993652344e+00 1.577653050422668457e+00 5.387593269348144531e+00 2.089573860168457031e+00 2.531772136688232422e+00
1.221000000000000000e+03 4.300947189331054688e+01 1.934402847290039062e+01 1.362830549478530884e-01 3.071830034255981445e+00 9.624339342117309570e-01 3.681361675262451172e-01
1.222000000000000000e+03 3.866219329833984375e+01 3.658094406127929688e+01 -6.506023555994033813e-02 8.669174313545227051e-01 2.405571639537811279e-01 -3.239164948463439941e-01
1.223000000000000000e+03 3.861424255371093750e+01 3.533588027954101562e+01 5.286134034395217896e-02 8.091889619827270508e-01 2.586151063442230225e-01 -3.750859797000885010e-01
1.224000000000000000e+03 4.164743041992187500e+01 2.505880928039550781e+01 2.279176563024520874e-02 2.849800109863281250e+00 8.617775440216064453e-01 -2.129752561450004578e-02
1.225000000000000000e+03 4.101789855957031250e+01 1.228518009185791016e+01 3.456494212150573730e-01 5.414248466491699219e+00 1.727969408035278320e+00 1.279081344604492188e+00
1.226000000000000000e+03 4.245400238037109375e+01 1.351136016845703125e+01 5.934887528419494629e-01 4.080003738403320312e+00 1.402047753334045410e+00 1.160977959632873535e+00
1.227000000000000000e+03 4.144247055053710938e+01 4.928790569305419922e+00 1.884724855422973633e+00 3.493241310119628906e+00 1.613389849662780762e+00 2.432949542999267578e+00
1.228000000000000000e+03 4.189361572265625000e+01 1.058556079864501953e+01 1.081913232803344727e+00 4.841503620147705078e+00 1.777025103569030762e+00 2.066014051437377930e+00
1.229000000000000000e+03 4.290094757080078125e+01 2.504901885986328125e+01 7.554443925619125366e-02 2.680488348007202148e+00 8.268098235130310059e-01 -2.943442948162555695e-02
1.230000000000000000e+03 4.300016403198242188e+01 2.220599555969238281e+01 7.079016417264938354e-02 2.775927305221557617e+00 8.540152311325073242e-01 1.463869214057922363e-01
1.231000000000000000e+03 4.433362960815429688e+01 2.223471832275390625e+01 1.535953879356384277e-01 2.538788795471191406e+00 8.077152967453002930e-01 2.047483623027801514e-01
1.232000000000000000e+03 3.943869018554687500e+01 -9.699893951416015625e+00 2.021710872650146484e-01 2.508116066455841064e-01 1.358948051929473877e-01 -3.095531761646270752e-01
1.233000000000000000e+03 6.172145843505859375e+01 -3.597943878173828125e+01 1.399822067469358444e-03 3.289118409156799316e-03 1.406682189553976059e-03 9.598041884601116180e-03
1.234000000000000000e+03 6.341303253173828125e+01 -3.583430480957031250e+01 -2.223233925178647041e-03 4.571529105305671692e-03 7.044884841889142990e-04 1.182367186993360519e-02
1.235000000000000000e+03 5.978113174438476562e+01 -3.457338714599609375e+01 -2.448985166847705841e-02 -3.373359329998493195e-03 -8.358962833881378174e-03 4.080341663211584091e-03
1.236000000000000000e+03 7.010993957519531250e+01 -2.377072715759277344e+01 -5.131106590852141380e-04 -4.534242179943248630e-05 -1.675359089858829975e-04 6.035115438862703741e-05
1.237000000000000000e+03 5.342009353637695312e+01 -3.183102035522460938e+01 -4.527620039880275726e-04 8.078701794147491455e-02 2.410027757287025452e-02 -5.107900872826576233e-02
1.238000000000000000e+03 6.927231597900390625e+01 -2.691625976562500000e+01 -1.319298753514885902e-03 9.863489685812965035e-05 -3.661991504486650229e-04 -1.886158279376104474e-04
1.239000000000000000e+03 4.850447463989257812e+01 -2.647089576721191406e+01 9.483388811349868774e-02 9.317375719547271729e-02 5.640229582786560059e-02 -9.465146064758300781e-02
1.240000000000000000e+03 4.979620742797851562e+01 -3.107075119018554688e+01 4.030262678861618042e-02 1.958126276731491089e-01 7.083457708358764648e-02 -1.249511986970901489e-01
1.241000000000000000e+03 6.566548919677734375e+01 -3.206190109252929688e+01 -1.546077243983745575e-02 2.272482961416244507e-03 -3.956486936658620834e-03 1.964927650988101959e-03
1.242000000000000000e+03 6.436165618896484375e+01 -3.289866256713867188e+01 -1.936869509518146515e-02 3.441024338826537132e-03 -4.778300877660512924e-03 2.885470399633049965e-03
1.243000000000000000e+03 5.030678558349609375e+01 -2.868443298339843750e+01 5.708749592304229736e-02 1.022953614592552185e-01 4.781485721468925476e-02 -8.171737194061279297e-02
1.244000000000000000e+03 3.592969894409179688e+01 -1.907121086120605469e+01 -1.279321685433387756e-02 2.420058965682983398e+00 7.221797704696655273e-01 -1.000447273254394531e-01
1.245000000000000000e+03 4.143310928344726562e+01 -1.614372634887695312e+01 1.051763817667961121e-02 9.007194042205810547e-01 2.733711004257202148e-01 -1.329498738050460815e-01
1.246000000000000000e+03 4.939234924316406250e+01 -2.756730842590332031e+01 7.107791304588317871e-02 9.165322035551071167e-02 4.881934076547622681e-02 -9.887761622667312622e-02
1.247000000000000000e+03 5.086048126220703125e+01 -3.230694580078125000e+01 1.809128746390342712e-02 1.670823693275451660e-01 5.555209517478942871e-02 -1.099588200449943542e-01
1.248000000000000000e+03 6.878332519531250000e+01 -1.943690681457519531e+01 -1.615798391867429018e-04 5.939584298175759614e-05 -3.065519922529347241e-05 4.531268496066331863e-05
1.249000000000000000e+03 7.122978973388671875e+01 -1.829863357543945312e+01 -2.551638135628309101e-05 -1.891804276965558529e-04 -6.440903962356969714e-05 -1.880745257949456573e-04
1.250000000000000000e+03 5.258773803710937500e+01 -2.860373497009277344e+01 1.937249302864074707e-02 3.368169814348220825e-02 1.591625809669494629e-02 -2.517568320035934448e-02
1.251000000000000000e+03 4.771748733520507812e+01 -2.347007369995117188e+01 1.385073550045490265e-02 -1.187126431614160538e-02 5.938414251431822777e-04 -1.304441038519144058e-02
1.252000000000000000e+03 4.666869354248046875e+01 -2.435026550292968750e+01 1.219983994960784912e-01 9.123025089502334595e-02 6.396859139204025269e-02 -1.035390272736549377e-01
1.253000000000000000e+03 7.000515747070312500e+01 -2.221394920349121094e+01 4.806126526091247797e-04 4.454814916243776679e-05 1.575482456246390939e-04 1.494839525548741221e-04
1.254000000000000000e+03 6.991098022460937500e+01 -2.081050109863281250e+01 -3.006129991263151169e-04 7.838282181182876229e-05 -6.666905392194166780e-05 2.136222610715776682e-05
1.255000000000000000e+03 4.466049957275390625e+01 -2.228164672851562500e+01 1.384190320968627930e-01 1.637779921293258667e-01 9.065910428762435913e-02 -1.157864481210708618e-01
1.256000000000000000e+03 4.563823318481445312e+01 -2.516687393188476562e+01 1.652136445045471191e-01 2.140861004590988159e-01 1.137899234890937805e-01 -1.948909461498260498e-01
1.257000000000000000e+03 1.476194500923156738e+00 -3.997531890869140625e+01 -1.189855672419071198e-02 6.908474564552307129e-01 2.036846727132797241e-01 -5.203891918063163757e-02
1.258000000000000000e+03 8.356007933616638184e-01 3.734242248535156250e+01 -5.643411714117974043e-05 2.538810949772596359e-04 5.923408753005787730e-05 6.011197910993359983e-06
1.259000000000000000e+03 7.383142113685607910e-01 3.316615676879882812e+01 -2.073356517939828336e-05 1.390138058923184872e-04 3.548407039488665760e-05 -1.058299858414102346e-05
1.260000000000000000e+03 6.359239220619201660e-01 2.611785888671875000e+01 -8.410398550040554255e-06 6.049947842257097363e-06 -7.081350759108318016e-07 -4.215834906062809750e-06
1.261000000000000000e+03 1.872747182846069336e+00 2.866207695007324219e+01 2.663044870132580400e-05 3.780766564887017012e-05 1.933143539645243436e-05 -2.133649468305520713e-05
1.262000000000000000e+03 3.021582603454589844e+00 2.844153976440429688e+01 -2.183312426495831460e-05 2.087751090584788471e-05 -2.866842976345651550e-07 -3.256453055655583739e-05
1.263000000000000000e+03 3.111155748367309570e+00 2.577523040771484375e+01 -1.585892277944367379e-05 -1.209044330607866868e-05 -8.384809916606172919e-06 -2.630062226671725512e-05
1.264000000000000000e+03 2.066597700119018555e+00 3.145576095581054688e+01 3.884394027409143746e-05 6.188011320773512125e-05 3.021721568075008690e-05 -2.510150625312235206e-05
1.265000000000000000e+03 2.211742639541625977e+00 3.286442947387695312e+01 -7.077646841935347766e-06 7.710999489063397050e-05 2.100970414176117629e-05 -8.092461212072521448e-05
1.266000000000000000e+03 3.638070821762084961e+00 3.905057525634765625e+01 4.225152952130883932e-05 2.518996770959347486e-04 8.824536052998155355e-05 -1.971918100025504827e-04
1.267000000000000000e+03 6.496953964233398438e-01 -3.595207595825195312e+01 3.902160329744219780e-03 8.713062405586242676e-01 2.625625133514404297e-01 -2.398450858891010284e-02
1.268000000000000000e+03 6.414243221282958984e+00 -3.551633834838867188e+01 -3.625889867544174194e-02 1.516245901584625244e-01 3.460970893502235413e-02 -5.206717643886804581e-03
1.269000000000000000e+03 6.720687747001647949e-01 -3.048723983764648438e+01 -1.038794685155153275e-02 9.033812284469604492e-01 2.678979933261871338e-01 3.494426980614662170e-02
1.270000000000000000e+03 3.210105419158935547e+00 -2.759419822692871094e+01 -1.581983417272567749e-01 4.594723880290985107e-01 9.038221091032028198e-02 3.533163666725158691e-01
1.271000000000000000e+03 6.361097097396850586e-01 1.905931282043457031e+01 2.721277269301936030e-05 -5.040788437327137217e-06 6.651595413131872192e-06 -4.379270421850378625e-07
1.272000000000000000e+03 5.963169336318969727e-01 1.342341613769531250e+01 3.673934406833723187e-05 -1.011388917504518759e-06 1.071838687494164333e-05 -4.057198566442821175e-06
1.273000000000000000e+03 5.422792434692382812e-01 7.812492370605468750e+00 2.851498902600724250e-05 1.413348513779055793e-06 8.978500773082487285e-06 -2.255690787933417596e-06
1.274000000000000000e+03 1.895748496055603027e+00 -1.647628593444824219e+01 4.163416847586631775e-02 -4.181528389453887939e-01 -1.129556000232696533e-01 -7.313343882560729980e-02
1.275000000000000000e+03 6.044977903366088867e-01 -1.923457717895507812e+01 2.030172944068908691e-02 -8.674634695053100586e-01 -2.541485130786895752e-01 2.405563369393348694e-02
1.276000000000000000e+03 5.772391557693481445e-01 -2.064582443237304688e+01 1.292674802243709564e-02 -7.649288177490234375e-01 -2.256006151437759399e-01 6.473619490861892700e-02
1.277000000000000000e+03 5.806713104248046875e-01 -2.344299507141113281e+01 1.504727173596620560e-02 -2.838617265224456787e-01 -8.064433187246322632e-02 1.304559111595153809e-01
1.278000000000000000e+03 2.328058004379272461e+00 -3.649305343627929688e+01 -3.742533270269632339e-03 6.661963462829589844e-01 1.987361311912536621e-01 -5.674644932150840759e-02
1.279000000000000000e+03 4.721851944923400879e-01 5.046196937561035156e+00 3.446488335612230003e-05 4.804861873708432540e-06 1.178092315967660397e-05 6.723786555085098371e-06
1.280000000000000000e+03 3.280431985855102539e+00 3.612903594970703125e+00 6.398041136890242342e-07 8.670589522807858884e-06 2.793118028421304189e-06 -2.204285237894509919e-06
1.281000000000000000e+03 1.711908102035522461e+00 1.048408126831054688e+01 -3.082220428041182458e-05 -2.380842488491907716e-06 -9.960913303075358272e-06 4.430650733411312103e-06
1.282000000000000000e+03 5.691197514533996582e-01 1.061387157440185547e+01 3.363831638125702739e-05 3.629545801686617779e-07 1.020038052956806496e-05 -4.858423835685243830e-06
1.283000000000000000e+03 1.791274785995483398e+00 1.325349140167236328e+01 -3.457423372310586274e-05 -1.394077685290540103e-06 -1.079049343388760462e-05 1.720237150948378257e-06
1.284000000000000000e+03 1.898914575576782227e+00 1.885411643981933594e+01 -3.137826570309698582e-05 -3.627389560278970748e-06 -1.050169612426543608e-05 -5.404554485721746460e-06
1.285000000000000000e+03 1.923734784126281738e+00 2.450229835510253906e+01 -1.645770862523932010e-05 -2.690951305339694954e-06 -5.744597729062661529e-06 -1.502366740169236436e-05
1.286000000000000000e+03 5.291276931762695312e+00 -4.028724288940429688e+01 5.765124410390853882e-02 3.575718998908996582e-01 1.245669424533843994e-01 1.258185971528291702e-02
1.287000000000000000e+03 3.918697834014892578e+00 -3.880356216430664062e+01 8.737552911043167114e-03 5.323842167854309082e-01 1.623365283012390137e-01 -3.832057490944862366e-02
1.288000000000000000e+03 2.624976873397827148e+00 -3.472674560546875000e+01 -2.251158654689788818e-02 6.323304176330566406e-01 1.829456537961959839e-01 -4.246981069445610046e-02
1.289000000000000000e+03 1.894613504409790039e+00 -3.326957321166992188e+01 -3.063135221600532532e-02 7.373206615447998047e-01 2.120067924261093140e-01 -1.654386706650257111e-02
1.290000000000000000e+03 4.384606838226318359e+00 -2.886271095275878906e+01 -2.802897095680236816e-01 3.610638380050659180e-01 2.423223666846752167e-02 2.415671944618225098e-01
1.291000000000000000e+03 2.889607906341552734e+00 -2.338265609741210938e+01 7.298785448074340820e-02 2.405997812747955322e-01 9.407629072666168213e-02 4.544529318809509277e-01
1.292000000000000000e+03 3.207737445831298828e+00 -2.620214843750000000e+01 -8.430301398038864136e-02 4.186065196990966797e-01 1.002910584211349487e-01 4.302199482917785645e-01
1.293000000000000000e+03 3.960331678390502930e+00 -2.135055732727050781e+01 2.056571096181869507e-01 4.740389585494995117e-01 2.039088159799575806e-01 3.610447645187377930e-01
1.294000000000000000e+03 1.723428249359130859e+00 -2.078473472595214844e+01 6.572476774454116821e-02 -3.183344006538391113e-01 -7.578289508819580078e-02 1.831863522529602051e-01
1.295000000000000000e+03 1.742834687232971191e+00 -1.223776531219482422e+01 -4.543815273791551590e-03 -3.200360536575317383e-01 -9.737395495176315308e-02 -1.262607276439666748e-01
1.296000000000000000e+03 5.780552029609680176e-01 -1.215377426147460938e+01 -5.351487197913229465e-04 -5.062134861946105957e-01 -1.520245969295501709e-01 -4.827502742409706116e-02
1.297000000000000000e+03 1.673581123352050781e+00 -6.913026332855224609e+00 -8.721389807760715485e-03 -1.153718233108520508e-01 -3.722796216607093811e-02 -6.906774640083312988e-02
1.298000000000000000e+03 1.613526701927185059e+00 -3.532850980758666992e+00 -1.040335651487112045e-02 -3.951328992843627930e-02 -1.497499458491802216e-02 -3.528475761413574219e-02
1.299000000000000000e+03 6.225424408912658691e-01 -5.161458969116210938e+00 -1.040923409163951874e-03 -8.009248226881027222e-02 -2.434002049267292023e-02 -2.216877229511737823e-02
1.300000000000000000e+03 3.350345230102539062e+01 -4.502902984619140625e+00 1.100865721702575684e+00 4.986651837825775146e-01 4.798592627048492432e-01 3.260577440261840820e+00
1.301000000000000000e+03 3.280736160278320312e+01 -3.947018861770629883e+00 1.047758817672729492e+00 1.715297937393188477e+00 8.289170265197753906e-01 4.762071132659912109e+00
1.302000000000000000e+03 3.360615921020507812e+01 -3.786055803298950195e+00 3.653061389923095703e-01 1.210965633392333984e+00 4.728815555572509766e-01 3.881264925003051758e+00
1.303000000000000000e+03 3.221580123901367188e+01 -8.020699501037597656e+00 1.941338300704956055e+00 2.686575889587402344e+00 1.388374209403991699e+00 -2.019185543060302734e+00
1.304000000000000000e+03 3.172385597229003906e+01 -7.469641685485839844e+00 2.231516361236572266e+00 3.958300828933715820e+00 1.856945157051086426e+00 -2.416108131408691406e+00
1.305000000000000000e+03 3.138013076782226562e+01 -7.373196125030517578e+00 1.946159005165100098e+00 5.479176044464111328e+00 2.227600574493408203e+00 -2.285662174224853516e+00
1.306000000000000000e+03 3.101294136047363281e+01 -7.377444744110107422e+00 1.570785880088806152e+00 6.833733558654785156e+00 2.521355867385864258e+00 -1.303471803665161133e+00
1.307000000000000000e+03 3.209797286987304688e+01 -7.637079715728759766e+00 2.269640207290649414e+00 2.873285770416259766e+00 1.542877793312072754e+00 -2.208174705505371094e+00
1.308000000000000000e+03 3.380101776123046875e+01 -2.920737028121948242e+00 -7.682607769966125488e-01 2.153232097625732422e+00 4.154914021492004395e-01 3.946037530899047852e+00
1.309000000000000000e+03 4.014451217651367188e+01 -9.551527023315429688e+00 1.192517653107643127e-01 1.814648211002349854e-01 9.021497517824172974e-02 -1.940354704856872559e-01
1.310000000000000000e+03 1.857903099060058594e+01 1.571404933929443359e+00 4.234827429172582924e-06 -3.105236373812658712e-06 3.388773279766610358e-07 -4.202687478027655743e-07
1.311000000000000000e+03 1.925724792480468750e+01 1.618568301200866699e+00 -3.053369937333627604e-06 1.224799234478268772e-06 -5.485711653818725608e-07 1.778312025635386817e-06
1.312000000000000000e+03 7.638279724121093750e+01 -1.614326286315917969e+01 1.622876516194082797e-05 -1.266462350031360984e-04 -3.312524131615646183e-05 1.408566549798706546e-05
1.313000000000000000e+03 7.856574249267578125e+01 -1.948655509948730469e+01 -3.379973641131073236e-04 4.751982123707421124e-05 -8.714326395420357585e-05 -3.513282354106195271e-05
1.314000000000000000e+03 7.846385955810546875e+01 -1.705946922302246094e+01 -3.965387295465916395e-04 -9.780607069842517376e-05 -1.483034429838880897e-04 -5.343725570128299296e-05
1.315000000000000000e+03 7.636914062500000000e+01 -1.696330261230468750e+01 1.442471148038748652e-05 1.173447308246977627e-04 3.953083069063723087e-05 -4.251272184774279594e-05
1.316000000000000000e+03 1.648787117004394531e+01 1.830209255218505859e+00 -3.424499936954816803e-06 -2.189799488405697048e-07 -1.093044033950718585e-06 -1.720877776278939564e-06
1.317000000000000000e+03 1.727284049987792969e+01 1.828293561935424805e+00 3.157510946039110422e-06 -1.835586886045348365e-06 3.965771782077354146e-07 2.967557009014853975e-07
1.318000000000000000e+03 1.018605041503906250e+01 -2.707579612731933594e+00 -9.557181596755981445e-02 1.993643306195735931e-02 -2.269061468541622162e-02 -1.803276129066944122e-03
1.319000000000000000e+03 3.485153579711914062e+01 -9.159633636474609375e+00 1.078216195106506348e+00 7.170206308364868164e-01 5.385710597038269043e-01 -1.153595685958862305e+00
1.320000000000000000e+03 2.833354377746582031e+01 -7.645167827606201172e+00 3.434791564941406250e+00 2.055505514144897461e+00 1.647089123725891113e+00 1.878466725349426270e+00
1.321000000000000000e+03 7.430317687988281250e+01 -1.617444038391113281e+01 1.388686796417459846e-04 7.705115422140806913e-05 6.477595161413773894e-05 6.776447116862982512e-05
1.322000000000000000e+03 7.776265716552734375e+01 -1.815320205688476562e+01 -1.313441753154620528e-04 -6.395202217390760779e-05 -5.858885924681089818e-05 2.698444950510747731e-05
1.323000000000000000e+03 6.999643707275390625e+01 -1.698893165588378906e+01 2.039061073446646333e-04 3.032318272744305432e-05 7.026878301985561848e-05 1.181085026473738253e-04
1.324000000000000000e+03 6.941924285888671875e+01 -1.134466934204101562e+01 1.057845633476972580e-02 -3.434444079175591469e-03 2.143203746527433395e-03 -6.273537874221801758e-03
1.325000000000000000e+03 7.768315887451171875e+01 -9.095729827880859375e+00 1.370337093248963356e-03 6.836486048996448517e-03 2.462046919390559196e-03 9.369065985083580017e-03
1.326000000000000000e+03 7.570036315917968750e+01 -1.107357978820800781e+01 4.554436076432466507e-03 -1.773152267560362816e-03 8.343851077370345592e-04 6.530563812702894211e-03
1.327000000000000000e+03 7.371093750000000000e+01 -1.706085777282714844e+01 2.099882403854280710e-04 4.702662408817559481e-05 7.710445788688957691e-05 4.103765604668296874e-05
1.328000000000000000e+03 3.891966629028320312e+01 -1.285831093788146973e+00 -1.743074417114257812e+00 2.674384117126464844e+00 2.793929278850555420e-01 -4.403653144836425781e-01
1.329000000000000000e+03 1.814005279541015625e+01 2.923867225646972656e+00 7.403681138384854421e-06 3.371027332832454704e-07 2.322235104657011107e-06 2.942930677818367258e-06
1.330000000000000000e+03 3.989320039749145508e+00 2.675498008728027344e+00 3.387284095879294910e-06 5.177344974072184414e-06 2.569388698248076253e-06 -4.269759756425628439e-06
1.331000000000000000e+03 4.720642566680908203e+00 2.635145902633666992e+00 -4.954065389028983191e-06 -3.251592715969309211e-06 -2.461697249600547366e-06 4.725753569800872356e-06
1.332000000000000000e+03 6.185397148132324219e+00 2.586256265640258789e+00 -3.406132009331486188e-06 -4.264419658284168690e-06 -2.301165523022064008e-06 5.430347755464026704e-06
1.333000000000000000e+03 5.513336658477783203e+00 3.367879390716552734e+00 -4.224904387228889391e-06 -2.207270199505728669e-06 -1.929652398757752962e-06 7.323640147660626099e-06
1.334000000000000000e+03 6.253642082214355469e+00 3.320614576339721680e+00 3.514741820254130289e-06 2.467429339958471246e-06 1.794651439013250638e-06 -4.764112418342847377e-06
1.335000000000000000e+03 1.062684345245361328e+01 2.419044017791748047e+00 -1.374393036712717731e-06 -1.995028469536919147e-06 -1.010826395031472202e-06 -1.550856040921644308e-06
1.336000000000000000e+03 6.994153022766113281e+00 3.289501428604125977e+00 -4.426605300977826118e-06 -2.177169108108500950e-06 -1.981132299988530576e-06 5.069189228379400447e-06
1.337000000000000000e+03 7.725182533264160156e+00 3.263716697692871094e+00 1.919654550874838606e-06 3.581040573408245109e-06 1.650208560022292659e-06 -4.485042609303491190e-06
1.338000000000000000e+03 4.779074668884277344e+00 3.428300142288208008e+00 9.011799193103797734e-06 -1.775333771547593642e-06 2.170939524148707278e-06 -6.741717243130551651e-06
1.339000000000000000e+03 1.913394093513488770e+00 2.641609907150268555e+00 -2.408837099210359156e-05 1.131482321170551586e-07 -7.192566954472567886e-06 -1.286514543608063832e-05
1.340000000000000000e+03 1.147560024261474609e+01 2.992970705032348633e+00 -2.569031721577630378e-06 1.393793354509398341e-06 -3.525715328578371555e-07 -2.211771061411127448e-06
1.341000000000000000e+03 1.089835834503173828e+01 -3.518562793731689453e+00 -7.723847776651382446e-02 1.956052333116531372e-02 -1.730338670313358307e-02 4.565041977912187576e-03
1.342000000000000000e+03 1.162962436676025391e+01 -3.600474596023559570e+00 -7.571353763341903687e-02 9.671208448708057404e-03 -1.981269940733909607e-02 3.528413828462362289e-03
1.343000000000000000e+03 1.237937450408935547e+01 -2.979873895645141602e+00 -9.317111223936080933e-02 -2.151134423911571503e-03 -2.859667316079139709e-02 2.559289336204528809e-03
1.344000000000000000e+03 9.445919036865234375e+00 -3.396265268325805664e+00 -8.175292611122131348e-02 2.917747199535369873e-02 -1.577263511717319489e-02 -1.015360001474618912e-02
1.345000000000000000e+03 1.608050346374511719e+01 4.413665294647216797e+00 -1.142446535595809110e-06 7.575197287224000320e-06 1.929825202751089819e-06 7.764374458929523826e-06
1.346000000000000000e+03 1.358603763580322266e+01 2.670504093170166016e+00 6.729391316184774041e-06 -2.884811920011998154e-06 1.153373773377097677e-06 3.574910181214363547e-07
1.347000000000000000e+03 1.212086677551269531e+01 2.202871799468994141e+00 -2.117520807587425224e-06 5.867908114964848210e-08 -6.176525175760616548e-07 -1.987695895877550356e-06
1.348000000000000000e+03 3.974056243896484375e+01 -4.774115085601806641e+00 -1.359636187553405762e+00 3.192524611949920654e-01 -3.121151328086853027e-01 -1.120685577392578125e+00
1.349000000000000000e+03 3.994254302978515625e+01 -4.165218830108642578e+00 -1.326654791831970215e+00 1.837659329175949097e-01 -3.428666591644287109e-01 -1.416663646697998047e+00
1.350000000000000000e+03 4.026885604858398438e+01 -3.473245859146118164e+00 -1.735164999961853027e+00 1.595153808593750000e-01 -4.726949036121368408e-01 -1.758849501609802246e+00
1.351000000000000000e+03 3.700605392456054688e+01 -3.599953413009643555e+00 -1.411088228225708008e+00 1.834052443504333496e+00 1.268892884254455566e-01 4.023923575878143311e-01
1.352000000000000000e+03 3.921521759033203125e+01 -3.901150703430175781e+00 -1.720162630081176758e+00 8.631381988525390625e-01 -2.571073472499847412e-01 -1.276726365089416504e+00
1.353000000000000000e+03 7.499591064453125000e+01 -1.612838745117187500e+01 -4.411283953231759369e-05 -1.158064260380342603e-04 -4.797578003490343690e-05 -6.880325963720679283e-05
1.354000000000000000e+03 7.511862945556640625e+01 -1.759366416931152344e+01 -3.886579725076444447e-05 -2.018441737163811922e-04 -7.221299165394157171e-05 -1.050326391123235226e-04
1.355000000000000000e+03 7.079784393310546875e+01 -1.673802185058593750e+01 -1.039119015331380069e-04 -6.977452721912413836e-05 -5.210593008087016642e-05 -7.275536336237564683e-05
1.356000000000000000e+03 6.982492828369140625e+01 -1.846147727966308594e+01 -1.745113986544311047e-04 8.004351548152044415e-05 -2.834036240528803319e-05 3.761916377698071301e-05
1.357000000000000000e+03 7.248925781250000000e+01 -1.805067253112792969e+01 -6.998355820542201400e-05 -2.157933777198195457e-04 -8.573308150516822934e-05 -1.139582236646674573e-04
1.358000000000000000e+03 4.142603683471679688e+01 -3.009885549545288086e+00 -1.802329659461975098e+00 -1.228207945823669434e+00 -9.091612696647644043e-01 -2.208484649658203125e+00
1.359000000000000000e+03 3.633483505249023438e+01 -3.618432760238647461e+00 -1.247284293174743652e+00 1.742522120475769043e+00 1.485713273286819458e-01 9.799416065216064453e-01
1.360000000000000000e+03 3.502307128906250000e+01 -4.257317066192626953e+00 -5.672757029533386230e-01 9.466097354888916016e-01 1.138002127408981323e-01 1.945685982704162598e+00
1.361000000000000000e+03 7.404752349853515625e+01 -1.090051555633544922e+01 7.496183272451162338e-03 -4.469831474125385284e-03 9.079055744223296642e-04 4.392648581415414810e-03
1.362000000000000000e+03 7.169554901123046875e+01 -1.103338146209716797e+01 8.560787886381149292e-03 -5.055793095380067825e-03 1.051498576998710632e-03 -1.938801375217735767e-03
1.363000000000000000e+03 7.194744873046875000e+01 -9.406994819641113281e+00 1.544335391372442245e-03 -8.094904012978076935e-03 -1.965170726180076599e-03 5.904914578422904015e-04
1.364000000000000000e+03 6.876314544677734375e+01 -1.162357139587402344e+01 7.398607209324836731e-03 -6.609901902265846729e-04 2.021285006776452065e-03 -9.857708588242530823e-03
1.365000000000000000e+03 7.016629028320312500e+01 -1.114681053161621094e+01 7.752188947051763535e-03 -3.689068835228681564e-03 1.218936056829988956e-03 -6.022231653332710266e-03
1.366000000000000000e+03 7.324687957763671875e+01 -1.026500320434570312e+01 5.996794905513525009e-03 -7.543276995420455933e-03 -4.639446269720792770e-04 3.331099171191453934e-03
1.367000000000000000e+03 7.575055694580078125e+01 -9.759879112243652344e+00 7.914733032521326095e-06 -1.744594657793641090e-03 -5.210039671510457993e-04 8.111124858260154724e-03
1.368000000000000000e+03 7.487047576904296875e+01 -1.005575180053710938e+01 4.605064168572425842e-03 -3.833596827462315559e-03 2.314402227057144046e-04 6.219470407813787460e-03
1.369000000000000000e+03 6.788883972167968750e+01 -1.087768077850341797e+01 7.804826833307743073e-03 1.876746886409819126e-03 2.904472174122929573e-03 -1.112338528037071228e-02
1.370000000000000000e+03 3.745621109008789062e+01 -1.725116920471191406e+01 -3.762202560901641846e-01 1.798460006713867188e+00 4.266719222068786621e-01 -2.660941183567047119e-01
1.371000000000000000e+03 3.487989807128906250e+01 -9.880078315734863281e+00 8.231142163276672363e-01 8.962801694869995117e-01 5.158182978630065918e-01 -1.258536338806152344e+00
1.372000000000000000e+03 3.792729187011718750e+01 -1.045687103271484375e+01 3.184996247291564941e-01 4.967606961727142334e-01 2.445781081914901733e-01 -6.575958728790283203e-01
1.373000000000000000e+03 1.389826393127441406e+01 -3.168340682983398438e+00 -8.950831741094589233e-02 -2.472519502043724060e-02 -3.427005186676979065e-02 -1.050036586821079254e-02
1.374000000000000000e+03 1.466994094848632812e+01 -3.954913139343261719e+00 -4.585073143243789673e-02 -5.378945544362068176e-02 -2.989205531775951385e-02 -2.707227133214473724e-02
1.375000000000000000e+03 1.237192821502685547e+01 -3.688387632369995117e+00 -6.590637564659118652e-02 -1.132979174144566059e-03 -2.011180669069290161e-02 1.017608866095542908e-02
1.376000000000000000e+03 1.312650775909423828e+01 -3.778205156326293945e+00 -6.255307793617248535e-02 -1.632844842970371246e-02 -2.366445958614349365e-02 -5.027932929806411266e-04
1.377000000000000000e+03 1.218890762329101562e+01 2.858462333679199219e+00 1.956741698450059630e-06 -2.898711954912869260e-06 -2.825910598858172307e-07 3.286270157332182862e-06
1.378000000000000000e+03 1.288363075256347656e+01 2.737815141677856445e+00 -6.205039426276925951e-06 3.879881660395767540e-06 -6.975473638703988399e-07 -2.708767851800075732e-06
1.379000000000000000e+03 2.809315109252929688e+01 -5.379394531250000000e+00 5.188677787780761719e+00 5.299537628889083862e-02 1.572501897811889648e+00 -3.598527908325195312e-01
1.380000000000000000e+03 2.845397567749023438e+01 -6.310819149017333984e+00 5.215027809143066406e+00 1.128085494041442871e+00 1.902933955192565918e+00 1.349739193916320801e+00
1.381000000000000000e+03 3.248088455200195312e+01 -8.399673461914062500e+00 1.657690763473510742e+00 2.307776927947998047e+00 1.189640283584594727e+00 -1.853701353073120117e+00
1.382000000000000000e+03 1.626524925231933594e+01 -4.098299980163574219e+00 -2.469456195831298828e-02 -1.065319329500198364e-01 -3.936794772744178772e-02 -8.644918352365493774e-02
1.383000000000000000e+03 1.791048622131347656e+01 -4.190438747406005859e+00 3.768363036215305328e-03 -1.762067973613739014e-01 -5.173153057694435120e-02 -1.827343404293060303e-01
1.384000000000000000e+03 1.707780838012695312e+01 -4.848691940307617188e+00 7.555591315031051636e-02 -1.753442138433456421e-01 -2.993648871779441833e-02 -1.144100651144981384e-01
1.385000000000000000e+03 3.558277893066406250e+01 -1.001514720916748047e+01 7.015764117240905762e-01 7.516422271728515625e-01 4.359655976295471191e-01 -1.113441467285156250e+00
1.386000000000000000e+03 3.632466125488281250e+01 -1.018869400024414062e+01 5.555118918418884277e-01 6.349684596061706543e-01 3.571440875530242920e-01 -9.498285651206970215e-01
1.387000000000000000e+03 1.953175544738769531e+01 -3.471286058425903320e+00 -1.426782459020614624e-01 -1.798601150512695312e-01 -9.676150977611541748e-02 -2.906779646873474121e-01
1.388000000000000000e+03 2.044802284240722656e+01 -4.128678798675537109e+00 6.973483599722385406e-03 -2.698350548744201660e-01 -7.885847240686416626e-02 -3.852105140686035156e-01
1.389000000000000000e+03 2.214029121398925781e+01 -3.927669525146484375e+00 -1.283124685287475586e-01 -2.409063130617141724e-01 -1.107656359672546387e-01 -6.212930679321289062e-01
1.390000000000000000e+03 2.203809547424316406e+01 -3.202642679214477539e+00 -4.013211429119110107e-01 -1.096382439136505127e-01 -1.532878130674362183e-01 -5.293314456939697266e-01
1.391000000000000000e+03 7.250766754150390625e+01 -1.027911853790283203e+01 4.443415440618991852e-03 -5.896764807403087616e-03 -4.360048042144626379e-04 6.040031439624726772e-04
1.392000000000000000e+03 6.442112922668457031e+00 -3.337473869323730469e+00 -6.713268905878067017e-02 1.891802623867988586e-02 -1.446439791470766068e-02 -4.721590504050254822e-02
1.393000000000000000e+03 2.454882383346557617e+00 -3.176246881484985352e+00 -2.067602239549160004e-02 -2.233864367008209229e-02 -1.290440000593662262e-02 -4.394649341702461243e-02
1.394000000000000000e+03 3.837358474731445312e+00 -7.622137069702148438e+00 -3.605316579341888428e-02 -2.135120332241058350e-02 -1.722131110727787018e-02 -1.106835827231407166e-01
1.395000000000000000e+03 7.955815792083740234e+00 -3.347501516342163086e+00 -7.802669703960418701e-02 2.828804589807987213e-02 -1.492159627377986908e-02 -2.929225377738475800e-02
1.396000000000000000e+03 5.554952144622802734e+00 -2.608435869216918945e+00 -6.226386502385139465e-02 7.881870493292808533e-03 -1.631459780037403107e-02 -4.526240378618240356e-02
1.397000000000000000e+03 5.692838668823242188e+00 -3.343133687973022461e+00 -5.950373783707618713e-02 1.071458403021097183e-02 -1.463674660772085190e-02 -5.268800258636474609e-02
1.398000000000000000e+03 1.828615069389343262e+00 -5.630706787109375000e+00 -1.080902479588985443e-02 -7.773687690496444702e-02 -2.656377106904983521e-02 -5.743653327226638794e-02
1.399000000000000000e+03 8.706570625305175781e+00 -3.364489078521728516e+00 -8.292857557535171509e-02 2.944582700729370117e-02 -1.604482531547546387e-02 -2.080865390598773956e-02
1.400000000000000000e+03 1.545849895477294922e+01 -4.031032085418701172e+00 -3.198295831680297852e-02 -7.867915183305740356e-02 -3.319863229990005493e-02 -4.155575111508369446e-02
1.401000000000000000e+03 1.081467056274414062e+01 3.756361961364746094e+00 -5.821275408379733562e-06 3.122360794804990292e-06 -8.096743613350554369e-07 -6.245702024898491800e-06
1.402000000000000000e+03 1.873965835571289062e+01 -4.200587749481201172e+00 1.492032967507839203e-02 -2.177461683750152588e-01 -6.084774807095527649e-02 -2.302962690591812134e-01
1.403000000000000000e+03 2.466762351989746094e+01 -3.531894445419311523e+00 -7.735046148300170898e-01 -1.989178657531738281e-01 -2.917267382144927979e-01 -1.392965555191040039e+00
1.404000000000000000e+03 2.457239913940429688e+01 -2.727115154266357422e+00 -1.629976391792297363e+00 1.071488484740257263e-01 -4.568482637405395508e-01 -9.418553113937377930e-01
1.405000000000000000e+03 2.683904075622558594e+01 -4.407108306884765625e+00 1.477414011955261230e+00 -1.097888588905334473e+00 1.138576045632362366e-01 -1.851475119590759277e+00
1.406000000000000000e+03 2.546796035766601562e+01 -3.400610208511352539e+00 -1.251573204994201660e+00 -5.040014386177062988e-01 -5.266723632812500000e-01 -1.785929560661315918e+00
1.407000000000000000e+03 4.109531021118164062e+01 -3.823581695556640625e+00 -1.000784873962402344e+00 -9.088238477706909180e-01 -5.728825926780700684e-01 -1.626726984977722168e+00
1.408000000000000000e+03 2.129730415344238281e+01 -4.042091369628906250e+00 -2.773122861981391907e-02 -2.492872476577758789e-01 -8.310554176568984985e-02 -4.936012923717498779e-01
1.409000000000000000e+03 2.047563171386718750e+01 -4.862149238586425781e+00 2.174514979124069214e-01 -3.312873542308807373e-01 -3.415075317025184631e-02 -3.782386183738708496e-01
1.410000000000000000e+03 2.865081787109375000e+01 -4.209099769592285156e+00 1.998251199722290039e+00 4.179807305335998535e-01 7.248696088790893555e-01 -1.718562960624694824e+00
1.411000000000000000e+03 2.899412536621093750e+01 -3.509887933731079102e+00 -9.756485223770141602e-01 5.179904103279113770e-01 -1.372974216938018799e-01 -1.801346421241760254e+00
1.412000000000000000e+03 6.849285125732421875e+01 -1.111372089385986328e+01 8.541673421859741211e-03 4.359158221632242203e-03 3.870249493047595024e-03 -8.685222826898097992e-03
1.413000000000000000e+03 2.098037528991699219e+01 -1.639564514160156250e+01 -4.252974987030029297e-01 -1.322069391608238220e-02 -1.315554529428482056e-01 4.023947119712829590e-01
1.414000000000000000e+03 2.308133316040039062e+01 -1.767054367065429688e+01 -9.399582147598266602e-01 7.381837069988250732e-02 -2.598419487476348877e-01 2.590019404888153076e-01
1.415000000000000000e+03 6.627275085449218750e+01 -6.430415153503417969e+00 -5.786991678178310394e-03 1.329290028661489487e-02 2.251772442832589149e-03 5.344373057596385479e-04
1.416000000000000000e+03 5.872690963745117188e+01 6.596094369888305664e-01 -9.832432866096496582e-01 2.944792620837688446e-02 -2.861385941505432129e-01 -1.390252262353897095e-01
1.417000000000000000e+03 5.371372985839843750e+01 3.976942777633666992e+00 -1.262037277221679688e+00 3.061814233660697937e-02 -3.694257438182830811e-01 -6.743447184562683105e-01
1.418000000000000000e+03 1.886664199829101562e+01 -1.582062149047851562e+01 -1.438781023025512695e-01 -1.214416921138763428e-01 -7.959593832492828369e-02 3.532590270042419434e-01
1.419000000000000000e+03 2.885354995727539062e+01 -1.498008441925048828e+01 -9.470137953758239746e-01 5.249418616294860840e-01 -1.266215741634368896e-01 1.449552625417709351e-01
1.420000000000000000e+03 2.771919059753417969e+01 -1.681495285034179688e+01 -1.848168373107910156e+00 1.378658562898635864e-01 -5.130907297134399414e-01 1.627566516399383545e-01
1.421000000000000000e+03 2.222205734252929688e+01 -1.552070713043212891e+01 -3.812026679515838623e-01 9.407023899257183075e-03 -1.115387007594108582e-01 5.430788993835449219e-01
1.422000000000000000e+03 1.170232105255126953e+01 1.801758575439453125e+01 -2.317480175406672060e-05 1.423199955752352253e-05 -2.682840431589283980e-06 -7.160847872000886127e-06
1.423000000000000000e+03 4.095820999145507812e+01 -1.054407310485839844e+01 4.022283852100372314e-02 2.284940481185913086e-01 8.061506599187850952e-02 -1.602923572063446045e-01
1.424000000000000000e+03 4.166387176513671875e+01 -9.613243103027343750e+00 2.421768382191658020e-03 5.730634555220603943e-02 1.791843399405479431e-02 -2.850781567394733429e-02
1.425000000000000000e+03 2.531916236877441406e+01 -3.308699798583984375e+01 -2.363959699869155884e-01 2.325786091387271881e-02 -6.394143402576446533e-02 1.583564095199108124e-02
1.426000000000000000e+03 2.474416923522949219e+01 -1.540158748626708984e+01 -6.720561385154724121e-01 1.740976721048355103e-01 -1.493875384330749512e-01 6.428020596504211426e-01
1.427000000000000000e+03 1.881856155395507812e+01 -3.350926589965820312e+01 -3.104340434074401855e-01 -4.304827749729156494e-02 -1.060446947813034058e-01 3.833250701427459717e-02
1.428000000000000000e+03 3.180716323852539062e+01 -3.008607149124145508e+00 -2.023836851119995117e+00 3.950165748596191406e+00 5.778987407684326172e-01 4.627949237823486328e+00
1.429000000000000000e+03 3.976277923583984375e+01 -1.735680007934570312e+01 -9.664241224527359009e-02 1.266159176826477051e+00 3.508550524711608887e-01 -9.247436374425888062e-02
1.430000000000000000e+03 3.823759460449218750e+01 -1.320911788940429688e+01 -4.357055947184562683e-02 9.875592589378356934e-01 2.831965982913970947e-01 -6.879994273185729980e-01
1.431000000000000000e+03 1.407301139831542969e+01 1.379724502563476562e+01 -9.301233149017207325e-06 -2.278851297887740657e-06 -3.474025334071484394e-06 4.844026079808827490e-06
1.432000000000000000e+03 1.781484794616699219e+01 -1.540318107604980469e+01 -4.047593567520380020e-03 -1.674410402774810791e-01 -5.144658684730529785e-02 3.322546184062957764e-01
1.433000000000000000e+03 2.615148162841796875e+01 -1.609916877746582031e+01 -1.165741562843322754e+00 2.205284088850021362e-01 -2.835639417171478271e-01 4.742505252361297607e-01
1.434000000000000000e+03 1.810753059387207031e+01 6.484031200408935547e+00 3.586179389003518736e-07 -4.273404556442983449e-06 -1.174436079054430593e-06 -6.473831945186248049e-06
1.435000000000000000e+03 1.713065338134765625e+01 8.864665985107421875e+00 -2.808171984725049697e-06 -3.839870259980671108e-06 -1.994412741623818874e-06 -9.013478120323270559e-06
1.436000000000000000e+03 2.097980117797851562e+01 -3.475407028198242188e+01 -2.351588159799575806e-01 -2.563311159610748291e-02 -7.823757827281951904e-02 1.944433711469173431e-02
1.437000000000000000e+03 2.268990707397460938e+01 -3.575294876098632812e+01 -1.898547112941741943e-01 -2.339217346161603928e-03 -5.765818059444427490e-02 2.124406769871711731e-02
1.438000000000000000e+03 1.179981708526611328e+01 -3.447604370117187500e+01 -1.955782175064086914e-01 -1.715368777513504028e-01 -1.101345270872116089e-01 1.422010362148284912e-01
1.439000000000000000e+03 1.467743968963623047e+01 -3.618013381958007812e+01 -1.522075086832046509e-01 -1.323114633560180664e-01 -8.535569161176681519e-02 1.025968044996261597e-01
1.440000000000000000e+03 4.020006179809570312e+01 -1.185950565338134766e+01 5.533299595117568970e-02 5.573976039886474609e-01 1.838191747665405273e-01 -3.638146221637725830e-01
1.441000000000000000e+03 4.726270675659179688e+01 -2.737406158447265625e+01 1.206635013222694397e-01 1.925398856401443481e-01 9.396101534366607666e-02 -1.846053004264831543e-01
1.442000000000000000e+03 4.760501480102539062e+01 -2.540150260925292969e+01 9.748883545398712158e-02 8.284193277359008789e-02 5.409922823309898376e-02 -1.066966801881790161e-01
1.443000000000000000e+03 7.228227996826171875e+01 -2.986108016967773438e+01 -3.406268777325749397e-03 7.407363737002015114e-04 -7.996596978046000004e-04 6.322095869109034538e-04
1.444000000000000000e+03 7.622237396240234375e+01 -3.589706802368164062e+01 3.565212828107178211e-04 -2.524063223972916603e-03 -6.502626347355544567e-04 2.038597129285335541e-03
1.445000000000000000e+03 7.393640136718750000e+01 -2.471752357482910156e+01 -2.903588174376636744e-04 -3.735558129847049713e-04 -1.991743920370936394e-04 -2.544703602325171232e-04
1.446000000000000000e+03 7.797602844238281250e+01 -2.927532958984375000e+01 -9.562822015141136944e-06 -2.962776343338191509e-04 -9.175213926937431097e-05 6.391161005012691021e-04
1.447000000000000000e+03 7.836967468261718750e+01 -2.220203208923339844e+01 -3.441268927417695522e-04 1.149543313658796251e-04 -6.875176768517121673e-05 -5.826211054227314889e-05
1.448000000000000000e+03 7.703247833251953125e+01 -2.338854789733886719e+01 -4.224279546178877354e-04 1.126293209381401539e-04 -9.293959010392427444e-05 -3.803125582635402679e-05
1.449000000000000000e+03 7.655199432373046875e+01 -3.067013549804687500e+01 -3.607012622524052858e-04 -4.398053570184856653e-04 -2.401519886916503310e-04 1.407533884048461914e-03
1.450000000000000000e+03 7.798139190673828125e+01 -3.485367202758789062e+01 1.084998002625070512e-04 -2.480807946994900703e-03 -7.116924389265477657e-04 1.144080306403338909e-03
1.451000000000000000e+03 7.712063598632812500e+01 -3.664925003051757812e+01 1.125858470913954079e-04 -3.549219574779272079e-03 -1.030990155413746834e-03 1.658875495195388794e-03
1.452000000000000000e+03 7.746031188964843750e+01 -2.066318321228027344e+01 -2.548297925386577845e-04 -5.495513687492348254e-05 -9.293547918787226081e-05 -3.366886448930017650e-05
1.453000000000000000e+03 7.734543609619140625e+01 -2.200934982299804688e+01 3.447099006734788418e-04 -3.061793177039362490e-05 9.422758739674463868e-05 -1.244097074959427118e-04
1.454000000000000000e+03 7.664253234863281250e+01 -2.922290229797363281e+01 -8.489464526064693928e-04 -3.653038293123245239e-04 -3.642750962171703577e-04 4.049890267197042704e-04
1.455000000000000000e+03 7.705333709716796875e+01 -1.706910514831542969e+01 -1.069469271897105500e-05 -1.274524402106180787e-04 -4.144413833273574710e-05 4.088483547093346715e-05
1.456000000000000000e+03 7.686056518554687500e+01 -2.633863067626953125e+01 -7.498477934859693050e-04 2.107570071530062705e-05 -2.186316269217059016e-04 -1.019424526020884514e-04
1.457000000000000000e+03 7.675525665283203125e+01 -2.777403640747070312e+01 6.106912042014300823e-05 -2.028526214417070150e-04 -4.253505176166072488e-05 6.084849010221660137e-04
1.458000000000000000e+03 7.531297302246093750e+01 -3.365521621704101562e+01 -2.107973850797861814e-04 -1.951750717125833035e-03 -6.487644277513027191e-04 2.549829659983515739e-03
1.459000000000000000e+03 7.663783264160156250e+01 -3.347591018676757812e+01 -1.888745464384555817e-04 -1.475978177040815353e-03 -4.994558403268456459e-04 1.704941969364881516e-03
1.460000000000000000e+03 7.518608856201171875e+01 -3.701239395141601562e+01 5.675709689967334270e-04 -3.751934273168444633e-03 -9.553090203553438187e-04 2.362708328291773796e-03
1.461000000000000000e+03 7.683143615722656250e+01 -3.916506576538085938e+01 6.297412910498678684e-04 -4.077119752764701843e-03 -1.034213579259812832e-03 1.049058046191930771e-03
1.462000000000000000e+03 7.546571350097656250e+01 8.829468727111816406e+00 -1.932800188660621643e-02 -2.874754667282104492e-01 -9.204103797674179077e-02 -2.061360180377960205e-01
1.463000000000000000e+03 7.676308441162109375e+01 8.747741699218750000e+00 -1.172510907053947449e-02 -3.023558855056762695e-01 -9.422429651021957397e-02 -1.550300121307373047e-01
1.464000000000000000e+03 7.554468536376953125e+01 1.594696712493896484e+01 1.892900653183460236e-02 -5.493582487106323242e-01 -1.591287702322006226e-01 -1.958742141723632812e-01
1.465000000000000000e+03 7.685530090332031250e+01 1.573240947723388672e+01 8.736442774534225464e-03 -5.986317396163940430e-01 -1.769685894250869751e-01 -1.496996581554412842e-01
1.466000000000000000e+03 7.641773223876953125e+01 2.393085670471191406e+01 1.888694986701011658e-02 -8.287959694862365723e-01 -2.429727166891098022e-01 -9.239374101161956787e-02
1.467000000000000000e+03 7.672914886474609375e+01 2.103980636596679688e+01 1.698280125856399536e-02 -7.758831977844238281e-01 -2.276701182126998901e-01 -1.139572560787200928e-01
1.468000000000000000e+03 7.558469390869140625e+01 2.978833770751953125e+01 8.385112509131431580e-03 -8.586226701736450195e-01 -2.550712525844573975e-01 -5.091199651360511780e-02
1.469000000000000000e+03 7.666164398193359375e+01 2.832776451110839844e+01 1.365348137915134430e-02 -9.211648106575012207e-01 -2.722533941268920898e-01 -4.422977939248085022e-02
1.470000000000000000e+03 7.589485168457031250e+01 3.755273437500000000e+01 2.096196264028549194e-02 -9.728438854217529297e-01 -2.855645716190338135e-01 -2.934845164418220520e-02
1.471000000000000000e+03 7.772960662841796875e+01 3.674127197265625000e+01 1.134262979030609131e-02 -1.094820141792297363e+00 -3.250432312488555908e-01 1.179233845323324203e-02
1.472000000000000000e+03 7.653939819335937500e+01 2.691274070739746094e+01 2.177381142973899841e-02 -8.894916772842407227e-01 -2.603153586387634277e-01 -6.129446253180503845e-02
1.473000000000000000e+03 7.688375091552734375e+01 1.968467330932617188e+01 1.340540405362844467e-02 -7.448374629020690918e-01 -2.194296121597290039e-01 -1.196402460336685181e-01
1.474000000000000000e+03 7.699932098388671875e+01 1.775202274322509766e+00 -2.178466692566871643e-02 -7.865835726261138916e-02 -3.013290651142597198e-02 -7.266162335872650146e-02
1.475000000000000000e+03 7.837065124511718750e+01 -3.820310831069946289e+00 -4.332682583481073380e-03 1.086282823234796524e-02 1.959043554961681366e-03 -3.529685782268643379e-03
1.476000000000000000e+03 7.456852722167968750e+01 -9.269996643066406250e+00 -1.871265470981597900e-03 -4.842620808631181717e-03 -2.014165977016091347e-03 7.083986420184373856e-03
1.477000000000000000e+03 7.733798217773437500e+01 -6.199634075164794922e+00 -4.652043804526329041e-03 3.200052073225378990e-03 -4.355975252110511065e-04 4.191396757960319519e-03
1.478000000000000000e+03 7.401282501220703125e+01 -1.017617893218994141e+01 2.285687020048499107e-03 -3.675666404888033867e-03 -4.169938038103282452e-04 4.915575496852397919e-03
1.479000000000000000e+03 7.725682830810546875e+01 -2.285552978515625000e+00 -1.398500800132751465e-02 -1.325849257409572601e-02 -8.173050358891487122e-03 -1.993927173316478729e-02
1.480000000000000000e+03 7.728153228759765625e+01 -3.628659009933471680e+00 -9.703880175948143005e-03 -5.266378633677959442e-03 -4.491077736020088196e-03 -9.162423200905323029e-03
1.481000000000000000e+03 7.811220550537109375e+01 4.439938545227050781e+00 -9.557158686220645905e-03 -1.424940824508666992e-01 -4.561537131667137146e-02 -6.962235271930694580e-02
1.482000000000000000e+03 7.789233398437500000e+01 2.388461303710937500e+01 7.086700759828090668e-03 -9.398994445800781250e-01 -2.798438370227813721e-01 -5.659451335668563843e-02
1.483000000000000000e+03 7.655831909179687500e+01 2.244841957092285156e+01 2.107570506632328033e-02 -8.012813329696655273e-01 -2.340616732835769653e-01 -1.036067977547645569e-01
1.484000000000000000e+03 7.797713470458984375e+01 3.092613601684570312e+01 4.141483921557664871e-03 -1.070542812347412109e+00 -3.199203908443450928e-01 -1.777682453393936157e-02
1.485000000000000000e+03 7.669893646240234375e+01 2.972784233093261719e+01 9.942707605659961700e-03 -9.337087273597717285e-01 -2.771297991275787354e-01 -3.595684841275215149e-02
1.486000000000000000e+03 7.432232666015625000e+01 3.512828445434570312e+01 2.342741005122661591e-02 -7.571746706962585449e-01 -2.201241850852966309e-01 -2.290241420269012451e-02
1.487000000000000000e+03 7.641321563720703125e+01 2.544338226318359375e+01 1.877029426395893097e-02 -8.568769097328186035e-01 -2.514319717884063721e-01 -7.719619572162628174e-02
1.488000000000000000e+03 7.678163146972656250e+01 1.435182189941406250e+01 7.775914855301380157e-03 -5.390613079071044922e-01 -1.593856066465377808e-01 -1.590767353773117065e-01
1.489000000000000000e+03 7.678549194335937500e+01 7.349542140960693359e+00 -1.486330572515726089e-02 -2.492445856332778931e-01 -7.923236489295959473e-02 -1.444839537143707275e-01
1.490000000000000000e+03 7.712054443359375000e+01 4.211446046829223633e-01 -2.136774733662605286e-02 -4.975504428148269653e-02 -2.133683674037456512e-02 -5.200084298849105835e-02
1.491000000000000000e+03 1.702540397644042969e+01 3.480294704437255859e+00 4.551567599264672026e-06 7.243495019793044776e-06 3.538518967616255395e-06 2.682120566532830708e-06
1.492000000000000000e+03 4.267842483520507812e+01 1.497670173645019531e+01 4.625182151794433594e-01 3.784234762191772461e+00 1.274025917053222656e+00 9.288445711135864258e-01
1.493000000000000000e+03 4.431582260131835938e+01 1.782319450378417969e+01 3.915924429893493652e-01 2.799083948135375977e+00 9.572029113769531250e-01 6.483464837074279785e-01
1.494000000000000000e+03 4.011396789550781250e+01 -2.422610092163085938e+01 3.553537726402282715e-01 1.170540571212768555e+00 4.577682912349700928e-01 -3.105943202972412109e-01
1.495000000000000000e+03 4.461009597778320312e+01 -2.589402198791503906e+01 2.224135398864746094e-01 3.590654730796813965e-01 1.744437068700790405e-01 -2.665493488311767578e-01
1.496000000000000000e+03 7.137438201904296875e+01 -2.356117630004882812e+01 4.002550558652728796e-04 1.296465779887512326e-04 1.589704916113987565e-04 3.506167849991470575e-04
1.497000000000000000e+03 4.806718444824218750e+01 -3.234571838378906250e+01 8.427756838500499725e-03 3.254834115505218506e-01 1.001733541488647461e-01 -1.830520927906036377e-01
1.498000000000000000e+03 5.218057632446289062e+01 -3.331728363037109375e+01 7.159020751714706421e-03 1.538810282945632935e-01 4.831201583147048950e-02 -8.872985094785690308e-02
1.499000000000000000e+03 1.418857955932617188e+01 3.046999740600585938e+01 3.153576108161360025e-04 -1.897479087347164750e-04 3.768290844163857400e-05 -4.984143379260785878e-05
1.500000000000000000e+03 4.658852767944335938e+01 -2.942000198364257812e+01 9.369568526744842529e-02 3.232349157333374023e-01 1.250791847705841064e-01 -2.393509149551391602e-01
1.501000000000000000e+03 4.437654495239257812e+01 2.079817199707031250e+01 1.999599933624267578e-01 2.609128713607788086e+00 8.427265882492065430e-01 3.441597521305084229e-01
1.502000000000000000e+03 4.364860534667968750e+01 1.332635402679443359e+01 8.474282622337341309e-01 3.247979879379272461e+00 1.228622436523437500e+00 1.282716035842895508e+00
1.503000000000000000e+03 4.411549758911132812e+01 2.504634857177734375e+01 1.722000986337661743e-01 2.446609973907470703e+00 7.856429815292358398e-01 -4.171716980636119843e-03
1.504000000000000000e+03 4.412351989746093750e+01 2.653099632263183594e+01 2.682066261768341064e-01 2.297017812728881836e+00 7.695673704147338867e-01 -7.005532085895538330e-02
1.505000000000000000e+03 3.637559890747070312e+01 3.719680786132812500e+01 2.009533159434795380e-02 3.326233327388763428e-01 1.058155968785285950e-01 -1.646472662687301636e-01
1.506000000000000000e+03 4.647275924682617188e+01 -2.625088119506835938e+01 1.596388965845108032e-01 1.960277259349822998e-01 1.066999882459640503e-01 -1.814464926719665527e-01
1.507000000000000000e+03 1.503566169738769531e+01 1.117112922668457031e+01 -8.970070666691754013e-06 3.295783471912727691e-06 -1.702286226645810530e-06 7.508702310587977991e-06
1.508000000000000000e+03 7.186129760742187500e+01 -1.817967033386230469e+01 1.914819877129048109e-04 8.408923167735338211e-05 8.267136581707745790e-05 9.765384311322122812e-05
1.509000000000000000e+03 4.302257156372070312e+01 2.078503227233886719e+01 7.726886123418807983e-02 2.884233236312866211e+00 8.884506225585937500e-01 2.279700338840484619e-01
1.510000000000000000e+03 4.422436141967773438e+01 2.364047622680664062e+01 1.432379484176635742e-01 2.498537540435791016e+00 7.925326228141784668e-01 1.168225780129432678e-01
1.511000000000000000e+03 4.524689102172851562e+01 2.503792762756347656e+01 2.496544867753982544e-01 2.209367036819458008e+00 7.377064824104309082e-01 6.634353846311569214e-02
1.512000000000000000e+03 4.295164871215820312e+01 2.361985588073730469e+01 6.710436940193176270e-02 2.706550836563110352e+00 8.320965170860290527e-01 5.535976588726043701e-02
1.513000000000000000e+03 5.043742656707763672e+00 3.205425262451171875e+01 -3.450978692853823304e-05 3.995475708507001400e-05 1.633491820030030794e-06 -8.805841935100033879e-05
1.514000000000000000e+03 2.355046272277832031e+00 3.563467788696289062e+01 -8.227631951740477234e-06 1.178874736069701612e-04 3.289795495220459998e-05 -2.447114093229174614e-05
1.515000000000000000e+03 3.357306957244873047e+00 3.112112426757812500e+01 -3.610378189478069544e-05 6.474759720731526613e-05 8.593144229962490499e-06 -6.410080095520243049e-05
1.516000000000000000e+03 1.864421486854553223e+00 2.728564643859863281e+01 -1.465672266931505874e-05 1.384897313982946798e-05 -2.423246598937112140e-07 -1.764107219059951603e-05
1.517000000000000000e+03 3.176874876022338867e+00 2.437674522399902344e+01 3.286901483079418540e-05 2.239619607280474156e-05 1.657956272538285702e-05 3.957256012654397637e-06
1.518000000000000000e+03 5.038855552673339844e+00 3.744364166259765625e+01 7.521329825976863503e-05 -9.447017509955912828e-05 -5.777062597189797089e-06 -1.921600342029705644e-04
1.519000000000000000e+03 2.319607257843017578e+00 3.426269149780273438e+01 3.237616738260840066e-06 1.736600388539955020e-04 5.306929597281850874e-05 -7.607657607877627015e-05
1.520000000000000000e+03 3.930890560150146484e+00 3.397705841064453125e+01 8.141287253238260746e-06 -4.363052357803098857e-05 -1.064677144313463941e-05 -1.203238934976980090e-04
1.521000000000000000e+03 4.525473117828369141e+00 3.071325874328613281e+01 7.338086288655176759e-05 1.013737346511334181e-05 2.505547126929741353e-05 -6.394821684807538986e-05
1.522000000000000000e+03 3.664670467376708984e+00 3.251966094970703125e+01 8.386417903238907456e-05 6.042139648343436420e-05 4.328567229094915092e-05 -3.901317541021853685e-05
1.523000000000000000e+03 3.428322553634643555e+00 -3.543651962280273438e+01 -2.532628923654556274e-02 5.319483280181884766e-01 1.519866138696670532e-01 -5.250863358378410339e-02
1.524000000000000000e+03 1.976673960685729980e+00 -2.905521392822265625e+01 -8.741171658039093018e-02 6.027120947837829590e-01 1.545901149511337280e-01 1.899770349264144897e-01
1.525000000000000000e+03 1.698895215988159180e+00 -3.448698043823242188e+01 -9.212272241711616516e-03 7.601657509803771973e-01 2.252860516309738159e-01 -3.414038196206092834e-02
1.526000000000000000e+03 5.376407623291015625e+00 -3.359413909912109375e+01 -1.053028106689453125e-01 2.563544809818267822e-01 4.531550034880638123e-02 1.817379333078861237e-02
1.527000000000000000e+03 1.927510857582092285e+00 2.168638992309570312e+01 -2.459164898027665913e-05 -3.609561872508493252e-06 -8.460363460471853614e-06 -1.087780219677370042e-05
1.528000000000000000e+03 2.037585258483886719e+00 -3.048816680908203125e+01 -7.349584996700286865e-02 6.746286749839782715e-01 1.803398430347442627e-01 9.353247284889221191e-02
1.529000000000000000e+03 3.116543054580688477e+00 1.729000473022460938e+01 -3.665644908323884010e-05 -6.052285357327491511e-07 -1.117850297305267304e-05 -8.181325028999708593e-06
1.530000000000000000e+03 2.916387796401977539e+00 1.176113605499267578e+01 -3.295331407571211457e-05 7.363477152466657571e-07 -9.665090146881993860e-06 2.131904466295964085e-06
1.531000000000000000e+03 2.845834016799926758e+00 -1.097407913208007812e+01 -1.919954828917980194e-02 -1.181718707084655762e-01 -4.121142625808715820e-02 -1.484566628932952881e-01
1.532000000000000000e+03 2.557005882263183594e+00 4.859642505645751953e+00 1.291363059863215312e-05 3.469239970854687272e-07 3.978166660090209916e-06 -6.460380973294377327e-06
1.533000000000000000e+03 2.797139883041381836e+00 9.052248954772949219e+00 -2.874073470593430102e-05 -3.702327148857875727e-06 -9.732918442750815302e-06 4.349265509517863393e-06
1.534000000000000000e+03 1.824866056442260742e+00 1.465362453460693359e+01 3.511529939714819193e-05 -1.534303351036214735e-06 1.007429909805068746e-05 2.174902192564331926e-06
1.535000000000000000e+03 3.081237554550170898e+00 1.590812110900878906e+01 3.623236261773854494e-05 -1.281765776184329297e-06 1.048517970048123971e-05 8.392052222916390747e-06
1.536000000000000000e+03 1.741410493850708008e+00 -2.347350502014160156e+01 2.561544999480247498e-02 4.000902641564607620e-03 8.884905837476253510e-03 3.252428770065307617e-01
1.537000000000000000e+03 2.713874578475952148e+00 -2.224015235900878906e+01 1.027861833572387695e-01 1.088239699602127075e-01 6.348304450511932373e-02 3.558192253112792969e-01
1.538000000000000000e+03 1.844245553016662598e+00 -1.503135681152343750e+01 2.804372832179069519e-02 -4.001684188842773438e-01 -1.116374060511589050e-01 -1.131208837032318115e-01
1.539000000000000000e+03 2.931737422943115234e+00 -1.228636646270751953e+01 -1.571664027869701385e-02 -1.243141144514083862e-01 -4.200922697782516479e-02 -1.617717295885086060e-01
1.540000000000000000e+03 1.631929516792297363e+00 -8.220400810241699219e+00 -1.127247232943773270e-02 -1.615598350763320923e-01 -5.184969305992126465e-02 -8.054631203413009644e-02
1.541000000000000000e+03 5.111062526702880859e+00 -4.075104713439941406e+00 -4.988377541303634644e-02 7.091608364135026932e-03 -1.283765025436878204e-02 -6.350229680538177490e-02
1.542000000000000000e+03 2.851714134216308594e+00 1.040405941009521484e+01 3.002254743478260934e-05 6.973647828090179246e-07 9.215973477694205940e-06 -2.600387233542278409e-06
1.543000000000000000e+03 2.769928455352783203e+00 -7.285320281982421875e+00 -2.478323318064212799e-02 -7.479143887758255005e-02 -2.987240254878997803e-02 -9.622908383607864380e-02
1.544000000000000000e+03 2.290485382080078125e+00 -4.666457176208496094e+00 -1.424084324389696121e-02 -4.593466967344284058e-02 -1.805265434086322784e-02 -5.643905326724052429e-02
1.545000000000000000e+03 3.190119504928588867e+00 -1.809616279602050781e+01 1.571713984012603760e-01 2.732818387448787689e-02 5.534987524151802063e-02 5.615829676389694214e-02
1.546000000000000000e+03 3.055190801620483398e+00 -1.504287242889404297e+01 4.561506211757659912e-02 -1.072834134101867676e-01 -1.850050501525402069e-02 -1.324188411235809326e-01
1.547000000000000000e+03 1.855542182922363281e+00 -2.482625579833984375e+01 -3.125942312180995941e-03 1.787958145141601562e-01 5.270095914602279663e-02 3.558984100818634033e-01
1.548000000000000000e+03 3.651420354843139648e+00 -2.266118240356445312e+01 1.483546942472457886e-01 3.927466869354248047e-01 1.623304188251495361e-01 4.378438293933868408e-01
1.549000000000000000e+03 3.166571855545043945e+00 -2.472211647033691406e+01 -1.406986080110073090e-02 3.690174818038940430e-01 1.064842790365219116e-01 4.670456051826477051e-01
1.550000000000000000e+03 1.913228154182434082e+00 -2.622670745849609375e+01 -3.997314348816871643e-02 3.618064820766448975e-01 9.654999524354934692e-02 3.427266180515289307e-01
1.551000000000000000e+03 1.915674209594726562e+00 2.027259826660156250e+01 3.042526441277004778e-05 -1.562509964969649445e-06 8.658826118335127831e-06 7.996900421858299524e-06
1.552000000000000000e+03 3.181161403656005859e+00 2.154528236389160156e+01 3.762868072954006493e-05 4.231648290442535654e-06 1.255809911526739597e-05 1.435674585081869736e-05
1.553000000000000000e+03 2.760653257369995117e+00 -9.700303077697753906e+00 -2.688746899366378784e-02 -1.108168587088584900e-01 -4.131129756569862366e-02 -1.306874752044677734e-01
1.554000000000000000e+03 2.724279403686523438e+00 -8.463613510131835938e+00 -2.293025888502597809e-02 -9.343960881233215332e-02 -3.491095826029777527e-02 -1.136499494314193726e-01
1.555000000000000000e+03 4.339144229888916016e+00 -3.629422378540039062e+01 -2.289896085858345032e-02 4.341229498386383057e-01 1.233671978116035461e-01 -4.815047979354858398e-02
1.556000000000000000e+03 2.983169555664062500e+00 1.312832832336425781e+01 3.365998054505325854e-05 -2.410564093224820681e-06 9.374824912811163813e-06 2.126446815964300185e-06
1.557000000000000000e+03 3.038146018981933594e+00 1.451915168762207031e+01 -3.548853419488295913e-05 9.199429769068956375e-07 -1.037057700159493834e-05 -2.921302666436531581e-06
1.558000000000000000e+03 3.193633079528808594e+00 2.296049308776855469e+01 -2.451030013617128134e-05 -5.778357262897770852e-06 -9.086596946872305125e-06 -2.456172296660952270e-05
1.559000000000000000e+03 3.142070293426513672e+00 1.869865417480468750e+01 3.678542634588666260e-05 4.391145296267495723e-07 1.116736257245065644e-05 1.257935309695312753e-05
1.560000000000000000e+03 4.345114707946777344e+00 1.718896484375000000e+01 3.891776214004494250e-05 1.610787876415997744e-07 1.172365227830596268e-05 1.295484617003239691e-05
1.561000000000000000e+03 1.822796106338500977e+00 -3.550975799560546875e+01 -1.129155512899160385e-02 7.335021495819091797e-01 2.166631668806076050e-01 -4.982586950063705444e-02
1.562000000000000000e+03 3.213624238967895508e+00 -3.351219940185546875e+01 -5.143964290618896484e-02 5.408970117568969727e-01 1.468372046947479248e-01 -1.061310805380344391e-02
1.563000000000000000e+03 6.344425201416015625e+00 -3.153620147705078125e+01 -2.657189965248107910e-01 1.291372328996658325e-01 -4.097453132271766663e-02 7.342907786369323730e-02
1.564000000000000000e+03 2.856215476989746094e+00 -2.099486160278320312e+01 1.444221585988998413e-01 6.677536666393280029e-02 6.335925310850143433e-02 3.044972419738769531e-01
1.565000000000000000e+03 5.709571838378906250e+00 -1.904146385192871094e+01 4.461456239223480225e-01 9.834032654762268066e-01 4.288646578788757324e-01 4.369173943996429443e-01
1.566000000000000000e+03 2.994247436523437500e+00 -1.364221668243408203e+01 1.636033877730369568e-02 -1.188264638185501099e-01 -3.073983639478683472e-02 -1.535410434007644653e-01
1.567000000000000000e+03 4.436017608642578125e+01 1.932110786437988281e+01 2.669356465339660645e-01 2.672292709350585938e+00 8.817684650421142578e-01 4.756244421005249023e-01
1.568000000000000000e+03 3.656717681884765625e+01 -2.491103744506835938e+01 4.376282989978790283e-01 2.198551654815673828e+00 7.908540368080139160e-01 1.706543751060962677e-02
1.569000000000000000e+03 3.485879135131835938e+01 -2.761430549621582031e+01 1.786795854568481445e-01 1.821689963340759277e+00 6.001108884811401367e-01 4.771112203598022461e-01
1.570000000000000000e+03 4.305944061279296875e+01 1.030399703979492188e+01 1.449431180953979492e+00 3.403600454330444336e+00 1.455909490585327148e+00 1.945540189743041992e+00
1.571000000000000000e+03 7.057448577880859375e+01 -1.854432868957519531e+01 2.716210437938570976e-04 5.166881601326167583e-05 9.698695794213563204e-05 2.987791958730667830e-04
1.572000000000000000e+03 6.804975128173828125e+01 -9.202260971069335938e+00 3.229036927223205566e-03 -3.848039079457521439e-03 -1.857006136560812593e-04 -1.248671393841505051e-02
1.573000000000000000e+03 7.097560119628906250e+01 -1.014381599426269531e+01 5.857883952558040619e-03 -7.630807347595691681e-03 -5.318769253790378571e-04 -3.205520100891590118e-03
1.574000000000000000e+03 4.501340103149414062e+01 3.131430053710937500e+01 1.873763352632522583e-01 1.778220772743225098e+00 5.896791219711303711e-01 3.458452969789505005e-02
1.575000000000000000e+03 7.113213348388671875e+01 -2.210434532165527344e+01 -4.016265447717159986e-04 -1.213909199577756226e-04 -1.569052401464432478e-04 -1.671020145295187831e-04
1.576000000000000000e+03 4.359653091430664062e+01 -2.314065933227539062e+01 2.213762253522872925e-01 3.980537652969360352e-01 1.858289986848831177e-01 -2.272616773843765259e-01
1.577000000000000000e+03 4.471025466918945312e+01 -2.412901306152343750e+01 2.018976062536239624e-01 2.612836360931396484e-01 1.389543712139129639e-01 -2.033716738224029541e-01
1.578000000000000000e+03 8.971491813659667969e+00 -1.408612632751464844e+01 2.659963369369506836e-01 4.891366064548492432e-01 2.265398800373077393e-01 2.507609128952026367e-01
1.579000000000000000e+03 1.553019046783447266e+01 9.913722991943359375e+00 8.458418960799463093e-06 -5.142119789525168017e-06 9.948897741196560673e-07 -7.406372333207400516e-06
1.580000000000000000e+03 1.611139488220214844e+01 -3.378383636474609375e+01 -3.105696737766265869e-01 -7.855487614870071411e-02 -1.167373657226562500e-01 8.879503607749938965e-02
1.581000000000000000e+03 5.357049179077148438e+01 -3.403953933715820312e+01 -6.351297255605459213e-03 1.264650821685791016e-01 3.603413701057434082e-02 -6.496551632881164551e-02
1.582000000000000000e+03 3.551855850219726562e+01 -3.024625205993652344e+01 -1.421934366226196289e-01 1.276069760322570801e+00 3.401629030704498291e-01 9.071671962738037109e-02
1.583000000000000000e+03 5.199264144897460938e+01 1.609141707420349121e+00 -2.345348596572875977e+00 2.182089984416961670e-01 -6.381418704986572266e-01 -1.009982153773307800e-01
1.584000000000000000e+03 5.190720748901367188e+01 5.373232364654541016e+00 -8.764519691467285156e-01 -2.293016761541366577e-01 -3.317261040210723877e-01 -9.109585881233215332e-01
1.585000000000000000e+03 2.910444068908691406e+01 -3.304125213623046875e+01 -1.298912316560745239e-01 2.049674838781356812e-01 2.252287790179252625e-02 1.801407337188720703e-01
1.586000000000000000e+03 1.454699897766113281e+01 1.246223545074462891e+01 9.135411346505861729e-06 -2.604459496069466695e-06 1.959285782504593953e-06 -7.593091595481382683e-06
1.587000000000000000e+03 4.535790443420410156e+00 -2.477027893066406250e+01 6.164674647152423859e-03 5.051560401916503906e-01 1.533962190151214600e-01 4.653006792068481445e-01
1.588000000000000000e+03 4.717907428741455078e+00 -2.323888778686523438e+01 1.201954334974288940e-01 7.119667530059814453e-01 2.496486604213714600e-01 4.206454455852508545e-01
1.589000000000000000e+03 2.476961517333984375e+01 -3.644425201416015625e+01 -1.549396365880966187e-01 7.514458894729614258e-02 -2.393851429224014282e-02 5.341668426990509033e-02
1.590000000000000000e+03 2.805008697509765625e+01 -1.540763378143310547e+01 -1.067984461784362793e+00 3.409039378166198730e-01 -2.181241363286972046e-01 2.317657321691513062e-01
1.591000000000000000e+03 3.942317199707031250e+01 3.534847021102905273e+00 2.104157209396362305e+00 6.059021949768066406e+00 2.448953628540039062e+00 3.067229986190795898e+00
1.592000000000000000e+03 1.612190055847167969e+01 3.892853498458862305e+00 4.380042355478508398e-06 2.370537913520820439e-06 2.025174126174533740e-06 -2.614855702631757595e-06
1.593000000000000000e+03 1.726086616516113281e+01 2.684944391250610352e+00 -4.955714302923297510e-06 -2.429659843983245082e-06 -2.215612312284065410e-06 -2.736481519605149515e-06
1.594000000000000000e+03 5.441176223754882812e+01 6.524801850318908691e-01 -1.570927500724792480e+00 8.160362392663955688e-02 -4.467971622943878174e-01 6.046629324555397034e-02
1.595000000000000000e+03 1.010210132598876953e+01 -3.268941116333007812e+01 -3.107084035873413086e-01 -2.293138802051544189e-01 -1.620066761970520020e-01 1.810912787914276123e-01
1.596000000000000000e+03 1.382983398437500000e+01 2.875336074829101562e+01 1.517368655186146498e-04 8.659524610266089439e-06 4.811891631106846035e-05 1.542228856123983860e-04
1.597000000000000000e+03 1.653066635131835938e+01 7.547018527984619141e+00 6.153150479804025963e-06 -3.887917955580633134e-06 6.795697800043853931e-07 -8.855866326484829187e-06
1.598000000000000000e+03 1.699467468261718750e+01 6.477498531341552734e+00 -4.756770067615434527e-06 6.352231139317154884e-06 4.786382419297297020e-07 9.193162441079039127e-06
1.599000000000000000e+03 4.805347061157226562e+01 -2.854296493530273438e+01 9.560449421405792236e-02 2.018470615148544312e-01 8.923546224832534790e-02 -1.613607555627822876e-01
1.600000000000000000e+03 4.888518142700195312e+01 -2.978276062011718750e+01 6.480167806148529053e-02 1.946894377470016479e-01 7.784733921289443970e-02 -1.522735953330993652e-01
1.601000000000000000e+03 4.194824981689453125e+01 -1.890043830871582031e+01 -7.384786847978830338e-03 7.270620465278625488e-01 2.159031778573989868e-01 -6.712234020233154297e-02
1.602000000000000000e+03 1.363131523132324219e+01 1.518292522430419922e+01 7.050659405649639666e-06 5.247745320957619697e-06 3.689521463456912898e-06 -6.551558271894464269e-06
1.603000000000000000e+03 2.142840957641601562e+01 4.133419418334960938e+01 1.962326001375913620e-03 -2.128284424543380737e-03 -4.978750439477153122e-05 1.022608950734138489e-03
1.604000000000000000e+03 1.961812591552734375e+01 3.922632217407226562e+01 -2.712511690333485603e-03 -1.740907784551382065e-03 -1.336025772616267204e-03 7.173041813075542450e-04
1.605000000000000000e+03 4.104811859130859375e+01 7.798317432403564453e+00 1.980591535568237305e+00 5.925838470458984375e+00 2.371928930282592773e+00 3.002828359603881836e+00
1.606000000000000000e+03 3.389496612548828125e+01 -1.818873167037963867e+00 -1.033037543296813965e+00 2.901467323303222656e+00 5.605289340019226074e-01 3.107374191284179688e+00
1.607000000000000000e+03 6.924099731445312500e+01 -3.377811431884765625e+01 -5.505668930709362030e-03 1.034654560498893261e-03 -1.341304392553865910e-03 4.860064014792442322e-03
1.608000000000000000e+03 3.225577163696289062e+01 4.124124908447265625e+01 5.462737008929252625e-02 9.518493711948394775e-02 4.494369402527809143e-02 -8.257033303380012512e-03
1.609000000000000000e+03 5.039389133453369141e+00 -2.179415130615234375e+01 2.452378123998641968e-01 9.020015001296997070e-01 3.441717922687530518e-01 4.093098640441894531e-01
1.610000000000000000e+03 5.338237762451171875e+00 -2.039449119567871094e+01 2.803005278110504150e-01 9.976347088813781738e-01 3.833805620670318604e-01 4.024413824081420898e-01
1.611000000000000000e+03 4.279963684082031250e+01 1.424021244049072266e+00 -2.672677040100097656e+00 -9.962065219879150391e-01 -1.100665092468261719e+00 -5.328381061553955078e-01
1.612000000000000000e+03 6.143616676330566406e+00 -1.779834938049316406e+01 4.871436059474945068e-01 8.149341940879821777e-01 3.906233310699462891e-01 2.871214747428894043e-01
1.613000000000000000e+03 4.270576858520507812e+01 8.725205421447753906e+00 1.950904250144958496e+00 3.346072912216186523e+00 1.589093208312988281e+00 2.271596670150756836e+00
1.614000000000000000e+03 1.290855312347412109e+01 1.963449478149414062e+01 -8.893032827472779900e-06 1.177212743641575798e-05 8.637282462586881593e-07 -5.011174266655871179e-07
1.615000000000000000e+03 1.300868415832519531e+01 1.812138938903808594e+01 7.117708719306392595e-06 -4.072375304531306028e-06 9.136000471698935144e-07 2.596282911326852627e-06
1.616000000000000000e+03 4.290718460083007812e+01 2.625139236450195312e+00 -1.627475857734680176e+00 -4.561162292957305908e-01 -6.250776052474975586e-01 1.845503747463226318e-01
1.617000000000000000e+03 4.554753875732421875e+01 2.654067993164062500e+00 -2.571372985839843750e+00 -2.993473529815673828e+00 -1.669453978538513184e+00 -1.131440401077270508e+00
1.618000000000000000e+03 7.042272186279296875e+01 -2.742892265319824219e+01 -7.880974444560706615e-04 -3.577432289603166282e-05 -2.471615443937480450e-04 -4.340772284194827080e-04
1.619000000000000000e+03 4.393639373779296875e+01 1.482500839233398438e+01 6.908518671989440918e-01 3.050847291946411133e+00 1.122509717941284180e+00 1.005258798599243164e+00
1.620000000000000000e+03 4.574587631225585938e+01 1.779975128173828125e+01 5.459278821945190430e-01 2.254318714141845703e+00 8.400740027427673340e-01 6.701299548149108887e-01
1.621000000000000000e+03 4.396711730957031250e+01 2.812685775756835938e+01 3.150642514228820801e-01 2.228045225143432617e+00 7.629328370094299316e-01 -1.044248864054679871e-01
1.622000000000000000e+03 1.431524944305419922e+01 3.218365859985351562e+01 -6.420190038625150919e-05 8.968062502390239388e-06 -1.657015127420891076e-05 -1.209755373565712944e-05
1.623000000000000000e+03 1.578585624694824219e+01 3.263861465454101562e+01 8.127611363306641579e-04 -2.727491082623600960e-04 1.620036200620234013e-04 1.287816121475771070e-04
1.624000000000000000e+03 3.876176071166992188e+01 -2.112113952636718750e+00 -1.837944030761718750e+00 2.446556568145751953e+00 1.825837790966033936e-01 -6.050118207931518555e-01
1.625000000000000000e+03 1.488316440582275391e+01 -1.195758724212646484e+01 3.080715537071228027e-01 -1.450483947992324829e-01 4.890695214271545410e-02 3.375160992145538330e-01
1.626000000000000000e+03 1.574171352386474609e+01 -1.427071857452392578e+01 2.337888777256011963e-01 -1.773777306079864502e-01 1.692334562540054321e-02 3.391162455081939697e-01
1.627000000000000000e+03 4.199366569519042969e+00 -1.995280265808105469e+01 2.745255231857299805e-01 4.692620337009429932e-01 2.231362611055374146e-01 3.082040250301361084e-01
1.628000000000000000e+03 4.005189895629882812e+01 3.865047073364257812e+01 -1.876626461744308472e-01 1.076728940010070801e+00 2.667199075222015381e-01 -1.805245131254196167e-01
1.629000000000000000e+03 6.405854797363281250e+01 -1.303161025047302246e+00 -4.339292347431182861e-01 7.714653760194778442e-02 -1.070348098874092102e-01 -5.104196071624755859e-02
1.630000000000000000e+03 4.289581680297851562e+01 -2.419978523254394531e+01 2.710570394992828369e-01 5.585838556289672852e-01 2.488922774791717529e-01 -2.750029861927032471e-01
1.631000000000000000e+03 4.418284225463867188e+01 1.632295417785644531e+01 5.284002423286437988e-01 2.901379108428955078e+00 1.028933763504028320e+00 8.251337409019470215e-01
1.632000000000000000e+03 1.325377655029296875e+01 2.561451148986816406e+01 3.756579098990187049e-05 2.359801328566391021e-05 1.834914110077079386e-05 6.567072705365717411e-05
1.633000000000000000e+03 6.228555297851562500e+01 -3.459526443481445312e+01 -1.352299936115741730e-02 1.016671187244355679e-03 -3.751898650079965591e-03 1.473020762205123901e-02
1.634000000000000000e+03 6.533956146240234375e+01 -3.391835021972656250e+01 -1.466235984116792679e-02 2.968894084915518761e-03 -3.508039750158786774e-03 8.428568020462989807e-03
1.635000000000000000e+03 4.011293792724609375e+01 7.345126867294311523e-01 -1.358402490615844727e+00 3.086848258972167969e+00 5.185337662696838379e-01 2.594986855983734131e-01
1.636000000000000000e+03 4.155243682861328125e+01 3.700195550918579102e+00 8.958661556243896484e-01 2.525084972381591797e+00 1.026285290718078613e+00 1.739713430404663086e+00
1.637000000000000000e+03 5.181825637817382812e+01 3.507447481155395508e+00 -1.737849831581115723e+00 -2.250339277088642120e-02 -5.281059741973876953e-01 -7.944086194038391113e-01
1.638000000000000000e+03 3.771754837036132812e+01 -3.632698535919189453e+00 -1.624229669570922852e+00 1.588981509208679199e+00 -1.057443302124738693e-02 -2.215824127197265625e-01
1.639000000000000000e+03 1.410574340820312500e+01 2.257064056396484375e+01 -1.431750752090010792e-05 -3.757793365366524085e-06 -5.422590220405254513e-06 -2.390064310020534322e-06
1.640000000000000000e+03 2.804825019836425781e+01 -3.198581457138061523e+00 -2.754838705062866211e+00 -8.963100314140319824e-01 -1.095344662666320801e+00 -2.502265691757202148e+00
1.641000000000000000e+03 2.626247787475585938e+01 -3.259844779968261719e+00 -1.374232888221740723e+00 -5.527895092964172363e-01 -5.781067013740539551e-01 -1.798081636428833008e+00
1.642000000000000000e+03 3.510858917236328125e+01 -3.350818634033203125e+01 -2.649987936019897461e-01 9.453366398811340332e-01 2.041013538837432861e-01 8.238178491592407227e-02
1.643000000000000000e+03 5.623569488525390625e+01 1.376249551773071289e+00 -1.267271280288696289e+00 6.125345081090927124e-02 -3.618053197860717773e-01 -1.515260934829711914e-01
1.644000000000000000e+03 7.112381744384765625e+01 -2.597662353515625000e+01 -8.206059574149549007e-04 8.106689347187057137e-05 -2.218617155449464917e-04 5.976024840492755175e-05
1.645000000000000000e+03 4.013067245483398438e+01 3.461576080322265625e+01 7.137962151318788528e-03 1.361519217491149902e+00 4.105971753597259521e-01 -3.658772706985473633e-01
1.646000000000000000e+03 6.904337310791015625e+01 -3.026586151123046875e+01 -4.174781031906604767e-03 1.167344045825302601e-03 -9.022310259751975536e-04 8.286079537356272340e-05
1.647000000000000000e+03 5.377104282379150391e+00 -2.904593467712402344e+01 -3.437116444110870361e-01 2.112541198730468750e-01 -3.973726183176040649e-02 2.315683960914611816e-01
1.648000000000000000e+03 4.495373249053955078e+00 -2.759479713439941406e+01 -2.333389818668365479e-01 4.224555790424346924e-01 5.673497915267944336e-02 3.325614035129547119e-01
1.649000000000000000e+03 3.573971939086914062e+01 -2.783323478698730469e+01 6.816315650939941406e-02 1.680911898612976074e+00 5.247225165367126465e-01 2.846345119178295135e-02
1.650000000000000000e+03 3.817812728881835938e+01 3.591753542423248291e-01 1.235674247145652771e-01 4.819005012512207031e+00 1.482771754264831543e+00 1.345645189285278320e+00
1.651000000000000000e+03 4.124257278442382812e+01 -1.781780052185058594e+01 -2.187377028167247772e-02 8.961011171340942383e-01 2.622682154178619385e-01 -4.843795299530029297e-02
1.652000000000000000e+03 4.174808120727539062e+01 -2.070660781860351562e+01 1.796008348464965820e-01 7.612905502319335938e-01 2.822673916816711426e-01 -1.483921855688095093e-01
1.653000000000000000e+03 3.194892501831054688e+01 -2.025111436843872070e+00 -4.132729530334472656e+00 2.148797988891601562e+00 -5.951794385910034180e-01 2.802860975265502930e+00
1.654000000000000000e+03 3.225429153442382812e+01 -3.141816377639770508e+00 -7.195537686347961426e-01 3.078373193740844727e+00 7.076457738876342773e-01 5.020135879516601562e+00
1.655000000000000000e+03 5.897325515747070312e+01 -3.844250869750976562e+01 1.757946051657199860e-02 2.800032682716846466e-02 1.367393601685762405e-02 -6.307305768132209778e-03
1.656000000000000000e+03 3.958952331542968750e+01 -1.415938186645507812e+01 -5.447022616863250732e-02 9.511281847953796387e-01 2.689973711967468262e-01 -4.114488363265991211e-01
1.657000000000000000e+03 3.911866760253906250e+01 -1.210191535949707031e+01 7.684082537889480591e-02 6.911984682083129883e-01 2.304117828607559204e-01 -5.349012017250061035e-01
1.658000000000000000e+03 6.448232269287109375e+01 -3.489675903320312500e+01 -4.395989701151847839e-03 2.722732257097959518e-03 -5.019772797822952271e-04 1.467877160757780075e-02
1.659000000000000000e+03 2.909854888916015625e+01 -3.540342330932617188e+01 -1.657699942588806152e-01 2.766076326370239258e-01 3.325129300355911255e-02 1.442099362611770630e-01
1.660000000000000000e+03 4.693695449829101562e+01 2.755210638046264648e+00 -3.549474239349365234e+00 -2.206460237503051758e+00 -1.726780295372009277e+00 -2.008352994918823242e+00
1.661000000000000000e+03 4.841857528686523438e+01 2.862814188003540039e+00 -3.401758670806884766e+00 -6.712478399276733398e-01 -1.221901893615722656e+00 -1.392440199851989746e+00
1.662000000000000000e+03 5.356871414184570312e+01 -3.745309066772460938e+01 -1.996221486479043961e-03 1.614957600831985474e-01 4.784986004233360291e-02 -4.447560012340545654e-02
1.663000000000000000e+03 5.837649917602539062e+01 -3.632328414916992188e+01 9.099651128053665161e-03 1.734874583780765533e-02 7.934519089758396149e-03 -7.327632978558540344e-03
1.664000000000000000e+03 3.211813354492187500e+01 -3.484709930419921875e+01 -2.299309223890304565e-01 6.092989444732666016e-01 1.138104125857353210e-01 1.730023920536041260e-01
1.665000000000000000e+03 3.292981719970703125e+01 -3.286808395385742188e+01 -1.864546090364456177e-01 7.749536633491516113e-01 1.765497028827667236e-01 2.381498813629150391e-01
1.666000000000000000e+03 6.272710418701171875e+01 -6.379032135009765625e-01 -5.824632048606872559e-01 5.794181674718856812e-02 -1.573564261198043823e-01 -9.521235525608062744e-02
1.667000000000000000e+03 3.109095954895019531e+01 -1.612875366210937500e+01 -1.282779335975646973e+00 2.309089452028274536e-01 -3.155611157417297363e-01 -5.768094658851623535e-01
1.668000000000000000e+03 4.218478393554687500e+01 -8.301070332527160645e-01 -3.674703836441040039e+00 -1.709240436553955078e+00 -1.615183234214782715e+00 -2.605805873870849609e+00
1.669000000000000000e+03 6.450816345214843750e+01 -8.464799076318740845e-02 -4.510833919048309326e-01 7.027355581521987915e-02 -1.142429485917091370e-01 -1.461672186851501465e-01
1.670000000000000000e+03 4.345365142822265625e+01 3.152254104614257812e+01 1.996578276157379150e-01 1.934199571609497070e+00 6.401572227478027344e-01 -8.849789947271347046e-02
1.671000000000000000e+03 4.320630264282226562e+01 3.358238220214843750e+01 -8.758571930229663849e-03 1.726583957672119141e+00 5.153475999832153320e-01 -8.954219520092010498e-02
1.672000000000000000e+03 6.974937438964843750e+01 -2.884666061401367188e+01 -3.722130553796887398e-03 6.786141893826425076e-04 -9.130549151450395584e-04 -2.698699536267668009e-04
1.673000000000000000e+03 4.087552642822265625e+01 -1.954601287841796875e+01 1.226706802845001221e-01 9.904436469078063965e-01 3.339343070983886719e-01 -6.836923211812973022e-02
1.674000000000000000e+03 4.015761184692382812e+01 -1.840746307373046875e+01 -1.593579724431037903e-02 1.185914516448974609e+00 3.509936034679412842e-01 -3.623138368129730225e-02
1.675000000000000000e+03 4.082258605957031250e+01 -1.611810207366943359e+00 -2.650609493255615234e+00 5.090045332908630371e-01 -6.424814462661743164e-01 -1.938232541084289551e+00
1.676000000000000000e+03 7.687065887451171875e+01 -2.486278724670410156e+01 3.984110953751951456e-04 -8.068446186371147633e-05 9.531799150863662362e-05 6.718845543218776584e-05
1.677000000000000000e+03 6.595376014709472656e+00 -1.516169452667236328e+01 2.714047729969024658e-01 6.487344503402709961e-01 2.760417759418487549e-01 9.359246492385864258e-02
1.678000000000000000e+03 2.954470825195312500e+01 -1.592955017089843750e+01 -1.311626553535461426e+00 2.089328169822692871e-01 -3.308081030845642090e-01 -1.089480966329574585e-01
1.679000000000000000e+03 3.887871932983398438e+01 -1.864898681640625000e+01 -6.761479657143354416e-03 1.515597701072692871e+00 4.526508450508117676e-01 -7.661962509155273438e-02
1.680000000000000000e+03 3.669614791870117188e+01 -2.643889427185058594e+01 2.340598106384277344e-01 1.905837416648864746e+00 6.419691443443298340e-01 -9.935799986124038696e-02
1.681000000000000000e+03 1.237464141845703125e+01 -1.395424747467041016e+01 3.521170020103454590e-01 8.844453841447830200e-02 1.321684569120407104e-01 3.532347977161407471e-01
1.682000000000000000e+03 1.127006149291992188e+01 -1.409724521636962891e+01 3.609056770801544189e-01 2.540087401866912842e-01 1.844743341207504272e-01 3.947764635086059570e-01
1.683000000000000000e+03 4.166506195068359375e+01 2.659482717514038086e+00 -6.324130892753601074e-01 1.548714399337768555e+00 2.748903930187225342e-01 1.042363882064819336e+00
1.684000000000000000e+03 1.889058113098144531e+01 3.422863388061523438e+01 1.187678310088813305e-03 7.992069186002481729e-06 3.587011306080967188e-04 7.259885314851999283e-04
1.685000000000000000e+03 1.770242500305175781e+01 3.583289718627929688e+01 -5.094836233183741570e-04 -2.043385757133364677e-04 -2.141466538887470961e-04 3.843219019472599030e-04
1.686000000000000000e+03 6.689274597167968750e+01 -5.736119270324707031e+00 -5.856315419077873230e-02 -1.734332530759274960e-03 -1.808924600481987000e-02 1.219153683632612228e-02
1.687000000000000000e+03 6.754353332519531250e+01 -4.687539100646972656e+00 -9.897818416357040405e-02 1.382400002330541611e-02 -2.554625459015369415e-02 5.213780328631401062e-03
1.688000000000000000e+03 3.978619003295898438e+01 -1.533469486236572266e+01 -1.053188294172286987e-01 1.099770069122314453e+00 2.983353734016418457e-01 -2.827370166778564453e-01
1.689000000000000000e+03 3.934905242919921875e+01 -1.307180881500244141e+01 -3.726750379428267479e-03 8.296537399291992188e-01 2.477781027555465698e-01 -4.991056621074676514e-01
1.690000000000000000e+03 5.393420028686523438e+01 2.284593105316162109e+00 -1.657896876335144043e+00 1.635639965534210205e-01 -4.482998549938201904e-01 -3.007244169712066650e-01
1.691000000000000000e+03 1.289094543457031250e+01 2.113161849975585938e+01 1.539065124234184623e-05 -1.072202303475933149e-05 1.400588644173694775e-06 -2.023322622335399501e-06
1.692000000000000000e+03 5.415725231170654297e+00 -1.502310371398925781e+01 1.452443301677703857e-01 4.138209819793701172e-01 1.677196025848388672e-01 -4.377872869372367859e-02
1.693000000000000000e+03 7.337028026580810547e+00 -3.238676834106445312e+01 -2.300064265727996826e-01 -1.610599085688591003e-02 -7.383372634649276733e-02 7.354027032852172852e-02
1.694000000000000000e+03 8.642896652221679688e+00 -3.263689422607421875e+01 -2.604255974292755127e-01 -1.410615891218185425e-01 -1.204461604356765747e-01 1.015683710575103760e-01
1.695000000000000000e+03 5.582363128662109375e+01 -3.380750656127929688e+01 -1.715396717190742493e-02 4.631699249148368835e-02 8.748907595872879028e-03 -2.732615359127521515e-02
1.696000000000000000e+03 4.548580646514892578e+00 -2.624538612365722656e+01 -1.890457123517990112e-01 4.671863615512847900e-01 8.344219624996185303e-02 4.377943575382232666e-01
1.697000000000000000e+03 7.510916900634765625e+01 -4.030883026123046875e+01 9.988952660933136940e-04 -5.277479067444801331e-03 -1.283575198613107204e-03 1.305069308727979660e-03
1.698000000000000000e+03 5.145709991455078125e+00 4.040525436401367188e+01 -2.118114935001358390e-04 -2.799735229928046465e-04 -1.475355093134567142e-04 -6.065777051844634116e-05
1.699000000000000000e+03 4.396850585937500000e+01 6.844609260559082031e+00 1.935502648353576660e+00 8.309504389762878418e-01 8.299359083175659180e-01 1.414487361907958984e+00
1.700000000000000000e+03 3.115905952453613281e+01 -7.737827777862548828e+00 1.481893420219421387e+00 5.671540737152099609e+00 2.146030187606811523e+00 -1.526369333267211914e+00
1.701000000000000000e+03 3.463450622558593750e+01 -3.703270912170410156e+00 -3.477745056152343750e-01 1.377609133720397949e+00 3.089503943920135498e-01 2.704201936721801758e+00
1.702000000000000000e+03 2.955046463012695312e+01 -7.871634006500244141e+00 2.032191753387451172e+00 4.956924438476562500e+00 2.096735000610351562e+00 1.522890925407409668e+00
1.703000000000000000e+03 3.231470108032226562e+01 -7.695118427276611328e+00 2.279565811157226562e+00 2.379656076431274414e+00 1.397766590118408203e+00 -2.053467035293579102e+00
1.704000000000000000e+03 3.326771926879882812e+01 -4.057521343231201172e+00 1.014760136604309082e+00 1.077070593833923340e+00 6.275492310523986816e-01 4.112982273101806641e+00
1.705000000000000000e+03 3.338711166381835938e+01 -8.553711891174316406e+00 1.599548101425170898e+00 1.230325222015380859e+00 8.489620089530944824e-01 -1.532445669174194336e+00
1.706000000000000000e+03 3.261803054809570312e+01 -4.066894054412841797e+00 1.583128809928894043e+00 1.783076047897338867e+00 1.009861469268798828e+00 5.056137561798095703e+00
1.707000000000000000e+03 3.282740020751953125e+01 -8.288845062255859375e+00 1.783752799034118652e+00 1.734708428382873535e+00 1.055538415908813477e+00 -1.744202494621276855e+00
1.708000000000000000e+03 2.875859260559082031e+01 -6.832096576690673828e+00 4.898058414459228516e+00 2.486056566238403320e+00 2.215234518051147461e+00 2.069964170455932617e+00
1.709000000000000000e+03 2.797304725646972656e+01 -6.741144657135009766e+00 4.347305297851562500e+00 7.958064675331115723e-01 1.542933583259582520e+00 1.216740131378173828e+00
1.710000000000000000e+03 2.818488883972167969e+01 -7.155581474304199219e+00 4.053658962249755859e+00 1.293974280357360840e+00 1.604290008544921875e+00 1.685092568397521973e+00
1.711000000000000000e+03 2.652783775329589844e+01 -5.061672210693359375e+00 2.334050178527832031e+00 -1.037512302398681641e+00 3.889614045619964600e-01 -1.374693393707275391e+00
1.712000000000000000e+03 2.788445663452148438e+01 -5.974987983703613281e+00 4.714190006256103516e+00 1.049048602581024170e-01 1.445728540420532227e+00 4.431336224079132080e-01
1.713000000000000000e+03 9.464323043823242188e+00 -4.149987697601318359e+00 -7.254290580749511719e-02 3.852850943803787231e-02 -1.020431891083717346e-02 -1.143466588109731674e-02
1.714000000000000000e+03 1.018045711517333984e+01 -4.187959194183349609e+00 -6.525488942861557007e-02 3.257721289992332458e-02 -9.803303517401218414e-03 7.286416366696357727e-04
1.715000000000000000e+03 7.569667816162109375e+01 -1.688079261779785156e+01 1.082920971384737641e-05 -1.413452264387160540e-04 -3.915480556315742433e-05 -4.884204099653288722e-05
1.716000000000000000e+03 7.503325653076171875e+01 -1.689208602905273438e+01 9.785730071598663926e-05 1.173632990685291588e-04 6.456617848016321659e-05 8.152166992658749223e-05
1.717000000000000000e+03 1.470347404479980469e+01 6.809201240539550781e+00 1.215064366988372058e-05 1.468815025873482227e-05 8.051638360484503210e-06 1.345997407042887062e-05
1.718000000000000000e+03 1.498465919494628906e+01 2.577680110931396484e+00 3.166700025758473203e-06 1.205823423333640676e-06 1.311757046096317936e-06 -1.652265098073257832e-07
1.719000000000000000e+03 3.306288909912109375e+01 -9.304520606994628906e+00 1.155954480171203613e+00 1.738423824310302734e+00 8.683134913444519043e-01 -1.636207938194274902e+00
1.720000000000000000e+03 2.713085746765136719e+01 -5.852046966552734375e+00 3.805807828903198242e+00 -6.162590980529785156e-01 9.568646550178527832e-01 -2.407274991273880005e-01
1.721000000000000000e+03 7.289854431152343750e+01 -1.864987945556640625e+01 -1.421698252670466900e-04 1.476400939282029867e-04 1.641080189074273221e-06 1.446085807401686907e-04
1.722000000000000000e+03 7.613301086425781250e+01 -1.973173141479492188e+01 -1.919802889460697770e-04 -2.872941840905696154e-04 -1.437823375454172492e-04 -1.866077654995024204e-04
1.723000000000000000e+03 3.686177062988281250e+01 -1.806184768676757812e+00 -9.280108213424682617e-01 3.498375177383422852e+00 7.711092829704284668e-01 1.210752010345458984e+00
1.724000000000000000e+03 3.846308517456054688e+01 -3.734013319015502930e+00 -1.686849236488342285e+00 1.412453770637512207e+00 -8.231864869594573975e-02 -7.179297804832458496e-01
1.725000000000000000e+03 1.842741966247558594e+01 2.186515569686889648e+00 -8.294578947243280709e-06 1.761496548624563729e-07 -2.435528813293785788e-06 -6.869740900583565235e-07
1.726000000000000000e+03 1.779041481018066406e+01 3.857023477554321289e+00 -8.255163265857845545e-06 -4.510494818532606587e-06 -3.829697106993990019e-06 -5.221110768616199493e-06
1.727000000000000000e+03 3.700236511230468750e+01 -2.761302947998046875e+00 -1.363958954811096191e+00 2.389414310455322266e+00 3.076365888118743896e-01 6.544270515441894531e-01
1.728000000000000000e+03 1.428415203094482422e+01 2.619373321533203125e+00 -4.818763954972382635e-06 5.755633765147649683e-07 -1.272960162168601528e-06 4.668591202516836347e-07
1.729000000000000000e+03 1.354821205139160156e+01 3.325661182403564453e+00 -9.354801477456931025e-06 3.601505795813864097e-06 -1.725988795442390256e-06 1.769718778632523026e-06
1.730000000000000000e+03 7.437495422363281250e+01 -1.698290634155273438e+01 -1.336848945356905460e-04 -1.140617387136444449e-04 -7.432398706441745162e-05 -1.155728750745765865e-04
1.731000000000000000e+03 9.294034004211425781e+00 3.876872539520263672e+00 2.468514594511361793e-06 -2.804558562274905853e-06 -1.008131320645588858e-07 -2.487163101250189357e-06
1.732000000000000000e+03 9.949340820312500000e+00 3.151410818099975586e+00 -1.400386167915712576e-06 -1.152202571574889589e-06 -7.657766332158644218e-07 -2.674506049515912309e-06
1.733000000000000000e+03 1.089852809906005859e+01 -4.242801666259765625e+00 -6.328066438436508179e-02 2.470474503934383392e-02 -1.157277449965476990e-02 4.046160262078046799e-03
1.734000000000000000e+03 1.422757816314697266e+01 3.291975736618041992e+00 5.642359155899612233e-06 -1.103328600038366858e-06 1.361709223601792473e-06 -2.324035904166521505e-06
1.735000000000000000e+03 7.198926925659179688e+00 -3.340168952941894531e+00 -7.441910356283187866e-02 2.390885353088378906e-02 -1.515307556837797165e-02 -3.923419862985610962e-02
1.736000000000000000e+03 8.741133689880371094e+00 -4.126841068267822266e+00 -7.117015123367309570e-02 4.011723771691322327e-02 -9.315873496234416962e-03 -1.988185755908489227e-02
1.737000000000000000e+03 8.568381309509277344e+00 3.938280344009399414e+00 -2.295187869094661437e-06 4.043472017656313255e-06 5.244853014119144063e-07 -2.264926934003597125e-06
1.738000000000000000e+03 5.620203971862792969e+00 4.150415420532226562e+00 1.993657861021347344e-06 9.531478895041800570e-07 8.840416967359487899e-07 -4.875523700320627540e-06
1.739000000000000000e+03 6.657829761505126953e+00 5.544444084167480469e+00 -8.589039680373389274e-06 -3.638301677710842341e-07 -2.685861090867547318e-06 1.797101867850869894e-05
1.740000000000000000e+03 3.919996738433837891e+00 6.397814750671386719e+00 2.618279177113436162e-05 1.179402352136094123e-05 1.139304458774859086e-05 -1.242609300788899418e-06
1.741000000000000000e+03 4.105293750762939453e+00 5.233606815338134766e+00 -3.800986451096832752e-05 -9.735912499309051782e-06 -1.432373301213374361e-05 5.968994173599639907e-06
1.742000000000000000e+03 5.005980968475341797e+00 5.173780441284179688e+00 -4.069856458954745904e-06 8.524352210770302918e-07 -9.652263770476565696e-07 -6.964619842619867995e-06
1.743000000000000000e+03 1.474085927009582520e+00 4.968319892883300781e+00 -7.553162959084147587e-06 -5.740679171140072867e-06 -3.988152457168325782e-06 8.657805494749482023e-08
1.744000000000000000e+03 1.760052323341369629e+00 3.359069585800170898e+00 3.316632864880375564e-05 1.812996742955874652e-05 1.538888864160981029e-05 5.448689989862032235e-06
1.745000000000000000e+03 7.380111694335937500e+01 -1.797644042968750000e+01 -2.015186037169769406e-04 -7.176429062383249402e-05 -8.198486466426402330e-05 -1.755523226165678352e-05
1.746000000000000000e+03 7.100334930419921875e+01 -1.752969169616699219e+01 1.520396181149408221e-04 1.178540187538601458e-04 8.096809324342757463e-05 1.554738410050049424e-04
1.747000000000000000e+03 7.082562255859375000e+01 -1.948657989501953125e+01 -2.936419332399964333e-04 -8.266202348750084639e-05 -1.128911899286322296e-04 -1.687545009190216660e-04
1.748000000000000000e+03 7.163456726074218750e+01 -1.899973678588867188e+01 -1.059779970091767609e-04 2.775429165922105312e-04 5.146947660250589252e-05 2.048563183052465320e-04
1.749000000000000000e+03 1.389305114746093750e+01 -3.868972778320312500e+00 -5.026967823505401611e-02 -3.331550955772399902e-02 -2.507555671036243439e-02 -1.951447688043117523e-03
1.750000000000000000e+03 7.011510467529296875e+01 -1.013521289825439453e+01 8.885853923857212067e-03 -8.486120961606502533e-03 1.199200123664923012e-04 -6.305203307420015335e-03
1.751000000000000000e+03 6.921056365966796875e+01 -1.047408103942871094e+01 5.585366394370794296e-03 -5.025888327509164810e-03 1.678434055065736175e-04 -1.006368827074766159e-02
1.752000000000000000e+03 1.708647346496582031e+01 -4.154154777526855469e+00 -7.938782684504985809e-03 -1.431729495525360107e-01 -4.533352330327033997e-02 -1.173506528139114380e-01
1.753000000000000000e+03 6.941548919677734375e+01 -8.729604721069335938e+00 -5.378795322030782700e-04 -1.321588177233934402e-02 -4.126128274947404861e-03 -7.186015136539936066e-03
1.754000000000000000e+03 3.710778427124023438e+01 -1.035301208496093750e+01 4.299204051494598389e-01 5.740215182304382324e-01 3.011825680732727051e-01 -8.157047033309936523e-01
1.755000000000000000e+03 3.514509201049804688e+01 -3.637617349624633789e+00 -6.845772862434387207e-01 1.531394004821777344e+00 2.540450394153594971e-01 2.206403970718383789e+00
1.756000000000000000e+03 3.571411132812500000e+01 -3.630318641662597656e+00 -9.721910357475280762e-01 1.742334961891174316e+00 2.310431748628616333e-01 1.656696200370788574e+00
1.757000000000000000e+03 1.312393569946289062e+01 -4.472500324249267578e+00 -2.687403187155723572e-02 -2.332046441733837128e-02 -1.505834888666868210e-02 1.297325640916824341e-02
1.758000000000000000e+03 1.290344810485839844e+01 3.337355613708496094e+00 1.198223708342993632e-05 -7.928668310341890901e-06 1.216070813825353980e-06 1.333691557192651089e-06
1.759000000000000000e+03 1.071948909759521484e+01 3.084817647933959961e+00 2.760884626695769839e-06 -6.444414566431078129e-07 6.349329169097472914e-07 2.526936441427096725e-06
1.760000000000000000e+03 7.483914184570312500e+01 -8.373843193054199219e+00 -5.550056695938110352e-03 -6.248372141271829605e-03 -3.539528697729110718e-03 6.727925967425107956e-03
1.761000000000000000e+03 3.893113327026367188e+01 -1.124348926544189453e+01 1.475671082735061646e-01 5.628948807716369629e-01 2.131386101245880127e-01 -5.472441911697387695e-01
1.762000000000000000e+03 3.877410507202148438e+01 -1.046269893646240234e+01 2.305860221385955811e-01 4.382080435752868652e-01 2.006382197141647339e-01 -5.097032785415649414e-01
1.763000000000000000e+03 7.426396942138671875e+01 -8.541792869567871094e+00 -3.551143745426088572e-04 -9.346358478069305420e-03 -2.910441718995571136e-03 4.383191466331481934e-03
1.764000000000000000e+03 7.576712036132812500e+01 -8.506074905395507812e+00 -2.974302042275667191e-03 -3.906197613105177879e-03 -2.064149826765060425e-03 6.975811440497636795e-03
1.765000000000000000e+03 1.162784194946289062e+01 -4.309700012207031250e+00 -5.032144114375114441e-02 1.197685487568378448e-02 -1.150337606668472290e-02 1.401320286095142365e-02
1.766000000000000000e+03 1.237111473083496094e+01 -4.386711120605468750e+00 -4.455171525478363037e-02 -2.355414675548672676e-03 -1.407213881611824036e-02 9.280713275074958801e-03
1.767000000000000000e+03 2.131932449340820312e+01 -5.557960033416748047e+00 4.965249001979827881e-01 -4.488527476787567139e-01 1.430164556950330734e-02 -4.171394109725952148e-01
1.768000000000000000e+03 1.625547409057617188e+01 -4.787270069122314453e+00 5.009758099913597107e-02 -1.436375528573989868e-01 -2.806199342012405396e-02 -6.386028230190277100e-02
1.769000000000000000e+03 3.552862548828125000e+01 -1.071711635589599609e+01 4.995735287666320801e-01 9.085213541984558105e-01 4.224284589290618896e-01 -1.191522240638732910e+00
1.770000000000000000e+03 3.855687332153320312e+01 -1.424741649627685547e+01 -1.667275428771972656e-01 1.148004651069641113e+00 2.943831384181976318e-01 -5.604287981986999512e-01
1.771000000000000000e+03 3.964002990722656250e+01 -1.033782005310058594e+01 1.382621675729751587e-01 3.358575403690338135e-01 1.422359049320220947e-01 -3.369700610637664795e-01
1.772000000000000000e+03 1.958804702758789062e+01 -4.181284427642822266e+00 2.163603156805038452e-02 -2.415190786123275757e-01 -6.596491485834121704e-02 -3.138490617275238037e-01
1.773000000000000000e+03 1.960500144958496094e+01 -4.906728267669677734e+00 1.820833683013916016e-01 -3.191573917865753174e-01 -4.112220928072929382e-02 -2.839688062667846680e-01
1.774000000000000000e+03 7.385047912597656250e+01 -9.449891090393066406e+00 3.946279175579547882e-03 -7.938284426927566528e-03 -1.197601668536663055e-03 4.396596923470497131e-03
1.775000000000000000e+03 7.319553375244140625e+01 -9.611201286315917969e+00 -5.431603640317916870e-04 -6.409608293324708939e-03 -2.085830550640821457e-03 2.302964916452765465e-03
1.776000000000000000e+03 7.117195892333984375e+01 -9.193697929382324219e+00 5.597698618657886982e-04 -1.386991702020168304e-02 -3.993044141680002213e-03 -2.893569879233837128e-03
1.777000000000000000e+03 6.532002449035644531e+00 -4.089054584503173828e+00 -6.456619501113891602e-02 2.757108770310878754e-02 -1.109853293746709824e-02 -5.263826251029968262e-02
1.778000000000000000e+03 4.489326477050781250e+00 -4.107311248779296875e+00 -4.380270838737487793e-02 -4.261391586624085903e-04 -1.326865423470735550e-02 -6.622512638568878174e-02
1.779000000000000000e+03 5.804477691650390625e+00 -4.077292442321777344e+00 -5.771964043378829956e-02 1.802707277238368988e-02 -1.190777122974395752e-02 -6.036010757088661194e-02
1.780000000000000000e+03 4.961044311523437500e+00 -3.376450777053833008e+00 -5.160548910498619080e-02 5.190354771912097931e-03 -1.392454095184803009e-02 -5.665954202413558960e-02
1.781000000000000000e+03 3.605969190597534180e+00 -4.784195423126220703e+00 -2.970327064394950867e-02 -2.096240967512130737e-02 -1.519970409572124481e-02 -7.279688864946365356e-02
1.782000000000000000e+03 7.269753932952880859e+00 -4.099181175231933594e+00 -6.816468387842178345e-02 3.442396596074104309e-02 -1.012221537530422211e-02 -4.292859509587287903e-02
1.783000000000000000e+03 3.588959693908691406e+00 -3.710080862045288086e+00 -3.320544585585594177e-02 -1.262291986495256424e-02 -1.374850980937480927e-02 -5.958082526922225952e-02
1.784000000000000000e+03 4.124987125396728516e+00 -5.882365703582763672e+00 -3.749906644225120544e-02 -8.816892281174659729e-03 -1.389478705823421478e-02 -8.855760097503662109e-02
1.785000000000000000e+03 2.929872274398803711e+00 -6.231849193572998047e+00 -2.323209680616855621e-02 -5.248676985502243042e-02 -2.271565981209278107e-02 -8.800183981657028198e-02
1.786000000000000000e+03 3.518848419189453125e+01 -2.905006408691406250e+00 -8.150753974914550781e-01 2.213577985763549805e+00 4.195507764816284180e-01 2.364054918289184570e+00
1.787000000000000000e+03 1.388629627227783203e+01 -4.561960220336914062e+00 -1.713674888014793396e-02 -4.323150962591171265e-02 -1.811047643423080444e-02 -3.216005163267254829e-03
1.788000000000000000e+03 1.465962982177734375e+01 -4.645216464996337891e+00 5.353633780032396317e-03 -7.410994172096252441e-02 -2.062689140439033508e-02 -1.074919011443853378e-02
1.789000000000000000e+03 1.013616752624511719e+01 4.452039718627929688e+00 5.433936394183547236e-07 -4.335708183589304099e-07 3.294683992294267227e-08 -8.427171451330650598e-06
1.790000000000000000e+03 1.544715976715087891e+01 -4.719138145446777344e+00 1.942989043891429901e-02 -9.892173856496810913e-02 -2.384755574166774750e-02 -4.212263599038124084e-02
1.791000000000000000e+03 3.424097442626953125e+01 -9.815705299377441406e+00 9.074281454086303711e-01 1.141995787620544434e+00 6.148271560668945312e-01 -1.406335592269897461e+00
1.792000000000000000e+03 3.485574340820312500e+01 -1.055215454101562500e+01 5.975651144981384277e-01 1.066451787948608398e+00 4.992050826549530029e-01 -1.324909806251525879e+00
1.793000000000000000e+03 1.231186580657958984e+01 3.502349853515625000e+00 -2.908195426698512165e-07 1.206492106575751677e-05 3.532230266500846483e-06 -1.886945597107114736e-06
1.794000000000000000e+03 1.790469741821289062e+01 -4.894624710083007812e+00 1.122361645102500916e-01 -2.321464866399765015e-01 -3.597309440374374390e-02 -1.533692181110382080e-01
1.795000000000000000e+03 2.133618354797363281e+01 -4.784756660461425781e+00 2.239841818809509277e-01 -3.732324540615081787e-01 -4.477448016405105591e-02 -4.869938790798187256e-01
1.796000000000000000e+03 2.299134635925292969e+01 -3.795227050781250000e+00 -2.555817663669586182e-01 -1.778943985700607300e-01 -1.300428509712219238e-01 -8.027542829513549805e-01
1.797000000000000000e+03 2.304933929443359375e+01 -5.362729549407958984e+00 7.095709443092346191e-01 -5.573101043701171875e-01 4.567824304103851318e-02 -7.126813530921936035e-01
1.798000000000000000e+03 2.218944931030273438e+01 -4.683310985565185547e+00 2.383485287427902222e-01 -3.596167862415313721e-01 -3.638048097491264343e-02 -6.344401240348815918e-01
1.799000000000000000e+03 7.026364135742187500e+01 -1.780031967163085938e+01 -1.405585935572162271e-04 -7.381223258562386036e-05 -6.431125075323507190e-05 -1.723168534226715565e-04
1.800000000000000000e+03 2.029653930664062500e+01 -1.511420440673828125e+01 -9.987661242485046387e-02 -1.136063560843467712e-01 -6.404489278793334961e-02 4.877466559410095215e-01
1.801000000000000000e+03 3.226498794555664062e+01 -2.605067253112792969e+00 -2.245681762695312500e+00 3.078329086303710938e+00 2.497942298650741577e-01 4.281423568725585938e+00
1.802000000000000000e+03 3.129851531982421875e+01 -2.728652477264404297e+00 -3.830827474594116211e+00 2.345393419265747070e+00 -4.456301629543304443e-01 2.947802782058715820e+00
1.803000000000000000e+03 2.511258697509765625e+01 -1.637443351745605469e+01 -1.008673191070556641e+00 1.688449829816818237e-01 -2.519484758377075195e-01 4.697653949260711670e-01
1.804000000000000000e+03 2.308991432189941406e+01 -1.573013591766357422e+01 -5.039852261543273926e-01 5.234558507800102234e-02 -1.354918926954269409e-01 5.815420746803283691e-01
1.805000000000000000e+03 1.992398262023925781e+01 -1.615322685241699219e+01 -2.828994095325469971e-01 -6.635957211256027222e-02 -1.047776937484741211e-01 3.909811675548553467e-01
1.806000000000000000e+03 1.990661239624023438e+01 -1.377705192565917969e+01 1.479017734527587891e-01 -2.041358649730682373e-01 -1.687022857367992401e-02 5.142689943313598633e-01
1.807000000000000000e+03 2.126863670349121094e+01 -1.533732509613037109e+01 -2.463549822568893433e-01 -4.566250741481781006e-02 -8.760524541139602661e-02 5.406425595283508301e-01
1.808000000000000000e+03 2.706086540222167969e+01 -2.509804964065551758e+00 -3.650501966476440430e+00 -5.202951431274414062e-01 -1.251239061355590820e+00 -1.542934060096740723e+00
1.809000000000000000e+03 1.743088531494140625e+01 -1.392397117614746094e+01 2.085752338171005249e-01 -2.250539064407348633e-01 -4.943599924445152283e-03 3.928804993629455566e-01
1.810000000000000000e+03 6.004298019409179688e+01 3.278903663158416748e-01 -8.569083809852600098e-01 2.277492359280586243e-02 -2.502400279045104980e-01 -1.472980231046676636e-01
1.811000000000000000e+03 5.794577407836914062e+01 2.016622066497802734e+00 -9.941239953041076660e-01 5.256594344973564148e-02 -2.824674248695373535e-01 -2.838661074638366699e-01
1.812000000000000000e+03 2.757670211791992188e+01 -4.598056793212890625e+00 2.617684125900268555e+00 -6.494969129562377930e-01 5.904561877250671387e-01 -1.720814585685729980e+00
1.813000000000000000e+03 3.395350646972656250e+01 -1.638717269897460938e+01 -1.112861275672912598e+00 1.440473556518554688e+00 9.828368574380874634e-02 -1.173536539077758789e+00
1.814000000000000000e+03 3.425096130371093750e+01 -1.718350028991699219e+01 -1.095259904861450195e+00 1.851012945175170898e+00 2.267259061336517334e-01 -9.805527329444885254e-01
1.815000000000000000e+03 2.715065002441406250e+01 -1.578061676025390625e+01 -1.040908932685852051e+00 2.583291232585906982e-01 -2.347739338874816895e-01 4.312094748020172119e-01
1.816000000000000000e+03 2.749252128601074219e+01 -1.446023082733154297e+01 -5.772594213485717773e-01 5.300919413566589355e-01 -1.415023952722549438e-02 5.263053774833679199e-01
1.817000000000000000e+03 3.246577072143554688e+01 -1.602570152282714844e+01 -1.095457077026367188e+00 8.879007697105407715e-01 -6.226688623428344727e-02 -1.058311939239501953e+00
1.818000000000000000e+03 3.173414039611816406e+01 -1.537847805023193359e+01 -9.817993044853210449e-01 7.571188211441040039e-01 -6.740413606166839600e-02 -9.459634423255920410e-01
1.819000000000000000e+03 2.709168815612792969e+01 -3.635978317260742188e+01 -1.630764752626419067e-01 1.743240505456924438e-01 3.374274354428052902e-03 1.038804948329925537e-01
1.820000000000000000e+03 1.021031951904296875e+01 -1.304176902770996094e+01 2.131974101066589355e-01 3.246188759803771973e-01 1.613448858261108398e-01 2.921483516693115234e-01
1.821000000000000000e+03 5.506433486938476562e+01 1.802866816520690918e+00 -1.480623602867126465e+00 8.831550925970077515e-02 -4.176924228668212891e-01 -2.118538022041320801e-01
1.822000000000000000e+03 5.278170394897460938e+01 4.623128414154052734e+00 -1.147131323814392090e+00 -6.867238879203796387e-02 -3.647411167621612549e-01 -8.327050805091857910e-01
1.823000000000000000e+03 9.277141571044921875e+00 2.125655555725097656e+01 -4.544159673969261348e-05 2.217059045506175607e-05 -6.981301339692436159e-06 -2.483837670297361910e-05
1.824000000000000000e+03 7.532553863525390625e+01 -2.912964057922363281e+01 -3.986846713814884424e-04 -1.633828505873680115e-04 -1.686202595010399818e-04 1.216708216816186905e-03
1.825000000000000000e+03 6.981910705566406250e+01 -3.222564697265625000e+01 -3.916336223483085632e-03 1.789337140507996082e-03 -6.380997365340590477e-04 3.705178154632449150e-03
1.826000000000000000e+03 7.475885009765625000e+01 -2.571451187133789062e+01 -5.283794598653912544e-04 2.011207252508029342e-04 -9.817762474995106459e-05 2.071099588647484779e-04
1.827000000000000000e+03 7.644145965576171875e+01 -2.175933074951171875e+01 -2.141133445547893643e-04 4.619330866262316704e-05 -5.037600931245833635e-05 -8.162281301338225603e-05
1.828000000000000000e+03 7.241786193847656250e+01 -2.309899520874023438e+01 -2.107177133439108729e-04 -4.850669065490365028e-04 -2.087353932438418269e-04 -1.436145976185798645e-04
1.829000000000000000e+03 7.655314636230468750e+01 -3.209185791015625000e+01 -5.111532518640160561e-04 -1.340505434200167656e-03 -5.554975941777229309e-04 1.393417478539049625e-03
1.830000000000000000e+03 7.396924591064453125e+01 -3.403654098510742188e+01 -1.115737715736031532e-03 -1.438804611098021269e-04 -3.778854443226009607e-04 3.292755223810672760e-03
1.831000000000000000e+03 7.670005798339843750e+01 -3.479114151000976562e+01 -1.776483259163796902e-04 -2.500875853002071381e-03 -8.035572245717048645e-04 1.989970216527581215e-03
1.832000000000000000e+03 7.515370178222656250e+01 -2.205877113342285156e+01 -5.885374775971285999e-05 2.030135074164718390e-04 4.324792826082557440e-05 -7.440010085701942444e-05
1.833000000000000000e+03 7.759832763671875000e+01 -1.934984207153320312e+01 2.272794517921283841e-04 1.857877759903203696e-05 7.375746645266190171e-05 -5.650959428749047220e-05
1.834000000000000000e+03 7.566477203369140625e+01 -1.756893920898437500e+01 5.485535803018137813e-05 5.528277688426896930e-05 3.304144047433510423e-05 1.546071644042967819e-06
1.835000000000000000e+03 7.432985687255859375e+01 -3.553327178955078125e+01 6.557689630426466465e-04 -2.408624859526753426e-03 -5.258567398414015770e-04 3.722762921825051308e-03
1.836000000000000000e+03 7.673956298828125000e+01 1.014981746673583984e+01 -4.725455772131681442e-03 -3.617864847183227539e-01 -1.099535822868347168e-01 -1.638736724853515625e-01
1.837000000000000000e+03 7.550136566162109375e+01 7.430226802825927734e+00 -2.834337763488292694e-02 -2.368069589138031006e-01 -7.954510301351547241e-02 -1.905632317066192627e-01
1.838000000000000000e+03 7.695567321777343750e+01 1.706384849548339844e+01 1.172931585460901260e-02 -6.513410806655883789e-01 -1.918835192918777466e-01 -1.378431171178817749e-01
1.839000000000000000e+03 7.546327209472656250e+01 1.451408672332763672e+01 1.447932329028844833e-02 -4.928635358810424805e-01 -1.435152590274810791e-01 -2.113854736089706421e-01
1.840000000000000000e+03 7.689884948730468750e+01 3.145311832427978516e+00 -2.269720472395420074e-02 -1.119600683450698853e-01 -4.039718210697174072e-02 -9.235857427120208740e-02
1.841000000000000000e+03 7.603234863281250000e+01 4.563361406326293945e-01 -3.731967136263847351e-02 -5.720500648021697998e-02 -2.835740335285663605e-02 -7.220431417226791382e-02
1.842000000000000000e+03 7.541887664794921875e+01 1.023919105529785156e+01 -1.092732325196266174e-02 -3.358385562896728516e-01 -1.040297672152519226e-01 -2.154249548912048340e-01
1.843000000000000000e+03 7.672447204589843750e+01 1.155397224426269531e+01 -1.851226785220205784e-03 -4.193487763404846191e-01 -1.263599991798400879e-01 -1.649688333272933960e-01
1.844000000000000000e+03 7.684012603759765625e+01 4.540330886840820312e+00 -2.091562189161777496e-02 -1.520888805389404297e-01 -5.190135166049003601e-02 -1.113372445106506348e-01
1.845000000000000000e+03 7.562234497070312500e+01 3.171039819717407227e+00 -4.078553244471549988e-02 -1.134622991085052490e-01 -4.627434909343719482e-02 -1.237577795982360840e-01
1.846000000000000000e+03 7.552887725830078125e+01 6.023518562316894531e+00 -3.452629223465919495e-02 -1.930571645498275757e-01 -6.827503442764282227e-02 -1.732578128576278687e-01
1.847000000000000000e+03 7.698381042480468750e+01 1.836302947998046875e+01 1.334386132657527924e-02 -7.043454051017761230e-01 -2.073004692792892456e-01 -1.293006390333175659e-01
1.848000000000000000e+03 7.565533447265625000e+01 1.953322029113769531e+01 2.676560543477535248e-02 -6.695401668548583984e-01 -1.928323656320571899e-01 -1.579919457435607910e-01
1.849000000000000000e+03 7.537429809570312500e+01 1.310338306427001953e+01 5.849835462868213654e-03 -4.430170357227325439e-01 -1.311501562595367432e-01 -2.157227396965026855e-01
1.850000000000000000e+03 7.418566894531250000e+01 8.858228683471679688e+00 -3.021579608321189880e-02 -2.631410360336303711e-01 -8.800704777240753174e-02 -2.483671307563781738e-01
1.851000000000000000e+03 7.555778503417968750e+01 4.600180149078369141e+00 -4.123408719897270203e-02 -1.480940729379653931e-01 -5.679845064878463745e-02 -1.500907987356185913e-01
1.852000000000000000e+03 7.540234375000000000e+01 2.085840225219726562e+01 2.830663695931434631e-02 -6.856339573860168457e-01 -1.971981972455978394e-01 -1.485635042190551758e-01
1.853000000000000000e+03 7.426677703857421875e+01 1.598419570922851562e+01 3.038040176033973694e-02 -5.078781843185424805e-01 -1.432493329048156738e-01 -2.346458733081817627e-01
1.854000000000000000e+03 7.577106475830078125e+01 1.722594833374023438e+01 1.979521475732326508e-02 -6.003598570823669434e-01 -1.741693764925003052e-01 -1.815974414348602295e-01
1.855000000000000000e+03 7.485245513916015625e+01 2.389691925048828125e+01 3.929455205798149109e-02 -7.120088338851928711e-01 -2.018142789602279663e-01 -1.217666417360305786e-01
1.856000000000000000e+03 7.514300537109375000e+01 2.228262329101562500e+01 3.685692697763442993e-02 -7.016490697860717773e-01 -1.994376480579376221e-01 -1.405723989009857178e-01
1.857000000000000000e+03 7.484991455078125000e+01 2.562323570251464844e+01 3.650902211666107178e-02 -7.372816205024719238e-01 -2.102317810058593750e-01 -1.018846854567527771e-01
1.858000000000000000e+03 7.325466918945312500e+01 2.626921081542968750e+01 5.643645301461219788e-02 -6.320790648460388184e-01 -1.726927757263183594e-01 -1.074423342943191528e-01
1.859000000000000000e+03 7.619850158691406250e+01 -3.447037458419799805e+00 -2.086370252072811127e-02 -1.379610132426023483e-02 -1.039794087409973145e-02 -1.694838702678680420e-02
1.860000000000000000e+03 7.622566223144531250e+01 -4.740198612213134766e+00 -1.364993397146463394e-02 -9.437511675059795380e-03 -6.926233414560556412e-03 -5.594833754003047943e-03
1.861000000000000000e+03 7.659497833251953125e+01 3.116732406616210938e+01 8.583080023527145386e-03 -9.369376301765441895e-01 -2.785063683986663818e-01 -3.419365733861923218e-02
1.862000000000000000e+03 7.433589935302734375e+01 3.217729187011718750e+01 2.096896432340145111e-02 -7.693210244178771973e-01 -2.245056331157684326e-01 -3.266810253262519836e-02
1.863000000000000000e+03 7.618919372558593750e+01 -2.125763177871704102e+00 -2.358407527208328247e-02 -2.605899423360824585e-02 -1.489292085170745850e-02 -3.127542138099670410e-02
1.864000000000000000e+03 7.616579437255859375e+01 -8.277642726898193359e-01 -3.103090822696685791e-02 -3.600754588842391968e-02 -2.011153660714626312e-02 -4.658778756856918335e-02
1.865000000000000000e+03 7.682763671875000000e+01 3.250493621826171875e+01 7.345951162278652191e-03 -9.639012217521667480e-01 -2.869665920734405518e-01 -2.372987195849418640e-02
1.866000000000000000e+03 7.560055541992187500e+01 3.354051971435546875e+01 1.786761730909347534e-02 -8.596060872077941895e-01 -2.525215446949005127e-01 -2.306770719587802887e-02
1.867000000000000000e+03 7.627960205078125000e+01 -5.943715095520019531e+00 -1.007459592074155807e-02 -3.907654900103807449e-03 -4.194675479084253311e-03 6.588588585145771503e-04
1.868000000000000000e+03 7.470322418212890625e+01 -7.801848888397216797e+00 -5.573918577283620834e-03 -1.094624400138854980e-02 -4.956048913300037384e-03 4.020398948341608047e-03
1.869000000000000000e+03 7.697422027587890625e+01 -8.362582206726074219e+00 -2.154569141566753387e-03 1.168395625427365303e-03 -2.958520781248807907e-04 7.982468232512474060e-03
1.870000000000000000e+03 4.256346511840820312e+01 -2.198774147033691406e+01 2.211301773786544800e-01 5.376014113426208496e-01 2.276194840669631958e-01 -2.127187997102737427e-01
1.871000000000000000e+03 4.571551132202148438e+01 2.233713150024414062e+01 2.625131309032440186e-01 2.248717546463012695e+00 7.533692121505737305e-01 2.789174914360046387e-01
1.872000000000000000e+03 1.559943866729736328e+01 3.418825149536132812e+01 -3.100918256677687168e-04 -1.155519858002662659e-04 -1.276931434404104948e-04 -1.049204547598492354e-05
1.873000000000000000e+03 7.103336334228515625e+01 -2.070764160156250000e+01 4.377264995127916336e-04 1.309074741584481671e-05 1.352451799903064966e-04 2.671765396371483803e-04
1.874000000000000000e+03 4.450975799560546875e+01 1.163477802276611328e+01 1.314398765563964844e+00 2.416343212127685547e+00 1.119222521781921387e+00 1.446627259254455566e+00
1.875000000000000000e+03 4.912525177001953125e+01 -3.411522293090820312e+01 -1.314597949385643005e-02 3.057994544506072998e-01 8.779603987932205200e-02 -1.387309134006500244e-01
1.876000000000000000e+03 1.546617221832275391e+01 7.333101749420166016e+00 -1.912724837893620133e-05 2.677679049156722613e-06 -4.934870958095416427e-06 1.684662038314854726e-06
1.877000000000000000e+03 1.602382469177246094e+01 8.691674232482910156e+00 -6.595743798243347555e-06 3.558823436833336018e-06 -9.110761425290547777e-07 6.839043635409325361e-06
1.878000000000000000e+03 4.549614715576171875e+01 2.375171279907226562e+01 2.331317216157913208e-01 2.220079660415649414e+00 7.359634041786193848e-01 1.456712335348129272e-01
1.879000000000000000e+03 3.610945129394531250e+01 -1.165887355804443359e+01 2.140350192785263062e-01 9.934622645378112793e-01 3.622491657733917236e-01 -1.118980407714843750e+00
1.880000000000000000e+03 3.647634887695312500e+01 -1.401321315765380859e+01 -3.182884454727172852e-01 1.385476469993591309e+00 3.201563954353332520e-01 -9.405585527420043945e-01
1.881000000000000000e+03 4.435397148132324219e+00 2.288725090026855469e+01 4.855227234656922519e-05 1.172988686448661610e-05 1.808464730856940150e-05 1.952241655089892447e-05
1.882000000000000000e+03 3.014858484268188477e+00 -1.960325241088867188e+01 1.853669583797454834e-01 2.967522107064723969e-02 6.451265513896942139e-02 1.735658645629882812e-01
1.883000000000000000e+03 4.343286037445068359e+00 -1.635432624816894531e+01 1.726209670305252075e-01 2.407166212797164917e-01 1.240012794733047485e-01 -4.489401727914810181e-02
1.884000000000000000e+03 4.996102809906005859e+00 -1.730090713500976562e+01 2.774451076984405518e-01 5.003246665000915527e-01 2.333309203386306763e-01 1.180030032992362976e-01
1.885000000000000000e+03 3.161944627761840820e+00 2.012593460083007812e+01 -3.365029624546878040e-05 -1.125347807828802615e-06 -1.043269276124192402e-05 -1.457346388633595780e-05
1.886000000000000000e+03 5.658907413482666016e+00 2.284972763061523438e+01 -2.765050703601446003e-05 -9.398261681781150401e-06 -1.111463097913656384e-05 -3.749137249542400241e-05
1.887000000000000000e+03 6.697265625000000000e+00 2.645845603942871094e+01 3.422496229177340865e-05 1.139041560236364603e-04 4.443873694981448352e-05 8.024239832593593746e-06
1.888000000000000000e+03 3.036715984344482422e+00 2.712417030334472656e+01 3.821903737843967974e-05 3.710400778800249100e-05 2.259691427752841264e-05 -2.275163024023640901e-05
1.889000000000000000e+03 4.173494338989257812e+00 2.948503112792968750e+01 -2.532085636630654335e-05 3.626030957093462348e-05 3.281835688540013507e-06 -4.799603993888013065e-05
1.890000000000000000e+03 4.364823341369628906e+00 1.859951400756835938e+01 -3.814171577687375247e-05 1.655233404562750366e-06 -1.094594517780933529e-05 -1.443248402210883796e-05
1.891000000000000000e+03 4.384361743927001953e+00 2.003004837036132812e+01 4.362598701845854521e-05 2.274199005114496686e-06 1.377005537506192923e-05 1.860031443357001990e-05
1.892000000000000000e+03 4.311803340911865234e+00 2.576045227050781250e+01 4.120624362258240581e-05 5.077909372630529106e-05 2.759560265985783190e-05 -6.554564151883823797e-06
1.893000000000000000e+03 4.423032283782958984e+00 2.434097099304199219e+01 -1.736319245537742972e-05 -2.096365642501041293e-05 -1.149805484601529315e-05 -4.211422492517158389e-05
1.894000000000000000e+03 4.159496307373046875e+00 1.304623317718505859e+01 -3.367431781953200698e-05 5.402594979386776686e-06 -8.481517397740390152e-06 -7.803223525115754455e-07
1.895000000000000000e+03 4.247748851776123047e+00 1.441886234283447266e+01 3.400930290808901191e-05 -3.132366600766545162e-06 9.263080755772534758e-06 6.828991899965330958e-06
1.896000000000000000e+03 3.860231876373291016e+00 -9.799940109252929688e+00 -3.428547084331512451e-02 -2.302624983713030815e-03 -1.097642816603183746e-02 -1.336980611085891724e-01
1.897000000000000000e+03 3.796852111816406250e+00 -8.673292160034179688e+00 -4.117742553353309631e-02 -2.245048806071281433e-02 -1.908837445080280304e-02 -1.220560371875762939e-01
1.898000000000000000e+03 4.211562633514404297e+00 -1.364345550537109375e+01 2.605666965246200562e-02 1.071330904960632324e-01 3.995692729949951172e-02 -1.463861614465713501e-01
1.899000000000000000e+03 3.428037166595458984e+00 -3.042904663085937500e+01 -1.758597046136856079e-01 4.702886343002319336e-01 8.832868188619613647e-02 1.303433477878570557e-01
1.900000000000000000e+03 3.554553031921386719e+00 -3.199819755554199219e+01 -1.086047291755676270e-01 4.799911379814147949e-01 1.114159226417541504e-01 4.301510006189346313e-02
1.901000000000000000e+03 3.965698719024658203e+00 3.547819519042968750e+01 1.662606337049510330e-05 1.554417103761807084e-04 5.162033266969956458e-05 -1.814268180169165134e-04
1.902000000000000000e+03 5.166749000549316406e+00 1.166658306121826172e+01 -2.480391231074463576e-05 2.929659785877447575e-06 -6.562275757460156456e-06 2.882956096073030494e-06
1.903000000000000000e+03 4.028785228729248047e+00 -1.100676822662353516e+01 -4.020209610462188721e-02 2.966274134814739227e-02 -3.161806380376219749e-03 -1.479481011629104614e-01
1.904000000000000000e+03 4.059378147125244141e+00 1.170204353332519531e+01 3.002104676852468401e-05 -2.434922180327703245e-06 8.275837899418547750e-06 -4.446506522981508169e-07
1.905000000000000000e+03 6.873461723327636719e+00 -3.386175155639648438e+01 -1.270133256912231445e-01 9.460482746362686157e-02 -9.722549468278884888e-03 1.222054101526737213e-02
1.906000000000000000e+03 5.127008914947509766e+00 -3.208687210083007812e+01 -1.623388975858688354e-01 2.738445997238159180e-01 3.345170617103576660e-02 4.480795562267303467e-02
1.907000000000000000e+03 6.361889362335205078e+00 2.933801460266113281e+01 8.335144229931756854e-05 -1.349789381492882967e-04 -1.548824911878909916e-05 -3.165887028444558382e-05
1.908000000000000000e+03 5.669991970062255859e+00 3.363578414916992188e+01 1.046627658070065081e-04 1.042120420606806874e-04 6.266243872232735157e-05 -8.615905244369059801e-06
1.909000000000000000e+03 2.757895708084106445e+00 7.692002296447753906e+00 2.422559555270709097e-05 6.987288088566856459e-06 9.363864592160098255e-06 -4.685936801251955330e-06
1.910000000000000000e+03 3.898428201675415039e+00 9.063668251037597656e+00 2.759469134616665542e-05 3.536360736688948236e-06 9.339315511169843376e-06 -1.703171278677473310e-06
1.911000000000000000e+03 4.004194259643554688e+00 -4.324929237365722656e+00 -3.730310127139091492e-02 -1.260545663535594940e-02 -1.497256755828857422e-02 -6.775485724210739136e-02
1.912000000000000000e+03 4.576683044433593750e+01 2.085529899597167969e+01 3.071578443050384521e-01 2.274149656295776367e+00 7.743922472000122070e-01 3.724415004253387451e-01
1.913000000000000000e+03 2.728978395462036133e+00 6.272872924804687500e+00 -1.660772068134974688e-05 -9.878427590592764318e-06 -7.945845027279574424e-06 5.093600066174985841e-06
1.914000000000000000e+03 5.775456905364990234e+00 4.925250053405761719e+00 -8.524074473825749010e-06 9.424459676665719599e-06 2.701157484352734173e-07 5.980845799058442935e-06
1.915000000000000000e+03 3.224821805953979492e+00 -5.401733875274658203e+00 -2.792737260460853577e-02 -3.988011926412582397e-02 -2.034224756062030792e-02 -7.922607660293579102e-02
1.916000000000000000e+03 7.391994476318359375e+01 -2.097110176086425781e+01 -2.799920912366360426e-04 -1.063689342117868364e-05 -8.718869503354653716e-05 -1.200440528918989003e-04
1.917000000000000000e+03 4.386790084838867188e+01 -2.490711402893066406e+01 2.220767140388488770e-01 3.884049654006958008e-01 1.831445097923278809e-01 -2.777301371097564697e-01
1.918000000000000000e+03 3.654648780822753906e+00 3.691046142578125000e+01 -5.538954792427830398e-05 1.664656301727518439e-04 3.332282358314841986e-05 -5.759508349001407623e-05
1.919000000000000000e+03 5.484911441802978516e+00 -3.719370269775390625e+01 2.446477534249424934e-03 2.998248338699340820e-01 9.068138897418975830e-02 3.679602814372628927e-04
1.920000000000000000e+03 7.218862152099609375e+01 -2.194575691223144531e+01 3.411875804886221886e-04 5.553627852350473404e-05 1.190171533380635083e-04 2.130108623532578349e-04
1.921000000000000000e+03 7.213587188720703125e+01 -2.069113349914550781e+01 -3.070213133469223976e-04 -5.481166226672939956e-05 -1.085498879547230899e-04 -7.408297824440523982e-05
1.922000000000000000e+03 5.683022689819335938e+01 2.428637266159057617e+00 -1.133820533752441406e+00 5.640257522463798523e-02 -3.232253789901733398e-01 -3.412865400314331055e-01
1.923000000000000000e+03 4.131882476806640625e+01 5.304396748542785645e-01 -2.216426134109497070e+00 1.039077281951904297e+00 -3.532046377658843994e-01 -6.663070917129516602e-01
1.924000000000000000e+03 4.107705307006835938e+01 -5.432531833648681641e-01 -2.863888263702392578e+00 9.900411367416381836e-01 -5.621541142463684082e-01 -1.204774618148803711e+00
1.925000000000000000e+03 4.397282409667968750e+01 -3.142247772216796875e+01 3.525517415255308151e-03 5.904827713966369629e-01 1.782024800777435303e-01 -2.903150916099548340e-01
1.926000000000000000e+03 2.663593864440917969e+01 -1.479941368103027344e+01 -6.840813159942626953e-01 3.828243315219879150e-01 -9.037709236145019531e-02 5.658262968063354492e-01
1.927000000000000000e+03 4.122839355468750000e+01 -2.253079223632812500e+01 2.886741757392883301e-01 8.684244751930236816e-01 3.471296131610870361e-01 -2.390145957469940186e-01
1.928000000000000000e+03 4.730836105346679688e+01 -3.078003883361816406e+01 5.335446074604988098e-02 3.340522050857543945e-01 1.162220016121864319e-01 -2.095967531204223633e-01
1.929000000000000000e+03 1.630838012695312500e+01 3.290784597396850586e+00 -2.923507054219953716e-06 -4.992107278667390347e-06 -2.374684299866203219e-06 4.276313063655834412e-07
1.930000000000000000e+03 1.708005523681640625e+01 4.608122348785400391e+00 5.891908131161471829e-06 9.915719601849559695e-06 4.742288638226455078e-06 7.769758667564019561e-06
1.931000000000000000e+03 1.547166728973388672e+01 6.085153579711914062e+00 -7.458212621713755652e-06 -1.864254409156274050e-05 -7.830226422811392695e-06 -1.651148158998694271e-05
1.932000000000000000e+03 1.542164993286132812e+01 5.075238704681396484e+00 -2.315835263289045542e-05 1.375906322209630162e-05 -2.819787141561391763e-06 -9.756899999047163874e-06
1.933000000000000000e+03 6.892261505126953125e+01 -6.780213832855224609e+00 -2.336541004478931427e-02 -7.123567163944244385e-03 -9.146693162620067596e-03 1.751552685163915157e-03
1.934000000000000000e+03 1.294506263732910156e+01 1.351689624786376953e+01 2.379739817115478218e-05 5.142498139321105555e-06 8.681969120516441762e-06 6.429403356378315948e-07
1.935000000000000000e+03 1.488603782653808594e+01 8.470859527587890625e+00 1.734391844365745783e-05 -6.450594810303300619e-06 3.267996817157836631e-06 -3.891742835548939183e-06
1.936000000000000000e+03 4.054286575317382812e+01 -2.596976041793823242e+00 -2.067826986312866211e+00 2.595826685428619385e-01 -5.424733161926269531e-01 -1.780511140823364258e+00
1.937000000000000000e+03 4.423900222778320312e+01 1.010546779632568359e+01 1.675577044486999512e+00 2.228057146072387695e+00 1.171090245246887207e+00 1.654171347618103027e+00
1.938000000000000000e+03 5.124510192871093750e+01 7.046701908111572266e+00 -2.078617066144943237e-01 -3.790492713451385498e-01 -1.760732978582382202e-01 -8.803747296333312988e-01
1.939000000000000000e+03 4.288886642456054688e+01 3.860423088073730469e+00 4.584260582923889160e-01 2.967528104782104492e-01 2.265536636114120483e-01 1.088464021682739258e+00
1.940000000000000000e+03 4.422000122070312500e+01 2.597343683242797852e+00 -2.427750110626220703e+00 -1.998836874961853027e+00 -1.327976107597351074e+00 -3.138607144355773926e-01
1.941000000000000000e+03 1.442414665222167969e+01 9.708930015563964844e+00 -1.812770278775133193e-05 4.473622084333328530e-06 -4.096224074601195753e-06 5.217639682086883113e-06
1.942000000000000000e+03 7.844617843627929688e+00 -1.395808887481689453e+01 1.560183018445968628e-01 5.512918829917907715e-01 2.121930569410324097e-01 1.726806461811065674e-01
1.943000000000000000e+03 4.570185089111328125e+01 1.934939956665039062e+01 3.990484178066253662e-01 2.295504093170166016e+00 8.083657622337341309e-01 5.087803006172180176e-01
1.944000000000000000e+03 4.513946533203125000e+01 2.844521903991699219e+01 3.211771249771118164e-01 1.975680112838745117e+00 6.890571713447570801e-01 -2.536764834076166153e-03
1.945000000000000000e+03 5.646893310546875000e+01 3.941473484039306641e+00 -9.662297368049621582e-01 5.098978430032730103e-02 -2.745719850063323975e-01 -5.355743169784545898e-01
1.946000000000000000e+03 1.241167354583740234e+01 -3.900816726684570312e+01 2.341237617656588554e-03 -1.187168955802917480e-01 -3.491269797086715698e-02 4.745271429419517517e-02
1.947000000000000000e+03 1.823555755615234375e+01 -3.481421279907226562e+01 -2.439785599708557129e-01 -6.706306338310241699e-02 -9.331248700618743896e-02 5.508461222052574158e-02
1.948000000000000000e+03 1.484332180023193359e+01 -1.352593708038330078e+01 2.812629938125610352e-01 -1.402007639408111572e-01 4.231866449117660522e-02 3.446911871433258057e-01
1.949000000000000000e+03 1.675921440124511719e+01 -1.489158439636230469e+01 1.231159344315528870e-01 -1.899739056825637817e-01 -2.005739323794841766e-02 3.206483125686645508e-01
1.950000000000000000e+03 5.449245452880859375e+00 -3.076901245117187500e+01 -2.908512949943542480e-01 2.534271180629730225e-01 -1.122725289314985275e-02 1.239171326160430908e-01
1.951000000000000000e+03 6.827354431152343750e+01 -2.369221210479736328e+00 -1.815597265958786011e-01 1.735063642263412476e-02 -4.926272481679916382e-02 -4.429328069090843201e-02
1.952000000000000000e+03 4.519783401489257812e+01 1.463415718078613281e+01 8.691242337226867676e-01 2.376458406448364258e+00 9.736747741699218750e-01 1.017963528633117676e+00
1.953000000000000000e+03 3.842164993286132812e+01 -2.298834609985351562e+01 4.263419806957244873e-01 1.706459522247314453e+00 6.398404836654663086e-01 -2.176603227853775024e-01
1.954000000000000000e+03 4.482464981079101562e+01 1.313242721557617188e+01 1.087732195854187012e+00 2.437319040298461914e+00 1.057515382766723633e+00 1.217642426490783691e+00
1.955000000000000000e+03 4.211149597167968750e+01 7.394823074340820312e+00 2.224328279495239258e+00 3.621838092803955078e+00 1.753849864006042480e+00 2.553905963897705078e+00
1.956000000000000000e+03 4.927697372436523438e+01 4.702072620391845703e+00 -1.317511320114135742e+00 -7.256574630737304688e-01 -6.129506230354309082e-01 -1.333308696746826172e+00
1.957000000000000000e+03 4.809411239624023438e+01 4.384229183197021484e+00 -1.152519464492797852e+00 -1.411246061325073242e+00 -7.691296935081481934e-01 -1.502263545989990234e+00
1.958000000000000000e+03 4.162526702880859375e+01 6.259210109710693359e+00 2.355267286300659180e+00 3.980534553527832031e+00 1.900740504264831543e+00 2.720950365066528320e+00
1.959000000000000000e+03 4.399298095703125000e+01 8.481935501098632812e+00 1.975241065025329590e+00 1.764502644538879395e+00 1.121923089027404785e+00 1.738106966018676758e+00
1.960000000000000000e+03 1.794860076904296875e+01 -3.762901306152343750e+01 -1.196754649281501770e-01 -1.107451990246772766e-01 -6.912620365619659424e-02 5.884157866239547729e-02
1.961000000000000000e+03 1.965598869323730469e+01 -3.618114852905273438e+01 -1.862775236368179321e-01 -6.824718415737152100e-02 -7.635740935802459717e-02 3.500002995133399963e-02
1.962000000000000000e+03 1.270469474792480469e+01 3.057580184936523438e+01 4.017928222310729325e-05 -4.197900125291198492e-05 -5.399160727392882109e-07 6.146015493868617341e-06
1.963000000000000000e+03 3.920186233520507812e+01 1.339827299118041992e+00 1.502501815557479858e-01 4.475170135498046875e+00 1.387626051902770996e+00 1.384484171867370605e+00
1.964000000000000000e+03 4.054417419433593750e+01 2.947783470153808594e+00 5.367193818092346191e-01 3.868173837661743164e+00 1.321467995643615723e+00 1.768570423126220703e+00
1.965000000000000000e+03 4.418910598754882812e+01 3.957222461700439453e+00 -1.492520235478878021e-02 -1.308381557464599609e+00 -3.969920575618743896e-01 2.513829469680786133e-01
1.966000000000000000e+03 4.272810745239257812e+01 6.479997158050537109e+00 2.159498691558837891e+00 2.115429639816284180e+00 1.282478451728820801e+00 2.086017370223999023e+00
1.967000000000000000e+03 3.100094413757324219e+01 -1.463978862762451172e+01 -7.334221005439758301e-01 8.048273921012878418e-01 2.142158336937427521e-02 -7.102030515670776367e-01
1.968000000000000000e+03 3.718204498291015625e+01 -6.959308385848999023e-01 -3.346785008907318115e-01 4.194831371307373047e+00 1.158045887947082520e+00 1.394131779670715332e+00
1.969000000000000000e+03 3.525286865234375000e+01 -1.997146248817443848e+00 -7.448966503143310547e-01 3.238618612289428711e+00 7.481165528297424316e-01 2.372220516204833984e+00
1.970000000000000000e+03 6.256583023071289062e+01 -4.115189361572265625e+01 2.405443787574768066e-02 2.970142289996147156e-03 8.107374422252178192e-03 4.778430331498384476e-03
1.971000000000000000e+03 6.596871948242187500e+01 -3.593054962158203125e+01 -1.903090742416679859e-03 -1.141049782745540142e-03 -9.132421691901981831e-04 9.274767711758613586e-03
1.972000000000000000e+03 4.151047134399414062e+01 1.596586346626281738e+00 -1.475571155548095703e+00 1.265213489532470703e+00 -6.310728937387466431e-02 1.529586315155029297e-01
1.973000000000000000e+03 4.155381393432617188e+01 -2.403605461120605469e+01 3.233763277530670166e-01 7.714879512786865234e-01 3.284592926502227783e-01 -3.136137127876281738e-01
1.974000000000000000e+03 3.710233688354492188e+01 -3.012412834167480469e+01 -1.128920540213584900e-01 1.292034506797790527e+00 3.537427186965942383e-01 -9.248018264770507812e-02
1.975000000000000000e+03 3.668716049194335938e+01 -2.776731491088867188e+01 1.010767295956611633e-01 1.596435666084289551e+00 5.092537403106689453e-01 -5.611559748649597168e-02
1.976000000000000000e+03 6.643517303466796875e+01 -3.326059341430664062e+01 -1.227357797324657440e-02 2.784195588901638985e-03 -2.846814692020416260e-03 4.054028075188398361e-03
1.977000000000000000e+03 3.750175857543945312e+01 -3.353127670288085938e+01 -2.549823224544525146e-01 1.021435618400573730e+00 2.299359738826751709e-01 -6.674227863550186157e-02
1.978000000000000000e+03 3.729797744750976562e+01 -3.169912338256835938e+01 -2.102043479681015015e-01 1.130763769149780273e+00 2.761678099632263184e-01 -8.782247453927993774e-02
1.979000000000000000e+03 5.029854965209960938e+01 5.175836086273193359e+00 -1.058919787406921387e+00 -4.927622973918914795e-01 -4.655046164989471436e-01 -1.110057115554809570e+00
1.980000000000000000e+03 3.562221527099609375e+01 -2.896575927734375000e+01 -3.957910090684890747e-02 1.497920274734497070e+00 4.375023543834686279e-01 9.523392468690872192e-02
1.981000000000000000e+03 7.204944610595703125e+01 -2.479673957824707031e+01 -3.754878998734056950e-04 -3.982217458542436361e-04 -2.321128995390608907e-04 -4.186309524811804295e-04
1.982000000000000000e+03 1.197216987609863281e+01 1.640067291259765625e+01 2.673308881639968604e-05 1.669284392846748233e-05 1.302778036915697157e-05 1.396777633999590762e-06
1.983000000000000000e+03 7.501432800292968750e+01 -2.383391380310058594e+01 2.301195345353335142e-04 -3.317127948321285658e-06 6.804072472732514143e-05 1.897408656077459455e-04
1.984000000000000000e+03 1.956063842773437500e+01 3.547000122070312500e+01 -1.803376799216493964e-04 3.037495189346373081e-04 3.702355388668365777e-05 -5.916897207498550415e-04
1.985000000000000000e+03 4.365138244628906250e+01 2.977210617065429688e+01 3.239893913269042969e-01 2.081197500228881836e+00 7.215561270713806152e-01 -1.237025558948516846e-01
1.986000000000000000e+03 3.995584106445312500e+01 -2.031968879699707031e+01 2.529602944850921631e-01 1.255703926086425781e+00 4.525992870330810547e-01 -9.166154265403747559e-02
1.987000000000000000e+03 6.324772262573242188e+01 6.372269392013549805e-01 -5.480127930641174316e-01 8.251278102397918701e-02 -1.396500021219253540e-01 -1.934971064329147339e-01
1.988000000000000000e+03 3.943066406250000000e+01 -3.140633583068847656e+00 -1.816240429878234863e+00 1.159813642501831055e+00 -1.969280391931533813e-01 -1.271559357643127441e+00
1.989000000000000000e+03 1.230391979217529297e+01 2.724537849426269531e+01 4.187987542536575347e-06 3.526233194861561060e-05 1.183509630209300667e-05 7.954761531436815858e-05
1.990000000000000000e+03 5.707360744476318359e+00 2.438910675048828125e+01 6.212110747583210468e-05 2.068710273306351155e-05 2.484246215317398310e-05 2.158600909751839936e-05
1.991000000000000000e+03 1.306130599975585938e+01 2.410587310791015625e+01 3.141958950436674058e-05 -1.093982518796110526e-05 6.143929113022750244e-06 -1.992981879084254615e-06
1.992000000000000000e+03 1.175636100769042969e+01 2.266506576538085938e+01 5.429179873317480087e-05 -1.890026032924652100e-05 1.061746115738060325e-05 4.242167051415890455e-06
1.993000000000000000e+03 4.317008590698242188e+01 3.596246719360351562e+01 -1.687767654657363892e-01 1.533560752868652344e+00 4.094352126121520996e-01 -7.380591332912445068e-02
1.994000000000000000e+03 5.479142665863037109e+00 -1.225329875946044922e+01 -2.366616204380989075e-02 2.375110834836959839e-01 6.415347754955291748e-02 -9.502857923507690430e-02
1.995000000000000000e+03 5.265845775604248047e+00 -1.089988517761230469e+01 -3.791739791631698608e-02 1.554383486509323120e-01 3.525628522038459778e-02 -1.041022390127182007e-01
1.996000000000000000e+03 6.475904846191406250e+01 -3.752779006958007812e+01 8.659810759127140045e-03 1.103851391235366464e-04 2.631058683618903160e-03 1.213776879012584686e-02
1.997000000000000000e+03 3.989971160888671875e+01 -3.192323446273803711e-01 -1.682119250297546387e+00 2.548260927200317383e+00 2.598425447940826416e-01 -4.114490747451782227e-01
1.998000000000000000e+03 7.252428436279296875e+01 -3.288093185424804688e+01 -2.043124753981828690e-03 8.301601046696305275e-04 -3.638893831521272659e-04 3.880026983097195625e-03
1.999000000000000000e+03 7.099034118652343750e+01 -2.936136436462402344e+01 -2.055249642580747604e-03 5.213390686549246311e-04 -4.601732071023434401e-04 4.771493549924343824e-04
2.000000000000000000e+03 1.128068828582763672e+01 -1.305744361877441406e+01 2.173961848020553589e-01 2.432696521282196045e-01 1.381997466087341309e-01 3.201957046985626221e-01
2.001000000000000000e+03 6.541572570800781250e+01 -1.901317238807678223e+00 -3.221158981323242188e-01 5.233528092503547668e-02 -8.093418180942535400e-02 -4.341073706746101379e-02
2.002000000000000000e+03 6.492928314208984375e+01 1.014357447624206543e+00 -4.410100281238555908e-01 7.430455833673477173e-02 -1.100116372108459473e-01 -2.000425755977630615e-01
2.003000000000000000e+03 4.485180664062500000e+01 2.977977561950683594e+01 2.820148468017578125e-01 1.934893012046813965e+00 6.650723814964294434e-01 -2.491991734132170677e-03
2.004000000000000000e+03 6.682798004150390625e+01 -2.330095529556274414e+00 -2.396716773509979248e-01 4.896825924515724182e-02 -5.721102282404899597e-02 -3.080559335649013519e-02
2.005000000000000000e+03 4.070473480224609375e+01 -2.125165939331054688e+01 2.743353843688964844e-01 9.523539543151855469e-01 3.680067956447601318e-01 -1.914076507091522217e-01
2.006000000000000000e+03 7.224113464355468750e+01 -2.674876785278320312e+01 -4.421247285790741444e-04 -2.909862669184803963e-04 -2.199332957388833165e-04 -1.264811871806159616e-04
2.007000000000000000e+03 7.393855285644531250e+01 -2.653276634216308594e+01 -5.472165066748857498e-04 -4.606193688232451677e-04 -3.023507597390562296e-04 -3.195084282197058201e-04
2.008000000000000000e+03 3.772319793701171875e+01 -1.624186325073242188e+01 -3.497416675090789795e-01 1.551311612129211426e+00 3.604709804058074951e-01 -4.142895638942718506e-01
2.009000000000000000e+03 3.464958190917968750e+01 -3.568071365356445312e+01 -2.891227900981903076e-01 8.066006898880004883e-01 1.552433669567108154e-01 1.048749312758445740e-01
2.010000000000000000e+03 7.375354003906250000e+01 -3.260769653320312500e+01 -9.373700013384222984e-04 -1.129177981056272984e-03 -6.199643830768764019e-04 2.605376532301306725e-03
2.011000000000000000e+03 4.530590438842773438e+01 3.315646743774414062e+01 2.538763545453548431e-02 1.640410661697387695e+00 4.997394979000091553e-01 7.193959504365921021e-02
2.012000000000000000e+03 4.576117706298828125e+01 3.521282577514648438e+01 -1.163002178072929382e-01 1.540284156799316406e+00 4.271951913833618164e-01 8.220729231834411621e-02
2.013000000000000000e+03 4.047459411621093750e+01 -2.559446907043457031e+01 3.099767565727233887e-01 1.024315714836120605e+00 4.002877473831176758e-01 -3.510018289089202881e-01
2.014000000000000000e+03 5.364745616912841797e+00 -1.626601982116699219e+01 2.816468477249145508e-01 5.081173181533813477e-01 2.369292378425598145e-01 6.138770654797554016e-02
2.015000000000000000e+03 8.409852027893066406e+00 -3.431605148315429688e+01 -1.299031227827072144e-01 -8.455571532249450684e-02 -6.433764845132827759e-02 6.107989326119422913e-02
2.016000000000000000e+03 3.295257949829101562e+01 -8.732686042785644531e+00 1.470939517021179199e+00 1.754071831703186035e+00 9.675033688545227051e-01 -1.678410887718200684e+00
2.017000000000000000e+03 3.178738021850585938e+01 -8.283257484436035156e+00 1.464666008949279785e+00 3.571692705154418945e+00 1.510907649993896484e+00 -1.792683482170104980e+00
2.018000000000000000e+03 3.144109344482421875e+01 -8.062316894531250000e+00 1.439572572708129883e+00 4.623429298400878906e+00 1.818900585174560547e+00 -1.674717187881469727e+00
2.019000000000000000e+03 3.109621047973632812e+01 -8.920600891113281250e+00 8.610081672668457031e-01 4.028325557708740234e+00 1.466800212860107422e+00 -8.876049518585205078e-01
2.020000000000000000e+03 3.050169372558593750e+01 -8.253954887390136719e+00 1.180853843688964844e+00 5.420165538787841797e+00 1.980305910110473633e+00 3.650683537125587463e-02
2.021000000000000000e+03 3.083957290649414062e+01 -7.923477172851562500e+00 1.265074014663696289e+00 6.111335277557373047e+00 2.212922811508178711e+00 -6.754078269004821777e-01
2.022000000000000000e+03 3.231964111328125000e+01 -1.420822906494140625e+01 -6.404315829277038574e-01 1.189040064811706543e+00 1.645825356245040894e-01 -1.117540836334228516e+00
2.023000000000000000e+03 3.338276672363281250e+01 -3.336573123931884766e+00 -1.965081542730331421e-01 1.857422351837158203e+00 4.982742667198181152e-01 4.366079330444335938e+00
2.024000000000000000e+03 3.022052955627441406e+01 -8.720492362976074219e+00 1.035134196281433105e+00 4.364697456359863281e+00 1.619949460029602051e+00 2.546640932559967041e-01
2.025000000000000000e+03 2.721202278137207031e+01 -1.034453201293945312e+01 1.127401947975158691e+00 1.193530201911926270e+00 6.962796449661254883e-01 1.162189006805419922e+00
2.026000000000000000e+03 2.777342033386230469e+01 -7.900882720947265625e+00 3.068770170211791992e+00 1.151234865188598633e+00 1.266001462936401367e+00 1.544688582420349121e+00
2.027000000000000000e+03 3.358468246459960938e+01 -9.143850326538085938e+00 1.259890317916870117e+00 1.314493298530578613e+00 7.723150849342346191e-01 -1.517761349678039551e+00
2.028000000000000000e+03 9.502642631530761719e+00 -4.910884857177734375e+00 -5.680495500564575195e-02 4.877899587154388428e-02 -2.407787367701530457e-03 -3.984139766544103622e-03
2.029000000000000000e+03 1.021302032470703125e+01 -4.933082103729248047e+00 -5.415612459182739258e-02 4.257570207118988037e-02 -3.474125871434807777e-03 3.678871085867285728e-03
2.030000000000000000e+03 1.615933990478515625e+01 4.996503353118896484e+00 7.524947704951046035e-06 -1.656646418268792331e-05 -2.712455170694738626e-06 -7.613268735440215096e-06
2.031000000000000000e+03 7.601951599121093750e+01 -1.851205825805664062e+01 9.294581832364201546e-05 -1.780163584044203162e-04 -2.552116347942501307e-05 -1.265664905076846480e-04
2.032000000000000000e+03 7.310456848144531250e+01 -1.791907501220703125e+01 1.368461525999009609e-04 7.321828888962045312e-05 6.301933171926066279e-05 2.090914131258614361e-05
2.033000000000000000e+03 1.092280960083007812e+01 -4.965523719787597656e+00 -3.967442736029624939e-02 2.925384975969791412e-02 -3.126173047348856926e-03 1.665401458740234375e-02
2.034000000000000000e+03 3.778474044799804688e+01 -2.795204877853393555e+00 -1.598756790161132812e+00 2.475648880004882812e+00 2.630676627159118652e-01 2.723324298858642578e-02
2.035000000000000000e+03 3.860335540771484375e+01 -2.930833101272583008e+00 -1.805146455764770508e+00 1.866356849670410156e+00 1.836309954524040222e-02 -8.307381272315979004e-01
2.036000000000000000e+03 3.424475097656250000e+01 -1.046817302703857422e+01 6.327361464500427246e-01 1.229027748107910156e+00 5.585291385650634766e-01 -1.410558104515075684e+00
2.037000000000000000e+03 1.004224967956542969e+01 3.810618877410888672e+00 3.110200736955448519e-07 5.531594524654792622e-07 2.592538521639653482e-07 5.634753961203387007e-06
2.038000000000000000e+03 4.151121139526367188e+00 4.351409435272216797e+00 2.285895970999263227e-05 -1.322821026406018063e-05 2.889224788305000402e-06 -5.700892870663665235e-06
2.039000000000000000e+03 4.879779338836669922e+00 4.265995025634765625e+00 -7.747776180622167885e-06 -7.225414151434961241e-07 -2.541095227570622228e-06 1.283286110265180469e-05
2.040000000000000000e+03 7.108895301818847656e+00 4.022694110870361328e+00 4.665804226533509791e-06 6.279851163526473101e-07 1.588136797181505244e-06 -6.808459602325456217e-06
2.041000000000000000e+03 5.018902778625488281e+00 6.760386466979980469e+00 -2.411480636510532349e-05 -1.975422856048680842e-05 -1.316071029577869922e-05 -4.356431304586294573e-07
2.042000000000000000e+03 3.164839363098144531e+01 -3.660698652267456055e+00 -1.745416820049285889e-01 4.339370250701904297e+00 1.249448537826538086e+00 5.244018554687500000e+00
2.043000000000000000e+03 3.256188583374023438e+01 -3.691439151763916016e+00 5.455019474029541016e-01 2.455411434173583984e+00 9.002739787101745605e-01 5.164310455322265625e+00
2.044000000000000000e+03 1.491344928741455078e+01 3.252835273742675781e+00 -3.788283493122435175e-06 -7.967083206494862679e-07 -1.375497504341183230e-06 1.715089183562668040e-06
2.045000000000000000e+03 1.544274234771728516e+01 4.480879783630371094e+00 1.042323128785938025e-05 -1.054328276950400323e-05 -3.601532228003634373e-08 -3.757432523343595676e-06
2.046000000000000000e+03 1.343874168395996094e+01 3.991671562194824219e+00 9.776129445526748896e-06 -7.925502814032370225e-07 2.695073817449156195e-06 -2.936129703812184744e-06
2.047000000000000000e+03 7.846097946166992188e+00 3.987042427062988281e+00 -1.493671788921346888e-06 -2.657971663211355917e-06 -1.245493081114545930e-06 5.572976533585460857e-06
2.048000000000000000e+03 8.728912353515625000e+00 4.675642490386962891e+00 6.175021553644910455e-06 -4.413199349073693156e-06 5.285467636895191390e-07 2.183563310609315522e-06
2.049000000000000000e+03 7.999861240386962891e+00 4.739347457885742188e+00 3.811955764376762090e-07 2.853538717317860574e-06 9.704202739158063196e-07 -6.976054919505259022e-06
2.050000000000000000e+03 7.673119354248046875e+01 -1.899017715454101562e+01 1.944936229847371578e-05 1.011398271657526493e-04 3.617675611167214811e-05 -2.776897781586740166e-05
2.051000000000000000e+03 7.451712799072265625e+01 -1.785017776489257812e+01 2.037764497799798846e-04 1.222973805852234364e-04 9.782215056475251913e-05 1.442994980607181787e-04
2.052000000000000000e+03 3.403935623168945312e+01 -3.427845716476440430e+00 -2.914225161075592041e-01 1.802175521850585938e+00 4.532259106636047363e-01 3.630407333374023438e+00
2.053000000000000000e+03 3.456710052490234375e+01 -3.093866348266601562e+00 -7.348576784133911133e-01 2.195859432220458984e+00 4.383005499839782715e-01 2.946929931640625000e+00
2.054000000000000000e+03 7.241567993164062500e+01 -1.951545906066894531e+01 3.666603297460824251e-04 -2.640615566633641720e-04 3.077962901443243027e-05 -4.832284048461588100e-06
2.055000000000000000e+03 7.332896423339843750e+01 -1.985104370117187500e+01 -3.180303901899605989e-04 1.079674912034533918e-04 -6.301887333393096924e-05 -4.286906550987623632e-05
2.056000000000000000e+03 1.247648525238037109e+01 4.603339672088623047e+00 1.627043639018665999e-05 -8.919803349272115156e-07 4.613536930264672264e-06 4.395858468342339620e-06
2.057000000000000000e+03 1.387726306915283203e+01 -5.250836372375488281e+00 2.694571763277053833e-02 -5.919842049479484558e-02 -9.675810113549232483e-03 1.651014387607574463e-02
2.058000000000000000e+03 1.238087177276611328e+01 -5.070844173431396484e+00 -1.299073267728090286e-02 -5.833393428474664688e-03 -5.647237878292798996e-03 2.593204192817211151e-02
2.059000000000000000e+03 8.007932662963867188e+00 -4.110466480255126953e+00 -7.284890115261077881e-02 3.953509032726287842e-02 -9.994144551455974579e-03 -3.259532526135444641e-02
2.060000000000000000e+03 7.387878417968750000e+00 -6.388880252838134766e+00 -6.059354916214942932e-02 8.385299891233444214e-02 6.977834738790988922e-03 -4.439170658588409424e-02
2.061000000000000000e+03 7.260215759277343750e+01 -9.600841522216796875e+00 1.973062288016080856e-03 -1.106876507401466370e-02 -2.728710882365703583e-03 1.247737673111259937e-03
2.062000000000000000e+03 1.161554622650146484e+01 3.701189279556274414e+00 6.382805622706655413e-06 -6.551899332407629117e-06 -5.072804398764674261e-08 2.242296204713056795e-06
2.063000000000000000e+03 7.201306915283203125e+01 -7.616517543792724609e+00 -1.536627020686864853e-02 -1.626892201602458954e-02 -9.490557946264743805e-03 -1.952689141035079956e-03
2.064000000000000000e+03 1.165091419219970703e+01 4.460892200469970703e+00 -1.177093781734583899e-05 -4.115091485346056288e-07 -3.654734200608800165e-06 -7.520639883296098560e-06
2.065000000000000000e+03 1.622639465332031250e+01 -5.467897415161132812e+00 1.106241568922996521e-01 -1.600378602743148804e-01 -1.482410915195941925e-02 -4.830455780029296875e-02
2.066000000000000000e+03 1.703875923156738281e+01 -5.537593841552734375e+00 1.613206863403320312e-01 -2.242489606142044067e-01 -1.887847855687141418e-02 -7.587973773479461670e-02
2.067000000000000000e+03 3.626651000976562500e+01 -1.094072723388671875e+01 3.851450085639953613e-01 8.329645991325378418e-01 3.654328882694244385e-01 -1.055950522422790527e+00
2.068000000000000000e+03 3.686732864379882812e+01 -1.596159076690673828e+01 -5.301756858825683594e-01 1.717168331146240234e+00 3.560977876186370850e-01 -5.705368518829345703e-01
2.069000000000000000e+03 2.045107460021972656e+01 -5.619845867156982422e+00 4.058451056480407715e-01 -4.294147789478302002e-01 -7.070901338011026382e-03 -3.150845170021057129e-01
2.070000000000000000e+03 3.271909332275390625e+01 -3.327951431274414062e+00 -3.804984688758850098e-01 2.516103506088256836e+00 6.406815052032470703e-01 4.829699516296386719e+00
2.071000000000000000e+03 3.307109451293945312e+01 -2.935559511184692383e+00 -7.760522365570068359e-01 2.309898376464843750e+00 4.601538777351379395e-01 4.468313694000244141e+00
2.072000000000000000e+03 1.312421894073486328e+01 -5.155922412872314453e+00 1.783784227882279083e-06 -2.604185044765472412e-02 -7.812019903212785721e-03 1.781844906508922577e-02
2.073000000000000000e+03 7.231445312500000000e+01 -8.645601272583007812e+00 -4.230422899127006531e-03 -1.407219097018241882e-02 -5.490784067660570145e-03 -1.495037227869033813e-03
2.074000000000000000e+03 3.538837432861328125e+01 -1.136225795745849609e+01 3.129563927650451660e-01 1.081101536750793457e+00 4.182173609733581543e-01 -1.258378505706787109e+00
2.075000000000000000e+03 7.356209564208984375e+01 -8.707618713378906250e+00 -6.182532757520675659e-03 -8.039392530918121338e-03 -4.266577772796154022e-03 4.029318224638700485e-03
2.076000000000000000e+03 4.335567951202392578e+00 -5.220288753509521484e+00 -4.190432280302047729e-02 -6.772945635020732880e-03 -1.460318081080913544e-02 -8.111893385648727417e-02
2.077000000000000000e+03 3.946818113327026367e+00 -6.676445960998535156e+00 -3.790653124451637268e-02 -1.821610145270824432e-02 -1.683679036796092987e-02 -9.802992641925811768e-02
2.078000000000000000e+03 7.028651428222656250e+01 -8.961878776550292969e+00 5.189655930735170841e-04 -7.624351885169744492e-03 -2.131615998223423958e-03 -2.363271079957485199e-03
2.079000000000000000e+03 7.523915863037109375e+01 -8.986526489257812500e+00 1.660059322603046894e-03 -4.596314392983913422e-03 -8.808764978311955929e-04 7.485335692763328552e-03
2.080000000000000000e+03 7.613198852539062500e+01 -7.829953193664550781e+00 -3.107494907453656197e-03 -7.440581102855503559e-04 -1.155465841293334961e-03 7.861167192459106445e-03
2.081000000000000000e+03 2.705214118957519531e+01 -7.652178287506103516e+00 3.059777498245239258e+00 3.921044170856475830e-01 1.035564541816711426e+00 1.178026795387268066e+00
2.082000000000000000e+03 2.899579811096191406e+01 -7.964184284210205078e+00 2.574827194213867188e+00 3.797493934631347656e+00 1.911696434020996094e+00 2.010299444198608398e+00
2.083000000000000000e+03 3.657825851440429688e+01 -1.279630851745605469e+01 -5.377227067947387695e-02 1.131723523139953613e+00 3.233853876590728760e-01 -9.955379962921142578e-01
2.084000000000000000e+03 5.159914016723632812e+00 -4.763773918151855469e+00 -5.019794777035713196e-02 1.144111435860395432e-02 -1.162705011665821075e-02 -7.264776527881622314e-02
2.085000000000000000e+03 5.863488197326660156e+00 -4.819218635559082031e+00 -5.641029775142669678e-02 2.679128758609294891e-02 -8.885703049600124359e-03 -6.597022712230682373e-02
2.086000000000000000e+03 6.622469425201416016e+00 -5.613562583923339844e+00 -6.073211506009101868e-02 5.359564349055290222e-02 -2.140941563993692398e-03 -6.033806502819061279e-02
2.087000000000000000e+03 7.156011199951171875e+01 -8.321491241455078125e+00 -5.225904751569032669e-03 -1.017936039716005325e-02 -4.621579311788082123e-03 1.436845283024013042e-03
2.088000000000000000e+03 1.542302894592285156e+01 -5.405621051788330078e+00 8.126447349786758423e-02 -1.298780143260955811e-01 -1.458405982702970505e-02 -1.520201098173856735e-02
2.089000000000000000e+03 7.325273036956787109e+00 -4.868117809295654297e+00 -6.585165113210678101e-02 4.881260544061660767e-02 -5.111714359372854233e-03 -4.563397541642189026e-02
2.090000000000000000e+03 8.058125495910644531e+00 -4.882142543792724609e+00 -6.383037567138671875e-02 5.174098536372184753e-02 -3.626817138865590096e-03 -3.111175820231437683e-02
2.091000000000000000e+03 3.476033401489257812e+01 -1.115360546112060547e+01 3.842073380947113037e-01 1.166460156440734863e+00 4.652002751827239990e-01 -1.342817544937133789e+00
2.092000000000000000e+03 1.874365806579589844e+01 -4.915960788726806641e+00 1.476557403802871704e-01 -2.615551352500915527e-01 -3.416981548070907593e-02 -2.220746129751205444e-01
2.093000000000000000e+03 1.464161396026611328e+01 -5.337662696838378906e+00 4.530441761016845703e-02 -8.352677524089813232e-02 -1.146670710295438766e-02 -1.976270927116274834e-03
2.094000000000000000e+03 1.086395263671875000e+01 4.416082859039306641e+00 5.812217295897426084e-06 1.910770606627920642e-06 2.316896370757604018e-06 9.774862519407179207e-06
2.095000000000000000e+03 2.758199310302734375e+01 -6.515603542327880859e+00 4.204082012176513672e+00 2.666917443275451660e-01 1.341232180595397949e+00 8.214924931526184082e-01
2.096000000000000000e+03 1.870389175415039062e+01 -5.642429828643798828e+00 2.686971127986907959e-01 -3.286472856998443604e-01 -1.798504590988159180e-02 -1.711000204086303711e-01
2.097000000000000000e+03 2.037349700927734375e+01 -6.409674167633056641e+00 5.817543268203735352e-01 -4.648413360118865967e-01 3.507389873266220093e-02 -2.153576463460922241e-01
2.098000000000000000e+03 9.641020774841308594e+00 5.249286651611328125e+00 8.260290087491739541e-06 3.892298536811722443e-06 3.645776359917363152e-06 -4.404064384289085865e-06
2.099000000000000000e+03 7.082905578613281250e+01 -7.882978916168212891e+00 -1.451320573687553406e-02 -1.561357639729976654e-02 -9.038034826517105103e-03 -3.292921232059597969e-03
2.100000000000000000e+03 1.785899734497070312e+01 -5.602968215942382812e+00 2.096784263849258423e-01 -2.578521370887756348e-01 -1.445211283862590790e-02 -1.258220672607421875e-01
2.101000000000000000e+03 3.296128082275390625e+01 -1.543052482604980469e+01 -9.566845893859863281e-01 1.218257665634155273e+00 7.847192138433456421e-02 -1.191721320152282715e+00
2.102000000000000000e+03 3.456964111328125000e+01 -1.600029563903808594e+01 -9.818528890609741211e-01 1.703140258789062500e+00 2.163862138986587524e-01 -1.156065583229064941e+00
2.103000000000000000e+03 3.293993759155273438e+01 -1.447108459472656250e+01 -6.718300580978393555e-01 1.338861107826232910e+00 2.001093178987503052e-01 -1.208568930625915527e+00
2.104000000000000000e+03 1.935927009582519531e+01 -7.200968265533447266e+00 5.636236071586608887e-01 -4.367681741714477539e-01 3.805663064122200012e-02 -5.432079359889030457e-02
2.105000000000000000e+03 2.474485397338867188e+01 -5.936825752258300781e+00 1.711669802665710449e+00 -9.072902798652648926e-01 2.413138449192047119e-01 -7.135897278785705566e-01
2.106000000000000000e+03 7.163296508789062500e+01 -4.522545814514160156e+00 -6.322487443685531616e-02 -9.712449274957180023e-03 -2.188119664788246155e-02 -2.037525922060012817e-02
2.107000000000000000e+03 6.856186676025390625e+01 -3.868349075317382812e+00 -1.257512122392654419e-01 1.058163493871688843e-02 -3.455087542533874512e-02 -1.461227517575025558e-02
2.108000000000000000e+03 1.809778404235839844e+01 -1.298828792572021484e+01 3.052720427513122559e-01 -2.718964219093322754e-01 1.001268904656171799e-02 4.220643341541290283e-01
2.109000000000000000e+03 1.651065063476562500e+01 -1.336674594879150391e+01 2.695060074329376221e-01 -2.212219983339309692e-01 1.448520272970199585e-02 3.678657114505767822e-01
2.110000000000000000e+03 2.570129203796386719e+01 -1.510894870758056641e+01 -6.003153324127197266e-01 2.496209144592285156e-01 -1.052083298563957214e-01 6.529260873794555664e-01
2.111000000000000000e+03 2.527717208862304688e+01 -1.419056129455566406e+01 -2.814601361751556396e-01 2.629723548889160156e-01 -5.546340253204107285e-03 7.609930038452148438e-01
2.112000000000000000e+03 2.304257965087890625e+01 -4.567046642303466797e+00 2.027012854814529419e-01 -4.096994400024414062e-01 -6.209944561123847961e-02 -8.391390442848205566e-01
2.113000000000000000e+03 2.476540946960449219e+01 -5.123873233795166016e+00 1.120220184326171875e+00 -7.997218966484069824e-01 9.614947438240051270e-02 -1.126258969306945801e+00
2.114000000000000000e+03 6.673612117767333984e+00 -1.378958415985107422e+01 6.318239122629165649e-02 4.712121188640594482e-01 1.603183597326278687e-01 2.280169166624546051e-02
2.115000000000000000e+03 6.943028259277343750e+01 -7.700879096984863281e+00 -1.460750773549079895e-02 -1.199251692742109299e-02 -7.980007678270339966e-03 -2.019378822296857834e-03
2.116000000000000000e+03 6.818530273437500000e+01 -7.520506381988525391e+00 -1.141844503581523895e-02 -9.000505320727825165e-03 -6.125685293227434158e-03 -4.768553189933300018e-03
2.117000000000000000e+03 6.463237762451171875e+00 -1.653171920776367188e+01 3.623087108135223389e-01 7.518672943115234375e-01 3.342527747154235840e-01 1.671384274959564209e-01
2.118000000000000000e+03 4.667861557006835938e+01 5.674519062042236328e+00 4.233568310737609863e-01 -1.172771573066711426e+00 -2.248244136571884155e-01 -5.029217004776000977e-01
2.119000000000000000e+03 4.530548095703125000e+01 6.996541023254394531e+00 1.509694099426269531e+00 -3.352224454283714294e-02 4.428515434265136719e-01 6.903683543205261230e-01
2.120000000000000000e+03 2.711191177368164062e+01 -3.184659719467163086e+00 -2.537342309951782227e+00 -6.362589001655578613e-01 -9.520803689956665039e-01 -2.123444795608520508e+00
2.121000000000000000e+03 2.708465766906738281e+01 -3.825607299804687500e+00 -1.789369583129882812e-01 -1.051851034164428711e+00 -3.692363798618316650e-01 -2.528199195861816406e+00
2.122000000000000000e+03 3.206478881835937500e+01 -8.804055213928222656e+00 1.233398079872131348e+00 2.862755060195922852e+00 1.228845953941345215e+00 -1.683689475059509277e+00
2.123000000000000000e+03 3.028955268859863281e+01 -1.531692123413085938e+01 -1.125243663787841797e+00 3.449856936931610107e-01 -2.340773791074752808e-01 -3.649567067623138428e-01
2.124000000000000000e+03 3.779343795776367188e+01 -1.907837486267089844e+01 3.191380202770233154e-02 1.841174721717834473e+00 5.619265437126159668e-01 -2.352274581789970398e-02
2.125000000000000000e+03 3.781217956542968750e+01 -1.529608249664306641e+01 -3.387266397476196289e-01 1.434674382209777832e+00 3.287843465805053711e-01 -5.501759052276611328e-01
2.126000000000000000e+03 4.411108016967773438e+01 5.343533992767333984e+00 1.154302239418029785e+00 -1.947982758283615112e-01 2.878511846065521240e-01 8.966096043586730957e-01
2.127000000000000000e+03 3.872067260742187500e+01 -1.530601024627685547e+01 -2.051724195480346680e-01 1.256432771682739258e+00 3.153780996799468994e-01 -4.139934182167053223e-01
2.128000000000000000e+03 3.579268646240234375e+01 -1.230618572235107422e+01 4.224650561809539795e-02 1.168970227241516113e+00 3.633649945259094238e-01 -1.194099903106689453e+00
2.129000000000000000e+03 3.583549118041992188e+01 -1.745520019531250000e+01 -6.649098992347717285e-01 2.106376409530639648e+00 4.324399828910827637e-01 -4.466314017772674561e-01
2.130000000000000000e+03 5.913203811645507812e+01 1.715135455131530762e+00 -8.979966640472412109e-01 3.403529897332191467e-02 -2.591884136199951172e-01 -2.837370932102203369e-01
2.131000000000000000e+03 5.575077819824218750e+01 2.892689466476440430e+00 -1.208467721939086914e+00 9.576089680194854736e-02 -3.338120281696319580e-01 -3.957248926162719727e-01
2.132000000000000000e+03 1.235365200042724609e+01 -1.304274082183837891e+01 2.916656136512756348e-01 1.079627946019172668e-01 1.198885217308998108e-01 3.684288561344146729e-01
2.133000000000000000e+03 1.322984123229980469e+01 -1.345620155334472656e+01 3.055372834205627441e-01 2.562114037573337555e-02 9.934752434492111206e-02 3.471148312091827393e-01
2.134000000000000000e+03 7.509720611572265625e+01 -3.064969444274902344e+01 -1.448626862838864326e-03 -5.253903800621628761e-04 -5.922052077949047089e-04 9.700491791591048241e-04
2.135000000000000000e+03 1.343375778198242188e+01 1.219589424133300781e+01 -2.131067776645068079e-05 -2.868073124773218296e-06 -7.253624971781391650e-06 -6.674923014315936598e-08
2.136000000000000000e+03 3.798672866821289062e+01 -1.128327751159667969e+01 2.199545055627822876e-01 6.582162976264953613e-01 2.634512484073638916e-01 -7.286152243614196777e-01
2.137000000000000000e+03 1.723056983947753906e+01 -1.250358104705810547e+01 3.407110571861267090e-01 -2.685739696025848389e-01 2.164113335311412811e-02 3.867857754230499268e-01
2.138000000000000000e+03 3.786879730224609375e+01 -1.935618162155151367e+00 -1.392603039741516113e+00 3.186496496200561523e+00 5.381680130958557129e-01 1.669077277183532715e-01
2.139000000000000000e+03 7.404551696777343750e+01 -2.893514060974121094e+01 -1.963725546374917030e-03 1.061059010680764914e-04 -5.572859081439673901e-04 3.070689563173800707e-04
2.140000000000000000e+03 7.548566436767578125e+01 -2.764246940612792969e+01 -1.183349522762000561e-03 -6.192790169734507799e-05 -3.735832287929952145e-04 -4.932607680530054495e-06
2.141000000000000000e+03 7.594798278808593750e+01 -2.287020301818847656e+01 8.496161171933636069e-05 -2.722062345128506422e-04 -5.617338320007547736e-05 -1.101185407605953515e-04
2.142000000000000000e+03 7.334661102294921875e+01 -2.295493316650390625e+01 2.875619102269411087e-04 1.543203143228311092e-05 9.089818195207044482e-05 -8.059573883656412363e-05
2.143000000000000000e+03 7.432860565185546875e+01 2.884021759033203125e+01 2.952575683593750000e-02 -7.445331215858459473e-01 -2.145022153854370117e-01 -7.520838081836700439e-02
2.144000000000000000e+03 7.459913635253906250e+01 3.007033157348632812e+01 2.509069815278053284e-02 -7.733076810836791992e-01 -2.244651019573211670e-01 -5.416750907897949219e-02
2.145000000000000000e+03 7.513950347900390625e+01 -3.279938220977783203e+00 -3.135911747813224792e-02 -2.212487719953060150e-02 -1.604519784450531006e-02 -2.467444725334644318e-02
2.146000000000000000e+03 7.544672393798828125e+01 2.851984977722167969e+01 2.461296692490577698e-02 -8.247125744819641113e-01 -2.400298863649368286e-01 -5.821243301033973694e-02
2.147000000000000000e+03 7.567553710937500000e+01 -2.500055885314941406e+01 -6.034314865246415138e-04 -2.174461696995422244e-04 -2.462633128743618727e-04 -2.595717378426343203e-04
2.148000000000000000e+03 7.302900695800781250e+01 -2.568905258178710938e+01 -5.192779353819787502e-04 1.029887134791351855e-04 -1.248867629328742623e-04 3.614465240389108658e-04
2.149000000000000000e+03 3.964982604980468750e+01 -2.306494951248168945e+00 -2.108726978302001953e+00 1.373001933097839355e+00 -2.207174897193908691e-01 -1.386847615242004395e+00
2.150000000000000000e+03 7.509763336181640625e+01 -3.219921493530273438e+01 -1.012890250422060490e-03 -1.882104115793481469e-04 -3.603301884140819311e-04 2.382917795330286026e-03
2.151000000000000000e+03 2.618197250366210938e+01 -1.387417697906494141e+01 -1.913482546806335449e-01 4.195908606052398682e-01 6.847278028726577759e-02 7.751761078834533691e-01
2.152000000000000000e+03 7.406050109863281250e+01 2.050012397766113281e+01 4.865615069866180420e-02 -6.041558384895324707e-01 -1.666499078273773193e-01 -1.853466182947158813e-01
2.153000000000000000e+03 7.412948608398437500e+01 1.470259094238281250e+01 2.579542435705661774e-02 -4.558352828025817871e-01 -1.290119588375091553e-01 -2.522066235542297363e-01
2.154000000000000000e+03 7.588270568847656250e+01 1.832862091064453125e+01 2.190499939024448395e-02 -6.472392678260803223e-01 -1.876002699136734009e-01 -1.642454713582992554e-01
2.155000000000000000e+03 7.492107391357421875e+01 1.792508697509765625e+01 2.931055985391139984e-02 -5.812906026840209961e-01 -1.655940264463424683e-01 -1.992011666297912598e-01
2.156000000000000000e+03 7.428499603271484375e+01 3.107719898223876953e+00 -6.866225600242614746e-02 -1.020588278770446777e-01 -5.121632665395736694e-02 -1.544406861066818237e-01
2.157000000000000000e+03 7.456913757324218750e+01 1.608068704605102539e+00 -6.480915844440460205e-02 -7.463768124580383301e-02 -4.183405265212059021e-02 -1.188663467764854431e-01
2.158000000000000000e+03 7.537384796142578125e+01 1.166983604431152344e+01 3.354772052261978388e-04 -3.917771279811859131e-01 -1.174324899911880493e-01 -2.216668277978897095e-01
2.159000000000000000e+03 7.411164093017578125e+01 1.026943588256835938e+01 -1.676169224083423615e-02 -3.104300200939178467e-01 -9.815751016139984131e-02 -2.623450458049774170e-01
2.160000000000000000e+03 7.386246490478515625e+01 1.731942939758300781e+01 3.627024218440055847e-02 -5.200142860412597656e-01 -1.451232135295867920e-01 -2.298497706651687622e-01
2.161000000000000000e+03 7.336425781250000000e+01 2.344160079956054688e+01 6.468215584754943848e-02 -6.111739277839660645e-01 -1.639475375413894653e-01 -1.522090286016464233e-01
2.162000000000000000e+03 7.429947662353515625e+01 -2.760524177551269531e+01 -3.284412086941301823e-04 1.209925176226533949e-05 -9.490258526057004929e-05 8.549260091967880726e-04
2.163000000000000000e+03 7.511466217041015625e+01 -1.935815691947937012e+00 -4.103449359536170959e-02 -2.891737781465053558e-02 -2.098556235432624817e-02 -4.320767894387245178e-02
2.164000000000000000e+03 7.008705139160156250e+01 3.129068374633789062e+01 6.272440403699874878e-02 -4.159360229969024658e-01 -1.059634909033775330e-01 -4.361175373196601868e-02
2.165000000000000000e+03 7.346119689941406250e+01 3.061605834960937500e+01 4.357110336422920227e-02 -6.737834811210632324e-01 -1.890637129545211792e-01 -5.813569575548171997e-02
2.166000000000000000e+03 7.534320068359375000e+01 3.099343872070312500e+01 1.852240599691867828e-02 -8.375386595726013184e-01 -2.457048743963241577e-01 -3.743640333414077759e-02
2.167000000000000000e+03 7.391836547851562500e+01 1.328538799285888672e+01 1.475411374121904373e-02 -4.065628945827484131e-01 -1.175426393747329712e-01 -2.691531479358673096e-01
2.168000000000000000e+03 7.400850677490234375e+01 1.173391342163085938e+01 -9.735808125697076321e-04 -3.532386124134063721e-01 -1.062636598944664001e-01 -2.689641118049621582e-01
2.169000000000000000e+03 7.425971984863281250e+01 6.080614566802978516e+00 -5.337578058242797852e-02 -1.787098497152328491e-01 -6.962569057941436768e-02 -2.113961130380630493e-01
2.170000000000000000e+03 7.427555847167968750e+01 4.641784191131591797e+00 -6.277206540107727051e-02 -1.417731046676635742e-01 -6.136355176568031311e-02 -1.871513873338699341e-01
2.171000000000000000e+03 7.518161773681640625e+01 2.716742706298828125e+01 3.709475323557853699e-02 -7.848013043403625488e-01 -2.243119627237319946e-01 -7.873938232660293579e-02
2.172000000000000000e+03 7.505537414550781250e+01 3.590693175792694092e-01 -5.350567772984504700e-02 -5.495746806263923645e-02 -3.253894299268722534e-02 -8.135413378477096558e-02
2.173000000000000000e+03 7.502553558349609375e+01 -2.059613609313964844e+01 -6.612732249777764082e-05 6.024778849678114057e-05 -1.763860836945241317e-06 -1.526912965346127748e-04
2.174000000000000000e+03 4.710964965820312500e+01 2.609109687805175781e+01 3.162283897399902344e-01 1.797067046165466309e+00 6.339886188507080078e-01 1.431384831666946411e-01
2.175000000000000000e+03 1.129460334777832031e+01 2.887899017333984375e+01 -5.880669050384312868e-05 -4.904210527456598356e-06 -1.911326944536995143e-05 -2.665233478182926774e-05
2.176000000000000000e+03 4.055158615112304688e+00 2.829446220397949219e+01 6.449771171901375055e-05 3.590393316699191928e-05 3.012049273820593953e-05 -4.270120189175941050e-05
2.177000000000000000e+03 5.051792621612548828e+00 2.917114639282226562e+01 6.787509482819586992e-05 -2.623776890686713159e-05 1.249119668500497937e-05 -4.924119275528937578e-05
2.178000000000000000e+03 4.796214675903320312e+01 1.907468223571777344e+01 6.126954555511474609e-01 1.633515357971191406e+00 6.738632321357727051e-01 5.109641551971435547e-01
2.179000000000000000e+03 4.829183578491210938e+00 -8.854512214660644531e+00 -4.540128633379936218e-02 5.171009525656700134e-02 1.892642816528677940e-03 -1.094627678394317627e-01
2.180000000000000000e+03 7.513795471191406250e+01 -4.578786849975585938e+00 -2.477677911520004272e-02 -1.318469084799289703e-02 -1.138844061642885208e-02 -1.155467797070741653e-02
2.181000000000000000e+03 7.647644805908203125e+01 -2.068778991699218750e+01 2.613305114209651947e-04 1.881203788798302412e-04 1.348352670902386308e-04 -1.639439869904890656e-05
2.182000000000000000e+03 7.396214294433593750e+01 -2.176341247558593750e+01 3.162071807309985161e-04 5.189075091038830578e-05 1.104293842217884958e-04 9.929866064339876175e-05
2.183000000000000000e+03 7.629436492919921875e+01 -6.983414173126220703e+00 -6.258894223719835281e-03 -3.576552495360374451e-03 -2.950634108856320381e-03 5.742445588111877441e-03
2.184000000000000000e+03 4.293034362792968750e+01 -2.543908500671386719e+01 2.730261683464050293e-01 5.936429500579833984e-01 2.600007355213165283e-01 -3.317504525184631348e-01
2.185000000000000000e+03 9.372542381286621094e+00 2.435854339599609375e+01 -5.692780905519612134e-05 1.908318336063530296e-05 -1.135338789026718587e-05 -3.749336246983148158e-05
2.186000000000000000e+03 1.207202720642089844e+01 2.570096397399902344e+01 1.201192644657567143e-04 -5.691680416930466890e-05 1.896073808893561363e-05 -4.865190931013785303e-06
2.187000000000000000e+03 7.540058135986328125e+01 -6.804843425750732422e+00 -1.185401808470487595e-02 -7.226104848086833954e-03 -5.724037066102027893e-03 3.301512217149138451e-03
2.188000000000000000e+03 4.724242401123046875e+01 2.089556694030761719e+01 4.307243525981903076e-01 1.885807752609252930e+00 6.949596405029296875e-01 4.078362286090850830e-01
2.189000000000000000e+03 7.494601440429687500e+01 -1.859772491455078125e+01 -3.243765240767970681e-05 -1.718171843094751239e-04 -6.127644883235916495e-05 -1.874057925306260586e-04
2.190000000000000000e+03 7.531475830078125000e+01 -1.976654815673828125e+01 1.265254395548254251e-04 9.838202458922751248e-06 4.090909351361915469e-05 -1.757838504090614151e-06
2.191000000000000000e+03 4.236953258514404297e+00 -1.500420284271240234e+01 9.382123500108718872e-02 1.688968390226364136e-01 7.881542295217514038e-02 -9.760855138301849365e-02
2.192000000000000000e+03 6.812552452087402344e+00 1.565914821624755859e+01 -3.338598617119714618e-05 6.236593890207586810e-07 -9.828698239289224148e-06 -1.211782034715724876e-07
2.193000000000000000e+03 4.410739421844482422e+00 2.145638084411621094e+01 -3.462563108769245446e-05 -1.860825136645871680e-06 -1.094593699235701934e-05 -2.574050631665159017e-05
2.194000000000000000e+03 4.309179782867431641e+00 1.580329513549804688e+01 -3.721870598383247852e-05 2.625918568810448050e-06 -1.037783567880978808e-05 -7.533589723607292399e-06
2.195000000000000000e+03 4.942766666412353516e+00 2.826540565490722656e+01 -1.201842314912937582e-05 -4.483485463424585760e-05 -1.705598333501257002e-05 -5.273109491099603474e-05
2.196000000000000000e+03 4.143039703369140625e+00 2.707518196105957031e+01 -1.682940273894928396e-05 -2.643767948029562831e-05 -1.298012466577347368e-05 -3.171662319800816476e-05
2.197000000000000000e+03 4.163885593414306641e+00 -1.229504108428955078e+01 -1.302571687847375870e-02 7.411466538906097412e-02 1.832668483257293701e-02 -1.525798887014389038e-01
2.198000000000000000e+03 6.807301044464111328e+00 -1.240175628662109375e+01 1.864573918282985687e-02 3.657453656196594238e-01 1.153173372149467468e-01 2.981924684718251228e-03
2.199000000000000000e+03 5.544662475585937500e+00 3.013972091674804688e+01 8.002705726539716125e-06 6.248244608286768198e-05 2.114554445142857730e-05 -8.638906729174777865e-05
2.200000000000000000e+03 5.623256206512451172e+00 2.140029907226562500e+01 5.306059756549075246e-05 4.772822194354375824e-06 1.735002661007456481e-05 2.668760498636402190e-05
2.201000000000000000e+03 5.567297458648681641e+00 1.854758453369140625e+01 4.630601324606686831e-05 -2.009064701269380748e-06 1.328908456343924627e-05 1.593534943822305650e-05
2.202000000000000000e+03 5.560931682586669922e+00 1.713109016418457031e+01 -3.863268284476362169e-05 3.918212314601987600e-06 -1.041434188664425164e-05 -9.453310667595360428e-06
2.203000000000000000e+03 5.461899757385253906e+00 1.432819843292236328e+01 -3.359458060003817081e-05 9.832130672293715179e-06 -7.128735433070687577e-06 -3.247207132517360151e-06
2.204000000000000000e+03 5.777255535125732422e+00 3.552080154418945312e+01 1.338053061772370711e-05 -2.015550417127087712e-04 -5.645235432893969119e-05 -2.258858694403897971e-05
2.205000000000000000e+03 4.355540084838867188e+01 -2.650147247314453125e+01 2.172133028507232666e-01 5.334800481796264648e-01 2.252079993486404419e-01 -3.394687771797180176e-01
2.206000000000000000e+03 4.529420852661132812e+01 -2.698805236816406250e+01 1.677943319082260132e-01 3.419914841651916504e-01 1.529357433319091797e-01 -2.684363424777984619e-01
2.207000000000000000e+03 7.449921417236328125e+01 -1.930123519897460938e+01 -9.399510599905624986e-05 5.022341429139487445e-05 -1.313150823989417404e-05 -2.804425821523182094e-05
2.208000000000000000e+03 3.968254327774047852e+00 1.037631225585937500e+01 -2.903245876950677484e-05 -6.841405024715641048e-07 -8.914979844121262431e-06 2.443825451337033883e-06
2.209000000000000000e+03 5.053499698638916016e+00 1.038366508483886719e+01 2.181856689276173711e-05 1.935924956342205405e-06 7.126347554731182754e-06 -1.058293833011703100e-06
2.210000000000000000e+03 5.449406623840332031e+00 -1.367185115814208984e+01 5.673680454492568970e-02 3.461656570434570312e-01 1.208707392215728760e-01 -7.900870591402053833e-02
2.211000000000000000e+03 4.971482276916503906e+00 9.125387191772460938e+00 -2.230757127108518034e-05 -4.871839337283745408e-06 -8.153822818712797016e-06 7.716704431004473008e-07
2.212000000000000000e+03 4.923045158386230469e+00 -6.968358039855957031e+00 -4.690255597233772278e-02 2.587241493165493011e-02 -6.309042684733867645e-03 -9.613480418920516968e-02
2.213000000000000000e+03 4.916033267974853516e+00 -7.907998561859130859e+00 -4.969092831015586853e-02 3.535921499133110046e-02 -4.299514461308717728e-03 -1.043652817606925964e-01
2.214000000000000000e+03 5.830465793609619141e+00 -7.105079174041748047e+00 -5.450004711747169495e-02 6.144140288233757019e-02 2.082406077533960342e-03 -8.487124741077423096e-02
2.215000000000000000e+03 5.470453262329101562e+01 3.405589818954467773e+00 -1.309177756309509277e+00 7.741779088973999023e-02 -3.695279955863952637e-01 -5.379422903060913086e-01
2.216000000000000000e+03 5.373403549194335938e+01 5.672490119934082031e+00 -7.546545267105102539e-01 -9.400694072246551514e-02 -2.545984387397766113e-01 -7.983178496360778809e-01
2.217000000000000000e+03 3.953990173339843750e+01 -2.136708450317382812e+01 3.606849312782287598e-01 1.333141922950744629e+00 5.081480741500854492e-01 -1.430606991052627563e-01
2.218000000000000000e+03 5.460638809204101562e+01 5.061132431030273438e+00 -8.842927217483520508e-01 -2.749349363148212433e-02 -2.735358774662017822e-01 -7.331966161727905273e-01
2.219000000000000000e+03 1.370273590087890625e+01 7.328731536865234375e+00 -6.512631784971745219e-07 -1.739443723636213690e-05 -5.413710368884494528e-06 -1.822950798668898642e-05
2.220000000000000000e+03 5.099703216552734375e+01 -3.532209014892578125e+01 -1.660325936973094940e-02 2.403631359338760376e-01 6.712796539068222046e-02 -1.049037948250770569e-01
2.221000000000000000e+03 3.881705856323242188e+01 -1.974916839599609375e+01 2.262309193611145020e-01 1.478098511695861816e+00 5.112988352775573730e-01 -3.596249595284461975e-02
2.222000000000000000e+03 4.544099044799804688e+01 1.001838493347167969e+01 1.682123422622680664e+00 1.259463071823120117e+00 8.824759125709533691e-01 1.235323071479797363e+00
2.223000000000000000e+03 4.565091705322265625e+01 1.148298645019531250e+01 1.444519400596618652e+00 1.606118202209472656e+00 9.151912927627563477e-01 1.190136075019836426e+00
2.224000000000000000e+03 3.870418548583984375e+01 -1.636868286132812500e+01 -2.485699653625488281e-01 1.411104202270507812e+00 3.487602472305297852e-01 -2.920804619789123535e-01
2.225000000000000000e+03 6.335787773132324219e+00 -1.035395812988281250e+01 -3.855536133050918579e-02 2.107223421335220337e-01 5.165009200572967529e-02 -5.819864943623542786e-02
2.226000000000000000e+03 1.373019027709960938e+01 8.363639831542968750e+00 -1.409538344887550920e-05 6.468306310125626624e-06 -2.288123141624964774e-06 5.393405444920063019e-06
2.227000000000000000e+03 1.393059349060058594e+01 1.093516063690185547e+01 1.902340591186657548e-05 -9.702191618998767808e-07 5.415956366050522774e-06 -4.380536211101571098e-06
2.228000000000000000e+03 4.699379730224609375e+01 1.579040336608886719e+01 8.523855805397033691e-01 1.733916163444519043e+00 7.758905291557312012e-01 7.571969628334045410e-01
2.229000000000000000e+03 6.206520462036132812e+01 2.731324911117553711e+00 -5.880383253097534180e-01 6.919676065444946289e-02 -1.556524783372879028e-01 -3.531273007392883301e-01
2.230000000000000000e+03 6.139115524291992188e+01 -7.720293104648590088e-02 -7.023655772209167480e-01 5.636137351393699646e-02 -1.938012540340423584e-01 -1.075089573860168457e-01
2.231000000000000000e+03 1.224691200256347656e+01 -3.652643203735351562e+01 -9.764645993709564209e-02 -1.264454871416091919e-01 -6.722758710384368896e-02 9.571168571710586548e-02
2.232000000000000000e+03 1.481190490722656250e+01 5.147448539733886719e+00 2.089529289150959812e-06 -6.461597877205349505e-06 -1.311620621891051996e-06 4.123165581404464319e-06
2.233000000000000000e+03 4.811520767211914062e+01 2.706355667114257812e+01 3.264265656471252441e-01 1.597779631614685059e+00 5.772618651390075684e-01 1.560139060020446777e-01
2.234000000000000000e+03 6.703661346435546875e+01 -7.695183753967285156e-01 -2.937687337398529053e-01 4.273692518472671509e-02 -7.530954480171203613e-02 -1.087023317813873291e-01
2.235000000000000000e+03 1.549729061126708984e+01 3.877085924148559570e+00 -4.054088094562757760e-06 8.017802599624701543e-08 -1.192173044728406239e-06 3.142459490845794789e-06
2.236000000000000000e+03 4.595524978637695312e+01 1.291446113586425781e+01 1.198989510536193848e+00 1.768672943115234375e+00 8.902987241744995117e-01 1.065172433853149414e+00
2.237000000000000000e+03 3.863996124267578125e+01 -1.747924613952636719e+01 -1.764369755983352661e-01 1.488703370094299316e+00 3.936799168586730957e-01 -1.341558098793029785e-01
2.238000000000000000e+03 3.983426666259765625e+01 -1.369899153709411621e+00 -2.264644145965576172e+00 1.990945219993591309e+00 -8.210968226194381714e-02 -9.218984246253967285e-01
2.239000000000000000e+03 3.812342453002929688e+01 -1.088857173919677734e+00 -1.195057272911071777e+00 3.820905447006225586e+00 7.877544760704040527e-01 4.281861484050750732e-01
2.240000000000000000e+03 3.973130035400390625e+01 -2.270623016357421875e+01 4.033792912960052490e-01 1.242147803306579590e+00 4.936581254005432129e-01 -2.570188343524932861e-01
2.241000000000000000e+03 3.776361465454101562e+01 -2.464504241943359375e+01 3.721463680267333984e-01 1.827518343925476074e+00 6.598994135856628418e-01 -2.886644899845123291e-01
2.242000000000000000e+03 4.561128234863281250e+01 1.619729042053222656e+01 7.155926823616027832e-01 2.276091575622558594e+00 8.975052833557128906e-01 8.228035569190979004e-01
2.243000000000000000e+03 2.827724456787109375e+01 -1.409657573699951172e+01 -5.109882950782775879e-01 6.751694083213806152e-01 4.925434663891792297e-02 3.031945824623107910e-01
2.244000000000000000e+03 6.061153411865234375e+01 2.776584386825561523e+00 -7.082878947257995605e-01 4.904346168041229248e-02 -1.977733373641967773e-01 -3.741643726825714111e-01
2.245000000000000000e+03 7.561982154846191406e+00 2.540351676940917969e+01 2.127083098457660526e-05 -1.118708896683529019e-04 -2.718001815082971007e-05 -6.219360511749982834e-05
2.246000000000000000e+03 5.748793029785156250e+01 3.467478036880493164e+00 -9.146130084991455078e-01 5.479110404849052429e-02 -2.579465806484222412e-01 -4.535815715789794922e-01
2.247000000000000000e+03 1.027162361145019531e+01 -5.679896831512451172e+00 -3.266724199056625366e-02 5.016988888382911682e-02 5.250794347375631332e-03 1.913202926516532898e-02
2.248000000000000000e+03 4.639585113525390625e+01 1.433349895477294922e+01 1.023154854774475098e+00 1.794714331626892090e+00 8.453607559204101562e-01 9.103682041168212891e-01
2.249000000000000000e+03 4.218761062622070312e+01 -3.083402633666992188e+01 -1.327931880950927734e-02 7.670377492904663086e-01 2.261275202035903931e-01 -3.133107125759124756e-01
2.250000000000000000e+03 5.290576553344726562e+01 6.392795085906982422e+00 -4.963556230068206787e-01 -1.796839237213134766e-01 -2.028118520975112915e-01 -8.651713728904724121e-01
2.251000000000000000e+03 1.321748256683349609e+01 3.534217834472656250e+01 -3.533344715833663940e-04 -3.766642767004668713e-04 -2.189996303059160709e-04 -3.952903498429805040e-04
2.252000000000000000e+03 9.584880828857421875e+00 3.203308868408203125e+01 1.967521093320101500e-04 1.065424803528003395e-04 9.098837472265586257e-05 6.217750342329964042e-05
2.253000000000000000e+03 5.025864791870117188e+01 7.249626636505126953e+00 1.326400786638259888e-01 -5.339716076850891113e-01 -1.203994601964950562e-01 -8.368390202522277832e-01
2.254000000000000000e+03 7.303379821777343750e+01 -2.393604087829589844e+01 -2.429430969641543925e-05 -2.231246435258071870e-05 -1.398203221469884738e-05 3.067156067118048668e-04
2.255000000000000000e+03 4.531220245361328125e+01 8.511358261108398438e+00 1.799026727676391602e+00 6.088929772377014160e-01 7.223759293556213379e-01 1.052664279937744141e+00
2.256000000000000000e+03 5.557585144042968750e+01 6.192914009094238281e+00 -5.395879149436950684e-01 -5.248751491308212280e-02 -1.776226162910461426e-01 -7.267588973045349121e-01
2.257000000000000000e+03 4.539263916015625000e+01 5.511493206024169922e+00 9.700307250022888184e-01 -1.006432056427001953e+00 -1.092041656374931335e-02 1.630150228738784790e-01
2.258000000000000000e+03 7.504425811767578125e+01 4.013425064086914062e+01 -5.651648156344890594e-03 -8.608822226524353027e-01 -2.599601447582244873e-01 -2.637809328734874725e-02
2.259000000000000000e+03 1.554808044433593750e+01 3.583953857421875000e+01 9.201219072565436363e-04 -3.164867521263659000e-04 1.810905378079041839e-04 -1.436614984413608909e-04
2.260000000000000000e+03 1.168576431274414062e+01 1.962375831604003906e+01 2.859740925487130880e-05 -1.448542025173082948e-05 4.233596882841084152e-06 1.117372789849468973e-06
2.261000000000000000e+03 6.751019954681396484e+00 1.711970329284667969e+01 4.823177005164325237e-05 -5.327348389982944354e-06 1.287132727156858891e-05 6.223828222573501989e-06
2.262000000000000000e+03 3.883623123168945312e+01 -2.434963989257812500e+01 4.007021486759185791e-01 1.390220642089843750e+00 5.372768640518188477e-01 -2.876620590686798096e-01
2.263000000000000000e+03 1.181196880340576172e+01 1.317363834381103516e+01 -3.013899367942940444e-05 -1.104616876546060666e-05 -1.235554827871965244e-05 -1.297407561651198193e-05
2.264000000000000000e+03 1.246669578552246094e+01 1.490480327606201172e+01 -2.877406222978606820e-05 -8.365581379621289670e-06 -1.114189308282220736e-05 -3.815963736997218803e-06
2.265000000000000000e+03 3.967744445800781250e+01 -3.290594482421875000e+01 -1.857388615608215332e-01 9.385303854942321777e-01 2.258374541997909546e-01 -2.009508311748504639e-01
2.266000000000000000e+03 4.059921264648437500e+01 -3.004829978942871094e+01 -1.410704571753740311e-03 9.322597384452819824e-01 2.792547047138214111e-01 -3.170202374458312988e-01
2.267000000000000000e+03 2.141355133056640625e+01 -1.335868263244628906e+01 2.271448075771331787e-01 -1.855224817991256714e-01 1.248669717460870743e-02 6.436491012573242188e-01
2.268000000000000000e+03 6.439423561096191406e+00 1.285849094390869141e+01 -1.383518156217178330e-05 1.054441963788121939e-05 -9.872284181255963631e-07 7.124983312678523362e-06
2.269000000000000000e+03 7.159377288818359375e+01 -2.801174354553222656e+01 -2.310117240995168686e-03 3.750643809325993061e-04 -5.805158871226012707e-04 -3.564427242963574827e-05
2.270000000000000000e+03 7.038591766357421875e+01 -3.076075744628906250e+01 -5.617828574031591415e-03 1.528400345705449581e-03 -1.226828433573246002e-03 1.063385396264493465e-03
2.271000000000000000e+03 3.917671966552734375e+01 -3.119180107116699219e+01 -1.275964230298995972e-01 1.070991992950439453e+00 2.830186784267425537e-01 -2.205518186092376709e-01
2.272000000000000000e+03 3.681379318237304688e+01 -2.885407066345214844e+01 -2.305590920150279999e-02 1.414933681488037109e+00 4.175633192062377930e-01 -9.690263867378234863e-02
2.273000000000000000e+03 3.857298660278320312e+01 -2.854241371154785156e+01 4.764911159873008728e-02 1.286092877388000488e+00 4.001225829124450684e-01 -2.681390941143035889e-01
2.274000000000000000e+03 3.854131317138671875e+01 -2.553627204895019531e+01 3.340570628643035889e-01 1.532812952995300293e+00 5.600609779357910156e-01 -2.797890603542327881e-01
2.275000000000000000e+03 5.177059650421142578e+00 -3.496992111206054688e+01 -6.191971525549888611e-02 3.007048964500427246e-01 7.163555920124053955e-02 -8.405948057770729065e-03
2.276000000000000000e+03 9.981613159179687500e+00 1.690681266784667969e+01 2.930818482127506286e-05 5.614667315967381001e-05 2.563645648478996009e-05 9.018763194035273045e-06
2.277000000000000000e+03 1.169815349578857422e+01 2.115384674072265625e+01 -2.383029459451790899e-05 2.098177719744853675e-05 -8.545554237571195699e-07 4.037374765175627545e-06
2.278000000000000000e+03 4.595468902587890625e+01 2.930540847778320312e+01 2.807657718658447266e-01 1.776957154273986816e+00 6.173169016838073730e-01 6.619478017091751099e-02
2.279000000000000000e+03 4.807616043090820312e+01 3.412757492065429688e+01 -2.145400084555149078e-02 1.415089726448059082e+00 4.180907011032104492e-01 1.544528603553771973e-01
2.280000000000000000e+03 1.253137779235839844e+01 2.886516952514648438e+01 2.680140023585408926e-04 -1.403792557539418340e-04 3.829042543657124043e-05 -2.542416405049152672e-05
2.281000000000000000e+03 1.112411308288574219e+01 2.730302047729492188e+01 2.414388873148709536e-04 -1.204352593049407005e-04 3.630109131336212158e-05 6.470256266766227782e-06
2.282000000000000000e+03 4.606635665893554688e+01 2.726058387756347656e+01 3.122803270816802979e-01 1.917078256607055664e+00 6.688075661659240723e-01 4.411666095256805420e-02
2.283000000000000000e+03 6.577069091796875000e+01 -5.396682620048522949e-01 -3.613924682140350342e-01 7.075280696153640747e-02 -8.719189465045928955e-02 -1.071179807186126709e-01
2.284000000000000000e+03 6.719728851318359375e+01 2.052980661392211914e+00 -3.113887012004852295e-01 2.184359356760978699e-02 -8.686353266239166260e-02 -2.494135797023773193e-01
2.285000000000000000e+03 6.401109313964843750e+01 1.675113081932067871e+00 -5.018536448478698730e-01 7.238507270812988281e-02 -1.288405656814575195e-01 -2.678298652172088623e-01
2.286000000000000000e+03 6.810945129394531250e+01 -3.643521881103515625e+01 8.005047566257417202e-04 -6.904891961312387139e-06 2.380799705861136317e-04 9.261805564165115356e-03
2.287000000000000000e+03 7.074329376220703125e+01 -3.437436676025390625e+01 -1.823339844122529030e-03 9.656514157541096210e-04 -2.573065285105258226e-04 5.891882348805665970e-03
2.288000000000000000e+03 2.055964851379394531e+01 3.677057266235351562e+01 4.703905142378062010e-05 -1.227340660989284515e-03 -3.540904726833105087e-04 1.112035941332578659e-03
2.289000000000000000e+03 1.187879943847656250e+01 2.417996788024902344e+01 -2.271001721965149045e-05 3.183168519171886146e-05 2.736499936872860417e-06 2.701787343539763242e-05
2.290000000000000000e+03 1.054879188537597656e+01 2.271901321411132812e+01 -3.979788016295060515e-05 2.458114431647118181e-05 -4.565020390145946294e-06 -4.111313501198310405e-06
2.291000000000000000e+03 4.649689102172851562e+01 3.735066223144531250e+01 -2.095476239919662476e-01 1.463685274124145508e+00 3.762412667274475098e-01 7.993211597204208374e-02
2.292000000000000000e+03 1.989440727233886719e+01 -3.980105209350585938e+01 -9.044313430786132812e-02 -8.538164198398590088e-02 -5.274743214249610901e-02 2.531696483492851257e-02
2.293000000000000000e+03 3.795963668823242188e+01 -2.674642562866210938e+01 2.354805916547775269e-01 1.514824867248535156e+00 5.250916481018066406e-01 -2.521773576736450195e-01
2.294000000000000000e+03 4.055098724365234375e+01 -2.676027870178222656e+01 2.114101499319076538e-01 9.980914592742919922e-01 3.628504872322082520e-01 -3.557957708835601807e-01
2.295000000000000000e+03 2.780190467834472656e+01 -4.108794403076171875e+01 -1.746735870838165283e-01 2.723500728607177734e-01 2.930294349789619446e-02 3.051468543708324432e-02
2.296000000000000000e+03 3.273337554931640625e+01 -4.106253814697265625e+01 -2.738761305809020996e-01 5.773251652717590332e-01 9.103469550609588623e-02 3.095906227827072144e-02
2.297000000000000000e+03 3.214321136474609375e+01 -8.379264831542968750e+00 1.547473073005676270e+00 2.828560590744018555e+00 1.312810063362121582e+00 -1.880922317504882812e+00
2.298000000000000000e+03 2.990312576293945312e+01 -8.480566978454589844e+00 1.336364865303039551e+00 4.546112537384033203e+00 1.764743208885192871e+00 7.499525547027587891e-01
2.299000000000000000e+03 2.904341316223144531e+01 -8.496651649475097656e+00 1.739073991775512695e+00 3.543787717819213867e+00 1.584858536720275879e+00 1.409431219100952148e+00
2.300000000000000000e+03 3.039158630371093750e+01 -9.557539939880371094e+00 6.202104091644287109e-01 3.534453868865966797e+00 1.246399283409118652e+00 -1.392135620117187500e-01
2.301000000000000000e+03 9.623637199401855469e+00 -6.416812419891357422e+00 -3.105471283197402954e-02 7.894732058048248291e-02 1.436778251081705093e-02 1.863155514001846313e-02
2.302000000000000000e+03 1.097924041748046875e+01 -5.692389488220214844e+00 -2.656813152134418488e-02 3.715598583221435547e-02 3.176355734467506409e-03 2.333445474505424500e-02
2.303000000000000000e+03 3.247505950927734375e+01 -8.870360374450683594e+00 1.298853993415832520e+00 2.354023694992065430e+00 1.095863342285156250e+00 -1.764961242675781250e+00
2.304000000000000000e+03 3.275360488891601562e+01 -1.048321056365966797e+01 5.356999635696411133e-01 2.001129388809204102e+00 7.610488533973693848e-01 -1.447011113166809082e+00
2.305000000000000000e+03 3.367850112915039062e+01 -9.826272010803222656e+00 9.049543142318725586e-01 1.384368062019348145e+00 6.867967247962951660e-01 -1.504727959632873535e+00
2.306000000000000000e+03 1.168621063232421875e+01 -5.687179565429687500e+00 -5.357386078685522079e-03 1.736646890640258789e-02 3.602724988013505936e-03 3.631458804011344910e-02
2.307000000000000000e+03 1.164495372772216797e+01 -5.007289886474609375e+00 -3.374491631984710693e-02 1.601890102028846741e-02 -5.317804869264364243e-03 1.706708408892154694e-02
2.308000000000000000e+03 6.509985923767089844e+00 4.811350822448730469e+00 8.959122169471811503e-06 -3.843094418698456138e-06 1.534808234282536432e-06 -1.103845352190546691e-05
2.309000000000000000e+03 5.967332363128662109e+00 7.061160087585449219e+00 1.298639381275279447e-05 1.606455589353572577e-05 8.715284820937085897e-06 -7.455032573489006609e-06
2.310000000000000000e+03 1.414532279968261719e+01 3.968142747879028320e+00 -6.291854788287309930e-06 1.521039166618720628e-06 -1.431244754712679423e-06 2.162429154850542545e-06
2.311000000000000000e+03 7.449466705322265625e+00 6.253729343414306641e+00 4.549408004095312208e-06 -1.261532815988175571e-05 -2.419776137685403228e-06 1.178459751827176660e-05
2.312000000000000000e+03 9.431229591369628906e+00 4.563650131225585938e+00 -6.787950951547827572e-06 2.647611381689785048e-06 -1.242101802745310124e-06 5.056974259787239134e-06
2.313000000000000000e+03 5.384351253509521484e+00 5.937678813934326172e+00 3.383547664270736277e-05 1.677764885243959725e-05 1.518393764854408801e-05 5.524288098968099803e-06
2.314000000000000000e+03 7.248921394348144531e+00 4.768413066864013672e+00 -4.601416549121495336e-06 -3.697169574934378034e-07 -1.491340071879676543e-06 8.950621122494339943e-06
2.315000000000000000e+03 8.162614822387695312e+00 5.537208080291748047e+00 -2.159858468075981364e-06 -3.989559900219319388e-06 -1.844825533225957770e-06 5.781593699794029817e-06
2.316000000000000000e+03 3.315317916870117188e+01 -9.884311676025390625e+00 8.650175929069519043e-01 1.756392836570739746e+00 7.864231467247009277e-01 -1.563309311866760254e+00
2.317000000000000000e+03 3.419378280639648438e+01 -1.105051708221435547e+01 4.404040575027465820e-01 1.349851012229919434e+00 5.370765328407287598e-01 -1.432687640190124512e+00
2.318000000000000000e+03 1.239784049987792969e+01 -5.735561370849609375e+00 7.953128777444362640e-03 -4.049733281135559082e-03 1.171018695458769798e-03 3.427892178297042847e-02
2.319000000000000000e+03 1.329427337646484375e+01 4.714874267578125000e+00 -8.186235390894580632e-06 1.008593358164944220e-06 -2.153292598450207151e-06 2.913835487561300397e-06
2.320000000000000000e+03 1.273899364471435547e+01 3.905113220214843750e+00 -1.735883233777713031e-05 -2.461322310409741476e-06 -5.946046258031856269e-06 -1.404693193762796000e-06
2.321000000000000000e+03 3.354770660400390625e+01 -1.586439132690429688e+01 -9.925150275230407715e-01 1.336555719375610352e+00 1.032122224569320679e-01 -1.141051650047302246e+00
2.322000000000000000e+03 3.178725624084472656e+01 -9.112992286682128906e+00 9.206703901290893555e-01 3.184640407562255859e+00 1.231593251228332520e+00 -1.446798920631408691e+00
2.323000000000000000e+03 1.318735599517822266e+01 5.563387393951416016e+00 8.038701707846485078e-06 -6.081291758164297789e-06 5.872229280612373259e-07 -2.721499640756519511e-06
2.324000000000000000e+03 1.311732101440429688e+01 -5.827849864959716797e+00 3.558532893657684326e-02 -3.454390168190002441e-02 3.124277864117175341e-04 3.954909369349479675e-02
2.325000000000000000e+03 1.385351562500000000e+01 -5.945000648498535156e+00 6.072115898132324219e-02 -6.144849583506584167e-02 -2.182014432037249207e-04 3.271088004112243652e-02
2.326000000000000000e+03 5.002379894256591797e+00 -6.167812347412109375e+00 -4.824763163924217224e-02 1.747353747487068176e-02 -9.232228621840476990e-03 -8.844783157110214233e-02
2.327000000000000000e+03 5.100175857543945312e+00 -5.451747417449951172e+00 -4.832350835204124451e-02 1.725021563470363617e-02 -9.321987628936767578e-03 -7.910086214542388916e-02
2.328000000000000000e+03 7.543885040283203125e+01 -7.495519161224365234e+00 -4.227931145578622818e-03 -8.152295835316181183e-03 -3.714068094268441200e-03 4.489569459110498428e-03
2.329000000000000000e+03 2.763698387145996094e+01 -7.421804428100585938e+00 3.517988681793212891e+00 8.569281697273254395e-01 1.312475085258483887e+00 1.345140099525451660e+00
2.330000000000000000e+03 2.701607322692871094e+01 -1.355548667907714844e+01 -2.191718369722366333e-01 6.157978773117065430e-01 1.189878135919570923e-01 6.417399048805236816e-01
2.331000000000000000e+03 8.786125183105468750e+00 -4.897007465362548828e+00 -6.479745358228683472e-02 5.437827110290527344e-02 -3.125754650682210922e-03 -1.929024606943130493e-02
2.332000000000000000e+03 7.292704010009765625e+01 -9.039423942565917969e+00 1.673515071161091328e-03 -9.219650179147720337e-03 -2.263840520754456520e-03 4.242951050400733948e-03
2.333000000000000000e+03 7.262641143798828125e+01 -7.903447151184082031e+00 -9.763937443494796753e-03 -1.066676061600446701e-02 -6.129209417849779129e-03 3.312066663056612015e-03
2.334000000000000000e+03 3.512704849243164062e+01 -1.552281475067138672e+01 -8.109422326087951660e-01 1.809819459915161133e+00 2.996631562709808350e-01 -1.045702576637268066e+00
2.335000000000000000e+03 6.591798782348632812e+00 -4.850172519683837891e+00 -6.078159809112548828e-02 3.756820037961006165e-02 -6.964019034057855606e-03 -5.748642235994338989e-02
2.336000000000000000e+03 1.766623115539550781e+01 -9.338104248046875000e+00 4.846513867378234863e-01 -3.565445244312286377e-01 3.843206539750099182e-02 2.066429108381271362e-01
2.337000000000000000e+03 1.539876365661621094e+01 -6.809110164642333984e+00 1.881753951311111450e-01 -1.689046472311019897e-01 5.781227722764015198e-03 4.599772766232490540e-02
2.338000000000000000e+03 3.532215118408203125e+01 -1.286730861663818359e+01 -1.276303380727767944e-01 1.299879789352416992e+00 3.516748249530792236e-01 -1.233785629272460938e+00
2.339000000000000000e+03 3.698860931396484375e+01 -1.202638816833496094e+01 1.150733903050422668e-01 9.441952705383300781e-01 3.177805840969085693e-01 -9.517797231674194336e-01
2.340000000000000000e+03 1.776276016235351562e+01 -6.321495056152343750e+00 2.931862771511077881e-01 -3.084535598754882812e-01 -4.580185748636722565e-03 -6.950072944164276123e-02
2.341000000000000000e+03 2.637409210205078125e+01 -5.804194927215576172e+00 2.905072689056396484e+00 -9.279477596282958984e-01 5.931375026702880859e-01 -5.549556016921997070e-01
2.342000000000000000e+03 2.698369789123535156e+01 -6.482538700103759766e+00 3.705236434936523438e+00 -3.462351858615875244e-01 1.007700324058532715e+00 4.339431226253509521e-01
2.343000000000000000e+03 7.337451934814453125e+01 -7.881202697753906250e+00 -4.542634356766939163e-03 -1.377047132700681686e-02 -5.493931937962770462e-03 1.720890868455171585e-03
2.344000000000000000e+03 7.362217903137207031e+00 -5.634106159210205078e+00 -5.928803607821464539e-02 6.173325330018997192e-02 7.335647242143750191e-04 -4.529010131955146790e-02
2.345000000000000000e+03 1.957461166381835938e+01 -5.648732185363769531e+00 3.393338918685913086e-01 -3.585531115531921387e-01 -5.765765905380249023e-03 -2.385893911123275757e-01
2.346000000000000000e+03 1.461323928833007812e+01 -6.052558898925781250e+00 9.759561717510223389e-02 -1.075215786695480347e-01 -2.977787749841809273e-03 2.518642880022525787e-02
2.347000000000000000e+03 1.539519023895263672e+01 -6.099423408508300781e+00 1.239892914891242981e-01 -1.353256702423095703e-01 -3.400912508368492126e-03 8.007938042283058167e-03
2.348000000000000000e+03 2.124797630310058594e+01 -6.366055965423583984e+00 6.964536309242248535e-01 -5.497180819511413574e-01 4.402065649628639221e-02 -2.895807325839996338e-01
2.349000000000000000e+03 2.557653999328613281e+01 -5.834699630737304688e+00 2.326881647109985352e+00 -9.616817235946655273e-01 4.095599651336669922e-01 -7.078738212585449219e-01
2.350000000000000000e+03 2.565719604492187500e+01 -5.016798019409179688e+00 1.452346682548522949e+00 -9.722173810005187988e-01 1.440387964248657227e-01 -1.361685514450073242e+00
2.351000000000000000e+03 2.779207038879394531e+01 -1.324406051635742188e+01 -1.874423921108245850e-01 8.624836206436157227e-01 2.025123536586761475e-01 5.644505023956298828e-01
2.352000000000000000e+03 3.473915481567382812e+01 -1.244583606719970703e+01 -3.225681930780410767e-02 1.342898845672607422e+00 3.931926190853118896e-01 -1.334313988685607910e+00
2.353000000000000000e+03 8.948704719543457031e+00 5.465074539184570312e+00 -1.137699837272521108e-05 8.161778737303393427e-07 -3.168246166751487181e-06 -1.518951009416014131e-08
2.354000000000000000e+03 2.218372154235839844e+01 -5.471065998077392578e+00 5.708432793617248535e-01 -5.217198729515075684e-01 1.473703235387802124e-02 -5.527325272560119629e-01
2.355000000000000000e+03 1.861607170104980469e+01 -6.384536266326904297e+00 3.733348250389099121e-01 -3.464698493480682373e-01 8.059493266046047211e-03 -1.079922541975975037e-01
2.356000000000000000e+03 1.146999454498291016e+01 5.220447063446044922e+00 1.342287669103825465e-05 6.785489404137479141e-06 6.062509783077985048e-06 8.659360901219770312e-06
2.357000000000000000e+03 1.237204647064208984e+01 6.908091068267822266e+00 -6.748588930349797010e-06 -2.113737173203844577e-05 -8.365787834918592125e-06 -1.593988417880609632e-05
2.358000000000000000e+03 8.018321990966796875e+00 -1.271742057800292969e+01 5.979377776384353638e-02 4.183521568775177002e-01 1.434437781572341919e-01 1.006345748901367188e-01
2.359000000000000000e+03 9.129817008972167969e+00 -1.293288326263427734e+01 1.103620454668998718e-01 4.320746362209320068e-01 1.627310067415237427e-01 2.184664756059646606e-01
2.360000000000000000e+03 1.949578475952148438e+01 -6.412856101989746094e+00 4.647609591484069824e-01 -4.296967685222625732e-01 1.051926333457231522e-02 -1.558787226676940918e-01
2.361000000000000000e+03 3.571649932861328125e+01 -1.613354110717773438e+01 -7.641422748565673828e-01 1.863162636756896973e+00 3.297061324119567871e-01 -7.633825540542602539e-01
2.362000000000000000e+03 1.962984085083007812e+01 -1.243277931213378906e+01 4.153669178485870361e-01 -3.146420121192932129e-01 3.021747246384620667e-02 4.970312118530273438e-01
2.363000000000000000e+03 2.259343147277832031e+01 -1.446243000030517578e+01 -1.029783785343170166e-01 -3.025691211223602295e-02 -3.997058793902397156e-02 6.949720978736877441e-01
2.364000000000000000e+03 2.390723609924316406e+01 -5.244425296783447266e+00 8.382172584533691406e-01 -6.847745776176452637e-01 4.603279009461402893e-02 -9.304196238517761230e-01
2.365000000000000000e+03 2.389255714416503906e+01 -4.446308612823486328e+00 2.207140028476715088e-01 -4.341550767421722412e-01 -6.403231620788574219e-02 -1.087663650512695312e+00
2.366000000000000000e+03 2.751961326599121094e+01 -6.974081993103027344e+00 3.752413988113403320e+00 4.348886609077453613e-01 1.256190776824951172e+00 1.143694877624511719e+00
2.367000000000000000e+03 7.521515655517578125e+01 -8.037471771240234375e+00 -4.240113776177167892e-03 -3.964768256992101669e-03 -2.461464609950780869e-03 7.398222573101520538e-03
2.368000000000000000e+03 1.247184276580810547e+01 -1.117993927001953125e+01 2.045381516218185425e-01 5.281570553779602051e-02 7.720615714788436890e-02 2.758190631866455078e-01
2.369000000000000000e+03 1.042512798309326172e+01 -1.109149837493896484e+01 1.043447256088256836e-01 2.144775241613388062e-01 9.564667195081710815e-02 2.031474411487579346e-01
2.370000000000000000e+03 1.281600093841552734e+01 1.066134643554687500e+01 -2.341128129046410322e-05 -6.959804068173980340e-06 -9.111326107813511044e-06 -1.548518866911763325e-06
2.371000000000000000e+03 2.389498901367187500e+01 -6.059760570526123047e+00 1.377817034721374512e+00 -7.682357430458068848e-01 1.828743964433670044e-01 -5.952697992324829102e-01
2.372000000000000000e+03 1.006834411621093750e+01 -1.038706207275390625e+01 4.384154081344604492e-02 2.045779675245285034e-01 7.452584803104400635e-02 1.458579152822494507e-01
2.373000000000000000e+03 3.683413696289062500e+01 -1.822088241577148438e+01 -2.440749406814575195e-01 2.038321256637573242e+00 5.382738709449768066e-01 -2.082914561033248901e-01
2.374000000000000000e+03 1.901109695434570312e+01 -1.340388965606689453e+01 2.489573657512664795e-01 -2.521874010562896729e-01 -9.690101724117994308e-04 4.821148514747619629e-01
2.375000000000000000e+03 2.399862670898437500e+01 -1.366226577758789062e+01 -9.801421547308564186e-04 7.350549846887588501e-02 2.175760641694068909e-02 7.868018746376037598e-01
2.376000000000000000e+03 2.732514953613281250e+01 -5.222033500671386719e+00 3.574600696563720703e+00 -8.355908393859863281e-01 8.217029571533203125e-01 -9.497577548027038574e-01
2.377000000000000000e+03 3.803161621093750000e+01 -1.220405864715576172e+01 6.482436507940292358e-02 8.447706699371337891e-01 2.728784978389739990e-01 -7.461044192314147949e-01
2.378000000000000000e+03 3.239927673339843750e+01 -1.487863254547119141e+01 -7.624484300613403320e-01 1.131120800971984863e+00 1.106017008423805237e-01 -1.115952610969543457e+00
2.379000000000000000e+03 3.646729660034179688e+01 -1.671940612792968750e+01 -5.587359666824340820e-01 1.938057303428649902e+00 4.137963950634002686e-01 -5.472030043601989746e-01
2.380000000000000000e+03 6.046861267089843750e+01 4.143710613250732422e+00 -5.919253826141357422e-01 4.242586344480514526e-02 -1.648498624563217163e-01 -4.746828377246856689e-01
2.381000000000000000e+03 2.959767723083496094e+01 -1.449014282226562500e+01 -6.956934332847595215e-01 7.061878442764282227e-01 3.148314077407121658e-03 -1.017324924468994141e-01
2.382000000000000000e+03 2.844454956054687500e+01 -8.166509628295898438e+00 2.664614200592041016e+00 2.402677774429321289e+00 1.520187616348266602e+00 1.831689715385437012e+00
2.383000000000000000e+03 2.071573066711425781e+01 -1.414680671691894531e+01 8.284841477870941162e-02 -1.738835126161575317e-01 -2.731052972376346588e-02 5.515586137771606445e-01
2.384000000000000000e+03 2.059789276123046875e+01 -1.277451038360595703e+01 3.725711703300476074e-01 -2.680115401744842529e-01 3.136788681149482727e-02 5.996598601341247559e-01
2.385000000000000000e+03 3.864411830902099609e+00 7.756414413452148438e+00 -2.835489249264355749e-05 -6.289174962148535997e-06 -1.039322069118497893e-05 2.657952563822618686e-06
2.386000000000000000e+03 1.663525581359863281e+01 4.106881618499755859e+00 -5.830979262100299820e-06 -7.334446763707092032e-06 -3.949627625843277201e-06 -1.433616830581740942e-06
2.387000000000000000e+03 1.002293014526367188e+01 2.738898849487304688e+01 -7.192562770796939731e-05 4.143586556892842054e-05 -9.146929187409114093e-06 -3.796872988459654152e-05
2.388000000000000000e+03 1.744677162170410156e+01 -7.797859668731689453e+00 3.972291350364685059e-01 -3.332683444023132324e-01 1.918824389576911926e-02 6.440432369709014893e-02
2.389000000000000000e+03 9.679919242858886719e+00 1.522167491912841797e+01 3.702082904055714607e-05 2.914536526077426970e-05 1.984985829039942473e-05 -3.507494966470403597e-06
2.390000000000000000e+03 5.465470123291015625e+01 6.729674816131591797e+00 -4.141677916049957275e-01 -1.092524975538253784e-01 -1.570260822772979736e-01 -7.741694450378417969e-01
2.391000000000000000e+03 5.549977874755859375e+01 4.469895839691162109e+00 -9.236574172973632812e-01 2.898630872368812561e-02 -2.684013247489929199e-01 -6.226814389228820801e-01
2.392000000000000000e+03 7.366881561279296875e+01 -1.892460441589355469e+01 3.754964563995599747e-04 -2.121970464941114187e-04 4.898982297163456678e-05 -1.493725108048238326e-06
2.393000000000000000e+03 5.182668685913085938e+01 3.116938209533691406e+01 1.647205501794815063e-01 1.125643372535705566e+00 3.871091902256011963e-01 1.974279284477233887e-01
2.394000000000000000e+03 4.656104660034179688e+01 3.063035392761230469e+01 2.064222693443298340e-01 1.647142887115478516e+00 5.560695528984069824e-01 1.240715384483337402e-01
2.395000000000000000e+03 3.765516662597656250e+01 -1.438999652862548828e+01 -2.450643032789230347e-01 1.277302622795104980e+00 3.096715211868286133e-01 -6.809406280517578125e-01
2.396000000000000000e+03 1.566354751586914062e+01 -1.271361637115478516e+01 3.126620352268218994e-01 -1.937608867883682251e-01 3.567034006118774414e-02 3.566425442695617676e-01
2.397000000000000000e+03 1.134608650207519531e+01 -1.205599021911621094e+01 1.965766251087188721e-01 1.889583021402359009e-01 1.156604737043380737e-01 2.970778048038482666e-01
2.398000000000000000e+03 7.364402770996093750e+01 -3.036974906921386719e+01 -1.145996735431253910e-03 1.441695785615593195e-04 -3.005481557920575142e-04 1.933258608914911747e-03
2.399000000000000000e+03 7.171410369873046875e+01 -3.120362663269042969e+01 -2.159476978704333305e-03 7.145750569179654121e-04 -4.334705590736120939e-04 2.441001823171973228e-03
2.400000000000000000e+03 4.548580169677734375e+01 4.065389156341552734e+00 -6.598200798034667969e-01 -1.831161141395568848e+00 -7.472943663597106934e-01 -5.317738056182861328e-01
2.401000000000000000e+03 1.286968135833740234e+01 3.237414932250976562e+01 2.853324112948030233e-04 -2.629107912071049213e-04 6.726485025865258649e-06 -5.743432120652869344e-05
2.402000000000000000e+03 6.249176025390625000e+00 3.130685997009277344e+01 4.914932287647388875e-05 -4.372622424853034317e-05 1.626929474696225952e-06 -4.512805026024580002e-05
2.403000000000000000e+03 9.179581642150878906e+00 2.866788291931152344e+01 2.068983121716883034e-05 -1.522360398666933179e-04 -3.946386277675628662e-05 -1.409687247360125184e-04
2.404000000000000000e+03 7.114121246337890625e+01 1.776893043518066406e+01 8.869113773107528687e-02 -4.098098576068878174e-01 -9.633561968803405762e-02 -2.905317544937133789e-01
2.405000000000000000e+03 7.316380310058593750e+01 1.547116374969482422e+01 3.545360267162322998e-02 -4.396517276763916016e-01 -1.212594360113143921e-01 -2.742592990398406982e-01
2.406000000000000000e+03 4.907093048095703125e+01 6.019954204559326172e+00 -1.327238231897354126e-01 -9.210105538368225098e-01 -3.161203265190124512e-01 -1.054399132728576660e+00
2.407000000000000000e+03 7.411394500732421875e+01 -3.122614860534667969e+00 -4.705751687288284302e-02 -2.152478694915771484e-02 -2.057469077408313751e-02 -3.337777033448219299e-02
2.408000000000000000e+03 7.045101165771484375e+01 -5.615845203399658203e+00 -4.396637901663780212e-02 -1.124306954443454742e-02 -1.656283438205718994e-02 -5.432188045233488083e-03
2.409000000000000000e+03 7.432719421386718750e+01 -2.273826026916503906e+01 -2.832649333868175745e-04 -3.718628140632063150e-04 -1.965383271453902125e-04 -1.632835337659344077e-04
2.410000000000000000e+03 7.162828063964843750e+01 1.008620452880859375e+01 -3.003720566630363464e-02 -2.525840997695922852e-01 -8.478639274835586548e-02 -3.380616605281829834e-01
2.411000000000000000e+03 7.292927551269531250e+01 8.835561752319335938e+00 -4.181478917598724365e-02 -2.416459619998931885e-01 -8.503822237253189087e-02 -2.894920110702514648e-01
2.412000000000000000e+03 7.167638397216796875e+01 4.984808266162872314e-01 -1.391480118036270142e-01 -2.911900915205478668e-02 -5.048010498285293579e-02 -1.293248832225799561e-01
2.413000000000000000e+03 7.249748229980468750e+01 1.779492378234863281e+00 -1.105171963572502136e-01 -5.924964696168899536e-02 -5.093005299568176270e-02 -1.569551825523376465e-01
2.414000000000000000e+03 7.299313354492187500e+01 6.131752967834472656e+00 -7.432738691568374634e-02 -1.650251001119613647e-01 -7.180574536323547363e-02 -2.486375719308853149e-01
2.415000000000000000e+03 7.423094940185546875e+01 7.475508213043212891e+00 -4.228598624467849731e-02 -2.228534370660781860e-01 -7.954182475805282593e-02 -2.335384041070938110e-01
2.416000000000000000e+03 7.326483917236328125e+01 -2.737752914428710938e+01 -1.460632076486945152e-03 1.047971891239285469e-04 -4.067504487466067076e-04 1.023825461743399501e-04
2.417000000000000000e+03 7.158786010742187500e+01 2.369088172912597656e+01 9.294573217630386353e-02 -5.032972097396850586e-01 -1.231054440140724182e-01 -1.650281697511672974e-01
2.418000000000000000e+03 7.275341033935546875e+01 -1.608002483844757080e-01 -9.933743625879287720e-02 -3.430230170488357544e-02 -4.009192064404487610e-02 -9.999826550483703613e-02
2.419000000000000000e+03 7.401660919189453125e+01 -4.423573970794677734e+00 -3.623494133353233337e-02 -1.922024413943290710e-02 -1.663655415177345276e-02 -1.667123846709728241e-02
2.420000000000000000e+03 7.936393260955810547e+00 -1.017610645294189453e+01 -1.429913286119699478e-02 2.385592013597488403e-01 6.727802008390426636e-02 2.984175831079483032e-02
2.421000000000000000e+03 4.878302574157714844e+00 -9.781456947326660156e+00 -5.077075958251953125e-02 7.674747705459594727e-02 7.793014403432607651e-03 -1.203548833727836609e-01
2.422000000000000000e+03 8.100987434387207031e+00 2.276604461669921875e+01 -4.443804209586232901e-05 5.035315098211867735e-06 -1.182081814476987347e-05 -5.629380029859021306e-05
2.423000000000000000e+03 7.272162628173828125e+01 3.340480804443359375e+01 2.925130724906921387e-02 -6.221996545791625977e-01 -1.778845041990280151e-01 -3.872651979327201843e-02
2.424000000000000000e+03 7.196136474609375000e+01 3.109043693542480469e+01 5.033156648278236389e-02 -5.388782024383544922e-01 -1.465639919042587280e-01 -5.761186406016349792e-02
2.425000000000000000e+03 6.136950969696044922e+00 2.764066314697265625e+01 5.715747829526662827e-05 -1.387105730827897787e-04 -2.446592952765058726e-05 -6.932125688763335347e-05
2.426000000000000000e+03 5.539562225341796875e+00 2.590670204162597656e+01 -1.338817492069210857e-05 -6.659496284555643797e-05 -2.399494042037986219e-05 -4.916573743685148656e-05
2.427000000000000000e+03 7.517382812500000000e+01 -7.215701937675476074e-01 -4.522703960537910461e-02 -4.379802569746971130e-02 -2.670751884579658508e-02 -6.241620704531669617e-02
2.428000000000000000e+03 7.225484466552734375e+01 -1.311120867729187012e+00 -1.004693955183029175e-01 -2.584252133965492249e-02 -3.789357468485832214e-02 -7.691665738821029663e-02
2.429000000000000000e+03 7.314479827880859375e+01 -2.186598777770996094e+01 -2.723146753851324320e-04 -2.647810324560850859e-04 -1.611287152627483010e-04 -2.970659807033371180e-05
2.430000000000000000e+03 5.873206615447998047e+00 -7.963370800018310547e+00 -5.924047529697418213e-02 8.723521977663040161e-02 8.398422971367835999e-03 -9.200997650623321533e-02
2.431000000000000000e+03 7.638143539428710938e+00 2.735185813903808594e+01 1.250478089787065983e-04 -1.905566750792786479e-04 -1.965266164916101843e-05 -3.929550803150050342e-05
2.432000000000000000e+03 5.670951843261718750e+00 2.859015083312988281e+01 9.196330211125314236e-06 1.302677555941045284e-04 4.183922646916471422e-05 -5.232311013969592750e-05
2.433000000000000000e+03 5.544007301330566406e+00 1.572225093841552734e+01 3.470016963547095656e-05 -4.731226610488192819e-08 1.039585640683071688e-05 9.935170965036377311e-06
2.434000000000000000e+03 9.149772644042968750e+00 1.623578453063964844e+01 -5.224056076258420944e-05 -1.202764269692124799e-05 -1.928046185639686882e-05 1.419166437699459493e-05
2.435000000000000000e+03 5.027788162231445312e+01 2.681669807434082031e+01 3.492677211761474609e-01 1.283659815788269043e+00 4.898782372474670410e-01 2.004704326391220093e-01
2.436000000000000000e+03 4.620404434204101562e+01 2.535052871704101562e+01 2.955619990825653076e-01 1.968674182891845703e+00 6.792708635330200195e-01 1.027292534708976746e-01
2.437000000000000000e+03 6.717014312744140625e+00 1.419513225555419922e+01 1.920738213812001050e-05 -1.183722270070575178e-05 2.211047558375867084e-06 -2.866328486561542377e-06
2.438000000000000000e+03 5.313845157623291016e+00 1.297498989105224609e+01 2.743917139014229178e-05 -7.478330189769621938e-06 5.988252723909681663e-06 -9.218926493304024916e-07
2.439000000000000000e+03 6.786253929138183594e+00 1.992899894714355469e+01 5.775429235654883087e-05 -7.340701813518535346e-06 1.512407743575749919e-05 2.514059269742574543e-05
2.440000000000000000e+03 5.588831424713134766e+00 1.997254562377929688e+01 -4.217554669594392180e-05 5.463941306516062468e-06 -1.101348152587888762e-05 -2.344727363379206508e-05
2.441000000000000000e+03 4.172272872924804688e+01 -2.555975341796875000e+01 2.822674512863159180e-01 7.922012209892272949e-01 3.223406076431274414e-01 -3.491630256175994873e-01
2.442000000000000000e+03 4.171654891967773438e+01 -2.704401397705078125e+01 2.046391665935516357e-01 7.981147170066833496e-01 3.008261620998382568e-01 -3.651114106178283691e-01
2.443000000000000000e+03 5.918056488037109375e+01 3.783199787139892578e+00 -7.140924930572509766e-01 3.991734609007835388e-02 -2.022525519132614136e-01 -4.776032865047454834e-01
2.444000000000000000e+03 5.842154312133789062e+01 2.987808227539062500e+00 -8.880234956741333008e-01 4.175640642642974854e-02 -2.538801133632659912e-01 -4.090848267078399658e-01
2.445000000000000000e+03 9.253194808959960938e+00 7.334336280822753906e+00 2.711045999603811651e-05 1.218861052620923147e-05 1.178972070192685351e-05 1.945841404449311085e-06
2.446000000000000000e+03 5.952332019805908203e+00 8.067228317260742188e+00 -1.319301827606977895e-05 -1.086634711100487038e-05 -7.217809525172924623e-06 1.518640033282281365e-06
2.447000000000000000e+03 7.455995178222656250e+01 -2.134731864929199219e+01 1.444127847207710147e-04 -3.849791246466338634e-04 -7.216990343295037746e-05 4.906512549496255815e-05
2.448000000000000000e+03 5.843608856201171875e+00 -6.313832759857177734e+00 -5.554573982954025269e-02 4.935755953192710876e-02 -1.856454182416200638e-03 -7.772317528724670410e-02
2.449000000000000000e+03 7.413069915771484375e+01 -6.887454986572265625e+00 -1.248773746192455292e-02 -1.335225533694028854e-02 -7.751997560262680054e-03 5.818737554363906384e-04
2.450000000000000000e+03 7.520320129394531250e+01 -5.816361904144287109e+00 -1.520540378987789154e-02 -1.126368995755910873e-02 -7.940728217363357544e-03 -1.525325933471322060e-03
2.451000000000000000e+03 6.005643844604492188e+00 9.202841758728027344e+00 1.356636403215816244e-05 5.774148121417965740e-06 5.802153737022308633e-06 3.331724656163714826e-07
2.452000000000000000e+03 9.515778541564941406e+00 9.091138839721679688e+00 4.750200787384528667e-06 -2.270193726872093976e-05 -5.385521035350393504e-06 1.007169316835643258e-07
2.453000000000000000e+03 7.560085296630859375e+01 -1.910995101928710938e+01 5.516010060091502964e-05 1.074814499588683248e-04 4.879246625932864845e-05 2.361291553825139999e-04
2.454000000000000000e+03 6.352442932128906250e+01 2.939422845840454102e+00 -4.849268198013305664e-01 4.925781488418579102e-02 -1.307007074356079102e-01 -3.480480611324310303e-01
2.455000000000000000e+03 5.714854049682617188e+01 4.947991847991943359e+00 -6.990014910697937012e-01 1.303081866353750229e-02 -2.057911902666091919e-01 -5.936985611915588379e-01
2.456000000000000000e+03 5.389157104492187500e+01 7.223406791687011719e+00 -2.568418979644775391e-01 -1.756581813097000122e-01 -1.297500282526016235e-01 -7.817823290824890137e-01
2.457000000000000000e+03 4.674351501464843750e+01 2.408254623413085938e+01 3.134261071681976318e-01 1.935985922813415527e+00 6.748235821723937988e-01 1.928106695413589478e-01
2.458000000000000000e+03 4.910981369018554688e+01 2.568529891967773438e+01 3.623303771018981934e-01 1.480004906654357910e+00 5.527005791664123535e-01 2.142721265554428101e-01
2.459000000000000000e+03 4.703142929077148438e+01 2.829193687438964844e+01 3.011681139469146729e-01 1.695776820182800293e+00 5.990834832191467285e-01 1.185001358389854431e-01
2.460000000000000000e+03 8.164724349975585938e+00 6.261768817901611328e+00 1.199118014483246952e-05 1.023303957481402904e-05 6.667265552096068859e-06 -9.485535883868578821e-06
2.461000000000000000e+03 4.282630157470703125e+01 5.138520240783691406e+00 1.403525352478027344e+00 9.734451174736022949e-01 7.130911350250244141e-01 1.524337768554687500e+00
2.462000000000000000e+03 7.925061702728271484e+00 1.378027343750000000e+01 5.814996711706044152e-06 2.192591273342259228e-05 8.322273060912266374e-06 -7.556779564765747637e-06
2.463000000000000000e+03 1.049405574798583984e+01 2.119913291931152344e+01 5.450966273201629519e-05 -1.916393557621631771e-05 1.060371869243681431e-05 1.204169802804244682e-05
2.464000000000000000e+03 4.667314147949218750e+01 1.001756095886230469e+01 1.565312743186950684e+00 5.568133592605590820e-01 6.366378068923950195e-01 7.585958838462829590e-01
2.465000000000000000e+03 2.288640785217285156e+01 -7.868970870971679688e+00 1.361013174057006836e+00 -6.861401200294494629e-01 2.024619281291961670e-01 6.824256479740142822e-02
2.466000000000000000e+03 1.409293270111083984e+01 5.380162715911865234e+00 1.075582929388474440e-07 5.853104539710329846e-06 1.788198915164684877e-06 2.090468115056864917e-06
2.467000000000000000e+03 5.037704849243164062e+01 1.206284713745117188e+01 1.028704166412353516e+00 1.920204311609268188e-01 3.662173748016357422e-01 7.793644070625305176e-02
2.468000000000000000e+03 5.685502243041992188e+01 7.208081245422363281e+00 -3.166361451148986816e-01 -6.384420394897460938e-02 -1.141441017389297485e-01 -6.910341382026672363e-01
2.469000000000000000e+03 4.790817642211914062e+01 1.710898017883300781e+01 7.640144228935241699e-01 1.572252154350280762e+00 7.008799910545349121e-01 6.077011227607727051e-01
2.470000000000000000e+03 4.891429138183593750e+01 1.828256034851074219e+01 6.871581077575683594e-01 1.379162430763244629e+00 6.198961734771728516e-01 4.579223692417144775e-01
2.471000000000000000e+03 1.132725811004638672e+01 1.451104164123535156e+01 3.389357516425661743e-05 1.890101702883839607e-05 1.583837729413062334e-05 1.349857939203502610e-05
2.472000000000000000e+03 6.601953125000000000e+01 7.674404382705688477e-01 -3.816944956779479980e-01 5.708589777350425720e-02 -9.738258272409439087e-02 -1.927100270986557007e-01
2.473000000000000000e+03 6.610453033447265625e+01 2.071529626846313477e+00 -3.635638952255249023e-01 4.679574444890022278e-02 -9.503044188022613525e-02 -2.616770267486572266e-01
2.474000000000000000e+03 4.748111724853515625e+01 1.391643619537353516e+01 1.103403806686401367e+00 1.290260672569274902e+00 7.180993556976318359e-01 7.497994303703308105e-01
2.475000000000000000e+03 4.818794631958007812e+01 1.509473800659179688e+01 9.819667339324951172e-01 1.218990921974182129e+00 6.602873206138610840e-01 6.247322559356689453e-01
2.476000000000000000e+03 4.702495193481445312e+01 1.268313694000244141e+01 1.272164344787597656e+00 1.215078711509704590e+00 7.461729049682617188e-01 8.490415215492248535e-01
2.477000000000000000e+03 1.086810016632080078e+01 2.578821945190429688e+01 -5.425349809229373932e-05 5.413421604316681623e-05 -3.578427509864923195e-08 1.317099849984515458e-05
2.478000000000000000e+03 4.275366973876953125e+01 -2.899815750122070312e+01 1.011662408709526062e-01 6.886911392211914062e-01 2.369572222232818604e-01 -3.458328545093536377e-01
2.479000000000000000e+03 4.660918426513671875e+01 8.591485977172851562e+00 1.468400359153747559e+00 8.792422711849212646e-02 4.668973684310913086e-01 4.905427098274230957e-01
2.480000000000000000e+03 1.383492279052734375e+01 3.365589904785156250e+01 7.455568411387503147e-04 -1.805798528948798776e-04 1.694930979283526540e-04 1.187468660646118224e-04
2.481000000000000000e+03 8.755647659301757812e+00 3.390084457397460938e+01 -1.431927375961095095e-05 -3.227501583751291037e-04 -1.011208223644644022e-04 -2.313561271876096725e-04
2.482000000000000000e+03 6.914801788330078125e+01 -5.107486724853515625e+00 -6.411833316087722778e-02 -4.480997566133737564e-03 -2.057980000972747803e-02 -2.433126326650381088e-03
2.483000000000000000e+03 7.431929016113281250e+01 -1.571125537157058716e-01 -6.097933650016784668e-02 -4.638091847300529480e-02 -3.220807388424873352e-02 -7.926660031080245972e-02
2.484000000000000000e+03 5.828081512451171875e+01 4.542090415954589844e+00 -7.230102419853210449e-01 2.792802453041076660e-02 -2.085246741771697998e-01 -5.406142473220825195e-01
2.485000000000000000e+03 4.720714187622070312e+01 2.254866790771484375e+01 3.642707765102386475e-01 1.876038551330566406e+00 6.720927953720092773e-01 2.871635854244232178e-01
2.486000000000000000e+03 4.660685729980468750e+01 7.138732910156250000e+00 1.254248619079589844e+00 -5.724580883979797363e-01 2.045371383428573608e-01 1.483443230390548706e-01
2.487000000000000000e+03 4.590972137451171875e+01 -2.818092536926269531e+01 1.312569677829742432e-01 3.285155892372131348e-01 1.379317641258239746e-01 -2.449600696563720703e-01
2.488000000000000000e+03 4.534593200683593750e+01 2.622379302978515625e+01 2.765005528926849365e-01 2.114629507064819336e+00 7.173389792442321777e-01 2.930660173296928406e-02
2.489000000000000000e+03 7.257024383544921875e+01 -7.179560184478759766e+00 -1.388483121991157532e-02 -1.470115780830383301e-02 -8.575797080993652344e-03 -1.198415993712842464e-03
2.490000000000000000e+03 6.832221984863281250e+01 -5.784991741180419922e+00 -5.690464749932289124e-02 -5.828526336699724197e-03 -1.881995238363742828e-02 -9.861539583653211594e-04
2.491000000000000000e+03 6.754071044921875000e+01 -3.871130371093750000e+01 7.615304086357355118e-03 -4.204263444989919662e-03 1.023312099277973175e-03 6.238713394850492477e-03
2.492000000000000000e+03 7.247481536865234375e+01 -3.437401199340820312e+01 -9.326807921752333641e-04 -1.367657911032438278e-03 -6.901016458868980408e-04 3.743814071640372276e-03
2.493000000000000000e+03 7.008257293701171875e+01 2.899984359741210938e+01 8.798875659704208374e-02 -4.172322750091552734e-01 -9.877305477857589722e-02 -7.356896996498107910e-02
2.494000000000000000e+03 7.169062042236328125e+01 2.697571563720703125e+01 8.025918155908584595e-02 -5.242580771446228027e-01 -1.331996768712997437e-01 -1.053191348910331726e-01
2.495000000000000000e+03 7.004246234893798828e+00 -3.812918472290039062e+01 2.505636960268020630e-02 1.178436055779457092e-01 4.286999255418777466e-02 -6.558219902217388153e-04
2.496000000000000000e+03 7.445606231689453125e+01 1.917116546630859375e+01 4.136209189891815186e-02 -5.875778794288635254e-01 -1.638647317886352539e-01 -1.965042203664779663e-01
2.497000000000000000e+03 7.221665191650390625e+01 1.804943084716796875e+01 6.233093142509460449e-02 -4.695173203945159912e-01 -1.221559122204780579e-01 -2.589603662490844727e-01
2.498000000000000000e+03 7.296665191650390625e+01 7.492318153381347656e+00 -5.931993573904037476e-02 -1.988999694585800171e-01 -7.746597379446029663e-02 -2.700756788253784180e-01
2.499000000000000000e+03 3.792759323120117188e+01 -3.576314163208007812e+01 -2.891861200332641602e-01 8.751581311225891113e-01 1.757916063070297241e-01 -6.660214811563491821e-02
2.500000000000000000e+03 4.154424667358398438e+01 -3.280993652343750000e+01 -1.159076839685440063e-01 8.066506385803222656e-01 2.072228938341140747e-01 -2.463961094617843628e-01
2.501000000000000000e+03 3.854322433471679688e+01 -2.979696846008300781e+01 -5.738284811377525330e-02 1.218774914741516113e+00 3.484176099300384521e-01 -2.475640177726745605e-01
2.502000000000000000e+03 7.176658630371093750e+01 4.075667953491210938e+01 4.009089432656764984e-03 -5.653324723243713379e-01 -1.683970093727111816e-01 -8.426923304796218872e-03
2.503000000000000000e+03 3.907228088378906250e+01 -2.734173393249511719e+01 1.625855267047882080e-01 1.319709897041320801e+00 4.446886479854583740e-01 -3.300617039203643799e-01
2.504000000000000000e+03 4.015904617309570312e+01 -2.793964576721191406e+01 1.346263289451599121e-01 1.020342350006103516e+00 3.464906215667724609e-01 -3.528932631015777588e-01
2.505000000000000000e+03 4.646566390991210938e+01 -3.545748138427734375e+01 -7.427151501178741455e-02 4.624818265438079834e-01 1.164630874991416931e-01 -1.714371293783187866e-01
2.506000000000000000e+03 2.158641815185546875e+01 -3.763650131225585938e+01 -1.349489539861679077e-01 -2.763233706355094910e-02 -4.877438768744468689e-02 2.989256195724010468e-02
2.507000000000000000e+03 3.958797454833984375e+01 -2.620709228515625000e+01 2.697781026363372803e-01 1.187187433242797852e+00 4.370896518230438232e-01 -3.591938912868499756e-01
2.508000000000000000e+03 3.114148521423339844e+01 -8.335602760314941406e+00 1.136607885360717773e+00 4.589123249053955078e+00 1.717719316482543945e+00 -1.191431522369384766e+00
2.509000000000000000e+03 3.082143020629882812e+01 -8.627201080322265625e+00 8.909158706665039062e-01 4.634602546691894531e+00 1.657655596733093262e+00 -7.098163962364196777e-01
2.510000000000000000e+03 3.171154975891113281e+01 -8.682963371276855469e+00 1.137834668159484863e+00 3.613145112991333008e+00 1.425293922424316406e+00 -1.637323260307312012e+00
2.511000000000000000e+03 3.251441574096679688e+01 -9.442648887634277344e+00 9.778752923011779785e-01 2.308327436447143555e+00 9.858608245849609375e-01 -1.617691159248352051e+00
2.512000000000000000e+03 2.988800621032714844e+01 -8.964272499084472656e+00 1.043001890182495117e+00 3.935806751251220703e+00 1.493642687797546387e+00 5.057291984558105469e-01
2.513000000000000000e+03 3.138937950134277344e+01 -9.121691703796386719e+00 8.000490069389343262e-01 3.403731346130371094e+00 1.261134147644042969e+00 -1.256692409515380859e+00
2.514000000000000000e+03 1.307649135589599609e+01 -6.494527816772460938e+00 5.192729085683822632e-02 -2.440436929464340210e-02 8.256875909864902496e-03 5.551370978355407715e-02
2.515000000000000000e+03 2.900477027893066406e+01 -1.369204044342041016e+01 -4.695567488670349121e-01 9.372205734252929688e-01 1.402991563081741333e-01 1.282668262720108032e-01
2.516000000000000000e+03 2.950170707702636719e+01 -8.439868927001953125e+00 1.598084807395935059e+00 4.171882152557373047e+00 1.730990052223205566e+00 1.112461328506469727e+00
2.517000000000000000e+03 1.176334571838378906e+01 -6.328356266021728516e+00 8.866839110851287842e-03 2.227580547332763672e-02 9.342793375253677368e-03 4.674190655350685120e-02
2.518000000000000000e+03 6.753163814544677734e+00 6.297951698303222656e+00 5.737428637075936422e-06 1.131208318838616833e-05 5.114853593113366514e-06 -2.036579280684236437e-05
2.519000000000000000e+03 3.368217849731445312e+01 -1.045453166961669922e+01 6.452572345733642578e-01 1.495416283607482910e+00 6.422020792961120605e-01 -1.490407109260559082e+00
2.520000000000000000e+03 1.081842327117919922e+01 5.024472713470458984e+00 -8.464731763524468988e-06 -7.204410394479054958e-06 -4.700742465502116829e-06 -9.350652362627442926e-06
2.521000000000000000e+03 9.341033935546875000e+00 6.232092857360839844e+00 1.799311394279357046e-05 9.356883310829289258e-06 8.204999176086857915e-06 2.147458872059360147e-06
2.522000000000000000e+03 6.049213409423828125e+00 6.267867088317871094e+00 -2.293403667863458395e-05 -1.126863298850366846e-05 -1.026080099109094590e-05 2.470308936608489603e-05
2.523000000000000000e+03 7.373236179351806641e+00 5.516351699829101562e+00 7.547569680355081800e-07 5.399704605224542320e-06 1.846338477662357036e-06 -1.049617094395216554e-05
2.524000000000000000e+03 3.725494766235351562e+01 -1.351327037811279297e+01 -1.611092835664749146e-01 1.192804574966430664e+00 3.095085918903350830e-01 -8.573784828186035156e-01
2.525000000000000000e+03 3.423885345458984375e+01 -1.205836677551269531e+01 8.865596354007720947e-02 1.388494491577148438e+00 4.431451559066772461e-01 -1.368673801422119141e+00
2.526000000000000000e+03 1.239833068847656250e+01 -6.387498855590820312e+00 3.787837922573089600e-02 -1.091824471950531006e-02 8.088040165603160858e-03 5.362186208367347717e-02
2.527000000000000000e+03 7.418099212646484375e+01 -2.016802215576171875e+01 2.944078296422958374e-04 -2.317368052899837494e-04 1.880130730569362640e-05 6.615915481233969331e-05
2.528000000000000000e+03 1.333465766906738281e+01 6.448458194732666016e+00 1.884107945215873769e-07 1.625151708140037954e-05 4.931978310196427628e-06 1.424766742275096476e-05
2.529000000000000000e+03 7.149758911132812500e+01 -7.090758800506591797e+00 -1.668280549347400665e-02 -1.243436522781848907e-02 -8.735151030123233795e-03 -8.725611842237412930e-04
2.530000000000000000e+03 7.290368652343750000e+01 -4.065937995910644531e+00 -5.324000120162963867e-02 -1.486730668693780899e-02 -2.043219096958637238e-02 -2.495383843779563904e-02
2.531000000000000000e+03 3.272472763061523438e+01 -1.354991531372070312e+01 -4.362619221210479736e-01 1.407857418060302734e+00 2.914786338806152344e-01 -1.210405945777893066e+00
2.532000000000000000e+03 7.409902954101562500e+01 -7.781403064727783203e+00 -9.503399953246116638e-03 -8.122245781123638153e-03 -5.287693813443183899e-03 5.135449115186929703e-03
2.533000000000000000e+03 1.377263355255126953e+01 -6.652184486389160156e+00 1.002429425716400146e-01 -7.478772103786468506e-02 7.636567577719688416e-03 6.371034681797027588e-02
2.534000000000000000e+03 5.866598129272460938e+00 -5.562685489654541016e+00 -5.508230999112129211e-02 3.421294689178466797e-02 -6.260809488594532013e-03 -7.303007692098617554e-02
2.535000000000000000e+03 6.638059139251708984e+00 -6.376924514770507812e+00 -5.709941312670707703e-02 6.673166900873184204e-02 2.889676252380013466e-03 -6.241257116198539734e-02
2.536000000000000000e+03 3.349695968627929688e+01 -1.491275787353515625e+01 -7.408821582794189453e-01 1.355046033859252930e+00 1.842491477727890015e-01 -1.229787707328796387e+00
2.537000000000000000e+03 9.262457847595214844e+00 -8.730101585388183594e+00 -4.534793552011251450e-03 1.568010598421096802e-01 4.567987844347953796e-02 5.603479593992233276e-02
2.538000000000000000e+03 8.101087570190429688e+00 -5.648418426513671875e+00 -6.083464995026588440e-02 7.094797492027282715e-02 3.033996559679508209e-03 -2.962217666208744049e-02
2.539000000000000000e+03 7.431560993194580078e+00 -7.153253078460693359e+00 -5.091603100299835205e-02 1.006865054368972778e-01 1.493114233016967773e-02 -3.727246820926666260e-02
2.540000000000000000e+03 1.696207046508789062e+01 -6.215866565704345703e+00 2.286201417446136475e-01 -2.351036071777343750e-01 -1.945041469298303127e-03 -4.093418270349502563e-02
2.541000000000000000e+03 1.618417930603027344e+01 -6.131931304931640625e+00 1.769186705350875854e-01 -1.976542919874191284e-01 -6.220684386789798737e-03 -8.270381949841976166e-03
2.542000000000000000e+03 1.274794864654541016e+01 7.603228569030761719e+00 -5.045524630986619741e-06 2.503130963305011392e-05 5.995735591568518430e-06 1.724521098367404193e-05
2.543000000000000000e+03 1.225809478759765625e+01 5.485521316528320312e+00 -1.945168514794204384e-05 -6.572900588253105525e-07 -6.032692454027710482e-06 -8.701234037289395928e-06
2.544000000000000000e+03 3.459325790405273438e+01 -1.167213821411132812e+01 2.144131958484649658e-01 1.291510701179504395e+00 4.517771601676940918e-01 -1.368906974792480469e+00
2.545000000000000000e+03 3.405743408203125000e+01 -1.540826416015625000e+01 -8.489594459533691406e-01 1.464750766754150391e+00 1.847374141216278076e-01 -1.224090933799743652e+00
2.546000000000000000e+03 9.557888984680175781e+00 -5.668520927429199219e+00 -4.871605709195137024e-02 6.509397178888320923e-02 4.913375247269868851e-03 1.295314403250813484e-03
2.547000000000000000e+03 1.738516044616699219e+01 -8.456789016723632812e+00 4.318858087062835693e-01 -3.313450217247009277e-01 3.016223572194576263e-02 1.265094727277755737e-01
2.548000000000000000e+03 2.492086410522460938e+01 -1.335121726989746094e+01 1.256571263074874878e-01 2.015572935342788696e-01 9.816432744264602661e-02 8.599033951759338379e-01
2.549000000000000000e+03 1.569505500793457031e+01 -1.128582286834716797e+01 3.402778804302215576e-01 -2.090567052364349365e-01 3.936635330319404602e-02 3.168419897556304932e-01
2.550000000000000000e+03 1.847912216186523438e+01 -7.136642932891845703e+00 4.483721256256103516e-01 -3.938189744949340820e-01 1.636594533920288086e-02 -2.806982956826686859e-02
2.551000000000000000e+03 1.872641372680664062e+01 -1.207599544525146484e+01 4.197202324867248535e-01 -3.262888193130493164e-01 2.802942134439945221e-02 4.354605376720428467e-01
2.552000000000000000e+03 1.455806541442871094e+01 -6.828386783599853516e+00 1.357863694429397583e-01 -1.067913770675659180e-01 8.698496967554092407e-03 5.960438400506973267e-02
2.553000000000000000e+03 1.239309310913085938e+01 -1.210296154022216797e+01 2.228441536426544189e-01 9.577791392803192139e-02 9.558662027120590210e-02 3.154255151748657227e-01
2.554000000000000000e+03 3.408760452270507812e+01 -1.159346389770507812e+01 2.011004686355590820e-01 1.400410175323486328e+00 4.804531931877136230e-01 -1.399462461471557617e+00
2.555000000000000000e+03 3.442394638061523438e+01 -1.380446434020996094e+01 -4.582805037498474121e-01 1.438849449157714844e+00 2.941706776618957520e-01 -1.261630654335021973e+00
2.556000000000000000e+03 1.757915687561035156e+01 -7.063108444213867188e+00 3.540081679821014404e-01 -3.076085150241851807e-01 1.391989830881357193e-02 -1.352975494228303432e-03
2.557000000000000000e+03 3.510451889038085938e+01 -1.669928359985351562e+01 -9.058800935745239258e-01 2.131307840347290039e+00 3.676282763481140137e-01 -8.209873437881469727e-01
2.558000000000000000e+03 1.169605827331542969e+01 1.027409458160400391e+01 2.495941225788556039e-05 1.752884236339014024e-05 1.274647638638271019e-05 8.502377568220254034e-06
2.559000000000000000e+03 6.108433723449707031e+00 1.040318775177001953e+01 -1.311403684667311609e-05 -3.066524868700071238e-06 -4.854168309975648299e-06 -2.498852609278401360e-07
2.560000000000000000e+03 6.716327667236328125e+01 6.613607406616210938e-01 -3.155915141105651855e-01 4.857752099633216858e-02 -8.010419458150863647e-02 -1.709505319595336914e-01
2.561000000000000000e+03 2.213110733032226562e+01 -6.287741184234619141e+00 8.785250186920166016e-01 -5.899201631546020508e-01 8.658144623041152954e-02 -3.752217292785644531e-01
2.562000000000000000e+03 9.056622505187988281e+00 1.363537597656250000e+01 3.230456786695867777e-05 6.654101071035256609e-06 1.168760081782238558e-05 2.053744356089737266e-05
2.563000000000000000e+03 8.838160514831542969e+00 -5.667090892791748047e+00 -5.197789147496223450e-02 6.700310111045837402e-02 4.507562611252069473e-03 -1.064026821404695511e-02
2.564000000000000000e+03 6.661625385284423828e+00 -7.163468837738037109e+00 -5.935831367969512939e-02 9.454897046089172363e-02 1.055719796568155289e-02 -6.075533479452133179e-02
2.565000000000000000e+03 3.318582916259765625e+01 -1.042296314239501953e+01 6.019380688667297363e-01 1.704073309898376465e+00 6.918033957481384277e-01 -1.490250825881958008e+00
2.566000000000000000e+03 3.028597640991210938e+01 -1.393047523498535156e+01 -5.693850517272949219e-01 9.411064386367797852e-01 1.115164160728454590e-01 -3.942331671714782715e-01
2.567000000000000000e+03 4.933294296264648438e+00 7.913650035858154297e+00 2.322713589819613844e-05 9.167157259071245790e-06 9.718288310978095978e-06 1.656472591093915980e-06
2.568000000000000000e+03 8.726435661315917969e+00 -8.186513900756835938e+00 -2.988079376518726349e-02 1.400944441556930542e-01 3.306409716606140137e-02 2.470465376973152161e-02
2.569000000000000000e+03 1.065708732604980469e+01 2.425894927978515625e+01 1.139491068897768855e-04 -4.500249997363425791e-05 2.068398316623643041e-05 2.093279181281104684e-05
2.570000000000000000e+03 6.942915439605712891e+00 2.425734519958496094e+01 9.315144779975526035e-06 -7.685876880714204162e-06 4.887805289399693720e-07 -5.764656816609203815e-05
2.571000000000000000e+03 7.241596221923828125e+01 1.322906017303466797e+01 2.107372693717479706e-02 -3.578596413135528564e-01 -1.010357737541198730e-01 -3.124638199806213379e-01
2.572000000000000000e+03 5.383232879638671875e+01 2.415820884704589844e+01 4.582127332687377930e-01 7.815864682197570801e-01 3.719397485256195068e-01 1.652216613292694092e-01
2.573000000000000000e+03 8.188189506530761719e+00 6.892925739288330078e+00 -2.176007001253310591e-05 1.745867848512716591e-05 -1.290417799282295164e-06 8.854699444782454520e-06
2.574000000000000000e+03 3.563674545288085938e+01 -1.507504749298095703e+01 -6.553135514259338379e-01 1.662994146347045898e+00 3.023041784763336182e-01 -9.777173995971679688e-01
2.575000000000000000e+03 2.015643501281738281e+01 -1.146072387695312500e+01 5.677475929260253906e-01 -3.794274330139160156e-01 5.649604275822639465e-02 4.871434867382049561e-01
2.576000000000000000e+03 2.309742164611816406e+01 -1.352006053924560547e+01 1.184478327631950378e-01 -3.470339626073837280e-02 2.512332983314990997e-02 7.476870417594909668e-01
2.577000000000000000e+03 7.300095367431640625e+01 4.724307060241699219e+00 -8.678769320249557495e-02 -1.254313737154006958e-01 -6.366571784019470215e-02 -2.193765193223953247e-01
2.578000000000000000e+03 1.107983589172363281e+01 5.894004344940185547e+00 -1.551354762341361493e-05 -1.018441435007844120e-05 -7.709388228249736130e-06 -5.913426321058068424e-06
2.579000000000000000e+03 1.233595561981201172e+01 9.246213912963867188e+00 -2.194898479501716793e-05 -1.148379578808089718e-05 -1.002983481157571077e-05 -9.018930541060399264e-06
2.580000000000000000e+03 1.229652595520019531e+01 1.187965106964111328e+01 2.394609691691584885e-05 1.055303619068581611e-05 1.034973956848261878e-05 6.690670943498844281e-06
2.581000000000000000e+03 6.236583709716796875e+00 1.162246322631835938e+01 1.046237412083428353e-05 2.658396851984434761e-06 3.936231223633512855e-06 -2.479967406543437392e-06
2.582000000000000000e+03 2.612681770324707031e+01 -9.076142311096191406e+00 1.968438625335693359e+00 2.888374328613281250e-01 6.771827936172485352e-01 1.090455651283264160e+00
2.583000000000000000e+03 1.401243114471435547e+01 -1.267893981933593750e+01 3.053474128246307373e-01 -7.755821198225021362e-02 6.833676248788833618e-02 3.523364961147308350e-01
2.584000000000000000e+03 1.330153465270996094e+01 -1.174533462524414062e+01 2.479076087474822998e-01 1.445357687771320343e-02 7.870835810899734497e-02 3.257344067096710205e-01
2.585000000000000000e+03 1.194909572601318359e+01 -7.830051898956298828e+00 7.268467545509338379e-02 3.015419468283653259e-02 3.085166029632091522e-02 1.045855060219764709e-01
2.586000000000000000e+03 4.794913101196289062e+01 2.955595397949218750e+01 2.454727590084075928e-01 1.529456615447998047e+00 5.324788093566894531e-01 1.558779776096343994e-01
2.587000000000000000e+03 5.631573486328125000e+01 5.441515445709228516e+00 -6.695326566696166992e-01 -5.992952734231948853e-03 -2.026576846837997437e-01 -6.702108979225158691e-01
2.588000000000000000e+03 5.738762664794921875e+01 6.023043155670166016e+00 -5.259450674057006836e-01 -2.815189212560653687e-02 -1.662290841341018677e-01 -6.576313376426696777e-01
2.589000000000000000e+03 1.407547187805175781e+01 4.661287307739257812e+00 3.114515038760146126e-06 -4.955023200636787806e-07 7.857038326619658619e-07 -7.497781666643277276e-07
2.590000000000000000e+03 1.478610801696777344e+01 4.550901889801025391e+00 -7.172912773967254907e-06 5.582709036389132962e-06 -4.770610075865988620e-07 -1.486264295635919552e-06
2.591000000000000000e+03 7.264237213134765625e+01 1.995951652526855469e+01 7.000084966421127319e-02 -5.136049985885620117e-01 -1.330812424421310425e-01 -2.214737981557846069e-01
2.592000000000000000e+03 7.150132751464843750e+01 1.904992294311523438e+01 8.980813622474670410e-02 -4.524256587028503418e-01 -1.087852567434310913e-01 -2.535620331764221191e-01
2.593000000000000000e+03 7.050054168701171875e+01 3.572921037673950195e+00 -1.670431196689605713e-01 -6.134630739688873291e-02 -6.851682811975479126e-02 -2.460294514894485474e-01
2.594000000000000000e+03 7.140763854980468750e+01 1.142907238006591797e+01 -6.906468886882066727e-03 -2.824976444244384766e-01 -8.682122826576232910e-02 -3.429836630821228027e-01
2.595000000000000000e+03 7.351678466796875000e+01 9.201767444610595703e-01 -9.018253535032272339e-02 -5.793600156903266907e-02 -4.443556070327758789e-02 -1.211228147149085999e-01
2.596000000000000000e+03 7.372960662841796875e+01 2.190824508666992188e+01 5.080715566873550415e-02 -6.128605008125305176e-01 -1.686159968376159668e-01 -1.704635173082351685e-01
2.597000000000000000e+03 7.413346862792968750e+01 -1.895408153533935547e+00 -5.253721028566360474e-02 -3.439882770180702209e-02 -2.608081139624118805e-02 -5.120661482214927673e-02
2.598000000000000000e+03 7.078660583496093750e+01 1.300926804542541504e+00 -1.612092107534408569e-01 -2.750238776206970215e-02 -5.661347880959510803e-02 -1.611496955156326294e-01
2.599000000000000000e+03 7.368614959716796875e+01 -9.068197607994079590e-01 -7.315802574157714844e-02 -3.958264738321304321e-02 -3.382220119237899780e-02 -7.692985236644744873e-02
2.600000000000000000e+03 1.077042388916015625e+01 1.588014507293701172e+01 -3.287756771896965802e-05 -4.056203761138021946e-05 -2.203188159910496324e-05 -1.514743871666723862e-05
2.601000000000000000e+03 8.114769935607910156e+00 2.424883460998535156e+01 1.014939552987925708e-04 1.886035352072212845e-05 3.610629210015758872e-05 8.190653898054733872e-05
2.602000000000000000e+03 5.657835483551025391e+00 -9.385048866271972656e+00 -5.745070427656173706e-02 1.164465546607971191e-01 1.769875362515449524e-02 -9.735397994518280029e-02
2.603000000000000000e+03 6.968583679199218750e+01 -6.165440082550048828e+00 -4.431535676121711731e-02 -1.076517999172210693e-02 -1.652416028082370758e-02 -2.698705997318029404e-03
2.604000000000000000e+03 7.329840850830078125e+01 -6.959913730621337891e+00 -1.895766146481037140e-02 -1.257803384214639664e-02 -9.460709057748317719e-03 8.614157559350132942e-04
2.605000000000000000e+03 5.008317565917968750e+01 6.129490375518798828e+00 -3.526481389999389648e-01 -5.993075370788574219e-01 -2.855867147445678711e-01 -1.035065650939941406e+00
2.606000000000000000e+03 7.190672302246093750e+01 1.482082748413085938e+01 4.825793579220771790e-02 -3.876018226146697998e-01 -1.018031686544418335e-01 -3.126793503761291504e-01
2.607000000000000000e+03 7.101464080810546875e+01 1.283406734466552734e+01 2.077317610383033752e-02 -3.081854581832885742e-01 -8.622368425130844116e-02 -3.534453213214874268e-01
2.608000000000000000e+03 7.923976898193359375e+00 1.850632095336914062e+01 6.099096572143025696e-05 -2.034459066635463387e-05 1.219391288032056764e-05 1.721799890219699591e-05
2.609000000000000000e+03 7.991669654846191406e+00 1.987891006469726562e+01 -5.106667231302708387e-05 2.160396252293139696e-05 -8.838813300826586783e-06 -2.726895581872668117e-05
2.610000000000000000e+03 6.749943733215332031e+00 1.852549552917480469e+01 -5.039865573053248227e-05 1.538999094918835908e-05 -1.050259925250429660e-05 -1.582098957442212850e-05
2.611000000000000000e+03 7.096913146972656250e+01 -6.427745342254638672e+00 -3.512887284159660339e-02 -1.446668338030576706e-02 -1.487866695970296860e-02 -2.019940642639994621e-03
2.612000000000000000e+03 6.196066284179687500e+01 4.222181320190429688e+00 -4.988617897033691406e-01 2.979915030300617218e-02 -1.407187879085540771e-01 -4.580429792404174805e-01
2.613000000000000000e+03 6.343483924865722656e+00 -8.743104934692382812e+00 -4.940878227353096008e-02 1.348889619112014771e-01 2.564405277371406555e-02 -6.762283295392990112e-02
2.614000000000000000e+03 7.252912044525146484e+00 -1.115849781036376953e+01 -2.915583178400993347e-02 2.846362888813018799e-01 7.664413750171661377e-02 4.589470918290317059e-04
2.615000000000000000e+03 7.574339389801025391e+00 7.009226322174072266e+00 -1.407618583471048623e-05 -2.707131216084235348e-06 -5.034994956076843664e-06 -4.726786301034735516e-06
2.616000000000000000e+03 4.293075942993164062e+01 -2.745900917053222656e+01 1.795217245817184448e-01 6.449954509735107422e-01 2.473551630973815918e-01 -3.561105728149414062e-01
2.617000000000000000e+03 6.336287307739257812e+01 4.406303882598876953e+00 -4.247137904167175293e-01 3.365286812186241150e-02 -1.173182800412178040e-01 -4.302111268043518066e-01
2.618000000000000000e+03 7.304719543457031250e+01 -5.947018146514892578e+00 -2.746296487748622894e-02 -1.421533059328794479e-02 -1.250348892062902451e-02 -5.372860468924045563e-03
2.619000000000000000e+03 6.976317882537841797e+00 9.252270698547363281e+00 -1.076869193639140576e-05 -1.743304437695769593e-06 -3.753598775801947340e-06 -2.984250215831707465e-07
2.620000000000000000e+03 5.234068679809570312e+01 7.350320339202880859e+00 -1.650510728359222412e-01 -3.034848570823669434e-01 -1.405607759952545166e-01 -8.429111242294311523e-01
2.621000000000000000e+03 1.088319110870361328e+01 3.465158843994140625e+01 3.330678737256675959e-04 6.282480171648785472e-05 1.187677989946678281e-04 -1.202312705572694540e-05
2.622000000000000000e+03 6.039088439941406250e+01 5.555749416351318359e+00 -4.764305055141448975e-01 4.205263685435056686e-03 -1.416675746440887451e-01 -5.538062453269958496e-01
2.623000000000000000e+03 9.633200645446777344e+00 2.594298934936523438e+01 1.816286967368796468e-04 -1.170478208223357797e-04 1.937426532094832510e-05 1.027328471536748111e-05
2.624000000000000000e+03 1.109954166412353516e+01 1.148288726806640625e+01 -2.544688140915241092e-05 -1.474565760872792453e-05 -1.205776152346516028e-05 -1.446074838895583525e-05
2.625000000000000000e+03 6.824889373779296875e+01 2.867152595520019531e+01 1.194636523723602295e-01 -3.045589327812194824e-01 -5.552858859300613403e-02 -7.104507833719253540e-02
2.626000000000000000e+03 1.064519786834716797e+01 1.278674793243408203e+01 2.690712426556274295e-05 1.754651748342439532e-05 1.333609270659508184e-05 1.553324727865401655e-05
2.627000000000000000e+03 9.345947265625000000e+00 -1.190600395202636719e+01 8.008538931608200073e-02 3.206785619258880615e-01 1.202291920781135559e-01 1.697023510932922363e-01
2.628000000000000000e+03 6.756568145751953125e+01 3.366877365112304688e+01 6.860730797052383423e-02 -2.244911938905715942e-01 -4.676516354084014893e-02 -9.471865370869636536e-03
2.629000000000000000e+03 7.014946746826171875e+01 2.714323616027832031e+01 1.037757024168968201e-01 -4.248172342777252197e-01 -9.631246328353881836e-02 -1.016368791460990906e-01
2.630000000000000000e+03 4.991026687622070312e+01 1.328962516784667969e+01 1.081774473190307617e+00 4.788763225078582764e-01 4.681952297687530518e-01 2.837485671043395996e-01
2.631000000000000000e+03 2.642537689208984375e+01 -7.941704750061035156e+00 2.685160875320434570e+00 1.115192696452140808e-01 8.390040397644042969e-01 9.533665776252746582e-01
2.632000000000000000e+03 7.300306701660156250e+01 -3.166156196594238281e+01 -3.181128762662410736e-03 5.745558300986886024e-04 -7.819718448445200920e-04 1.845095888711512089e-03
2.633000000000000000e+03 4.792330551147460938e+01 8.721547126770019531e+00 1.226059198379516602e+00 -2.515881657600402832e-01 2.923413217067718506e-01 8.672356605529785156e-02
2.634000000000000000e+03 4.794635772705078125e+01 1.011256504058837891e+01 1.316243052482604980e+00 1.877002120018005371e-01 4.511829912662506104e-01 3.367342948913574219e-01
2.635000000000000000e+03 5.070078659057617188e+01 2.056232643127441406e+01 6.013624668121337891e-01 1.108672976493835449e+00 5.130106210708618164e-01 3.081692755222320557e-01
2.636000000000000000e+03 7.170589447021484375e+01 6.172885894775390625e+00 -9.875044971704483032e-02 -1.402375400066375732e-01 -7.169639319181442261e-02 -2.843284606933593750e-01
2.637000000000000000e+03 7.214733600616455078e+00 3.269480133056640625e+01 -1.985962626349646598e-05 1.265881292056292295e-04 3.201854997314512730e-05 -1.743616157909855247e-04
2.638000000000000000e+03 7.036697387695312500e+01 1.433241748809814453e+01 5.551994591951370239e-02 -3.179980814456939697e-01 -7.874344289302825928e-02 -3.544251620769500732e-01
2.639000000000000000e+03 1.016177463531494141e+01 2.881134033203125000e+01 2.776613400783389807e-04 -6.893549289088696241e-05 6.261775706661865115e-05 6.222321826498955488e-05
2.640000000000000000e+03 8.390465736389160156e+00 2.819540405273437500e+01 -1.013793735182844102e-05 1.578751835040748119e-04 4.432117202668450773e-05 -3.044853656319901347e-05
2.641000000000000000e+03 7.207158660888671875e+01 2.276517295837402344e+01 9.247976541519165039e-02 -5.149716138839721680e-01 -1.267475634813308716e-01 -1.768965423107147217e-01
2.642000000000000000e+03 1.037850856781005859e+01 1.816314888000488281e+01 1.237181731994496658e-05 -2.649048656166996807e-05 -4.235600954416440800e-06 1.042071380652487278e-05
2.643000000000000000e+03 8.843252182006835938e+00 2.986773490905761719e+01 9.959917952073737979e-05 1.315765985054895282e-04 6.935273268027231097e-05 3.811841088463552296e-05
2.644000000000000000e+03 7.130499267578125000e+01 2.542471122741699219e+01 9.250076115131378174e-02 -5.027205944061279297e-01 -1.230659484863281250e-01 -1.330440193414688110e-01
2.645000000000000000e+03 7.179701232910156250e+01 2.892262077331542969e+01 6.065741181373596191e-02 -5.363312363624572754e-01 -1.427021324634552002e-01 -7.496163994073867798e-02
2.646000000000000000e+03 7.041629028320312500e+01 3.405886459350585938e+01 4.626622423529624939e-02 -4.314747750759124756e-01 -1.155625656247138977e-01 -2.482627704739570618e-02
2.647000000000000000e+03 1.045541191101074219e+01 1.969077110290527344e+01 -2.496196430001873523e-05 2.330037568754050881e-05 -4.984764814253139775e-07 -8.313797479786444455e-06
2.648000000000000000e+03 1.291146659851074219e+01 3.745843505859375000e+01 3.335386281833052635e-04 2.234651947219390422e-05 1.067655393853783607e-04 2.881090040318667889e-05
2.649000000000000000e+03 1.642770195007324219e+01 -1.193882369995117188e+01 3.513946831226348877e-01 -2.467371225357055664e-01 3.139726817607879639e-02 3.521893024444580078e-01
2.650000000000000000e+03 8.495616912841796875e+00 2.644999122619628906e+01 -1.034824981616111472e-05 1.044170057866722345e-04 2.822062560881022364e-05 -1.497707671660464257e-05
2.651000000000000000e+03 4.908649063110351562e+01 1.624148559570312500e+01 8.811871409416198730e-01 1.148334980010986328e+00 6.088566780090332031e-01 5.171163082122802734e-01
2.652000000000000000e+03 2.909204673767089844e+01 -8.973994255065917969e+00 1.383489131927490234e+00 3.296602964401245117e+00 1.404027581214904785e+00 1.135238170623779297e+00
2.653000000000000000e+03 1.139028072357177734e+01 -7.227916240692138672e+00 2.639867179095745087e-02 4.095430299639701843e-02 2.020589262247085571e-02 7.010155171155929565e-02
2.654000000000000000e+03 1.107256507873535156e+01 -6.461286067962646484e+00 2.515103435143828392e-03 4.208658635616302490e-02 1.338050700724124908e-02 4.502349346876144409e-02
2.655000000000000000e+03 2.386214256286621094e+01 -6.899927139282226562e+00 1.625907778739929199e+00 -7.895059585571289062e-01 2.509205341339111328e-01 -2.330726832151412964e-01
2.656000000000000000e+03 2.855805587768554688e+01 -8.677603721618652344e+00 1.924360752105712891e+00 2.751749038696289062e+00 1.402832984924316406e+00 1.609580636024475098e+00
2.657000000000000000e+03 6.854282855987548828e+00 7.152442932128906250e+00 -4.201805495540611446e-06 -7.445567916875006631e-06 -3.494212023724685423e-06 1.255788447451777756e-05
2.658000000000000000e+03 3.379919815063476562e+01 -1.340354347229003906e+01 -3.607779443264007568e-01 1.447287917137145996e+00 3.259530067443847656e-01 -1.316653966903686523e+00
2.659000000000000000e+03 3.259309005737304688e+01 -1.112383651733398438e+01 2.801609337329864502e-01 1.947708010673522949e+00 6.683606505393981934e-01 -1.328679084777832031e+00
2.660000000000000000e+03 3.368391036987304688e+01 -1.101275825500488281e+01 4.072179198265075684e-01 1.496797442436218262e+00 5.712046027183532715e-01 -1.444945096969604492e+00
2.661000000000000000e+03 3.403773117065429688e+01 -1.436880874633789062e+01 -5.932912230491638184e-01 1.469224214553833008e+00 2.627798914909362793e-01 -1.267343282699584961e+00
2.662000000000000000e+03 3.589753723144531250e+01 -1.340820026397705078e+01 -2.730670869350433350e-01 1.377000570297241211e+00 3.311800658702850342e-01 -1.110765457153320312e+00
2.663000000000000000e+03 3.193962860107421875e+01 -9.635397911071777344e+00 7.492361068725585938e-01 2.714196920394897461e+00 1.039029955863952637e+00 -1.399571180343627930e+00
2.664000000000000000e+03 3.229368209838867188e+01 -1.151084041595458984e+01 1.183357909321784973e-01 1.905062794685363770e+00 6.070196032524108887e-01 -1.218608617782592773e+00
2.665000000000000000e+03 1.050232219696044922e+01 6.443668365478515625e+00 1.804395105864387006e-05 9.304441846325062215e-06 8.204518053389620036e-06 5.485122073878301308e-06
2.666000000000000000e+03 1.093988418579101562e+01 8.174921989440917969e+00 -6.438723175961058587e-06 -2.927413515863008797e-05 -1.071385759132681414e-05 -5.560180397878866643e-06
2.667000000000000000e+03 1.333012580871582031e+01 -7.140078067779541016e+00 1.035638749599456787e-01 -4.654527455568313599e-02 1.710557937622070312e-02 8.339568972587585449e-02
2.668000000000000000e+03 2.296159172058105469e+01 -7.019474029541015625e+00 1.328106760978698730e+00 -6.992374062538146973e-01 1.886608004570007324e-01 -1.984726488590240479e-01
2.669000000000000000e+03 2.552939796447753906e+01 -6.640445232391357422e+00 2.510969161987304688e+00 -8.072250485420227051e-01 5.111232399940490723e-01 -1.018085703253746033e-01
2.670000000000000000e+03 2.301868438720703125e+01 -6.181740760803222656e+00 1.063397884368896484e+00 -6.927887797355651855e-01 1.111827269196510315e-01 -4.935522675514221191e-01
2.671000000000000000e+03 3.707760238647460938e+01 -1.524882030487060547e+01 -4.012059867382049561e-01 1.518401861190795898e+00 3.351587653160095215e-01 -6.774839162826538086e-01
2.672000000000000000e+03 3.462458419799804688e+01 -1.490334892272949219e+01 -6.850339770317077637e-01 1.531642198562622070e+00 2.539824545383453369e-01 -1.236030817031860352e+00
2.673000000000000000e+03 1.454703521728515625e+01 -9.696926116943359375e+00 2.650662958621978760e-01 -1.325625032186508179e-01 3.975113853812217712e-02 2.283250540494918823e-01
2.674000000000000000e+03 8.892900466918945312e+00 -6.447492122650146484e+00 -4.552495107054710388e-02 8.954222500324249268e-02 1.320518180727958679e-02 -2.077950397506356239e-03
2.675000000000000000e+03 8.127987861633300781e+00 -6.388437271118164062e+00 -5.174582451581954956e-02 8.668186515569686890e-02 1.048081275075674057e-02 -2.228625863790512085e-02
2.676000000000000000e+03 3.531591415405273438e+01 -1.449817657470703125e+01 -5.679706335067749023e-01 1.576525807380676270e+00 3.025665581226348877e-01 -1.111802577972412109e+00
2.677000000000000000e+03 2.628801155090332031e+01 -6.534075260162353516e+00 3.132804632186889648e+00 -6.554660797119140625e-01 7.432015538215637207e-01 6.584063917398452759e-02
2.678000000000000000e+03 1.632055282592773438e+01 -7.318870067596435547e+00 2.832508683204650879e-01 -2.403583377599716187e-01 1.286775805056095123e-02 5.564871802926063538e-02
2.679000000000000000e+03 1.615066719055175781e+01 -6.756371974945068359e+00 2.138851135969161987e-01 -1.999477148056030273e-01 4.181221593171358109e-03 2.026867121458053589e-02
2.680000000000000000e+03 2.096692276000976562e+01 -8.897303581237792969e+00 9.220017790794372559e-01 -5.415291190147399902e-01 1.141417920589447021e-01 2.088162600994110107e-01
2.681000000000000000e+03 1.380005359649658203e+01 -7.904761791229248047e+00 1.482192426919937134e-01 -7.158050686120986938e-02 2.299161814153194427e-02 1.172972694039344788e-01
2.682000000000000000e+03 1.551947689056396484e+01 -7.517755985260009766e+00 2.361594438552856445e-01 -1.870397180318832397e-01 1.473591849207878113e-02 8.393771201372146606e-02
2.683000000000000000e+03 9.370483398437500000e+00 -7.579169273376464844e+00 -1.567922718822956085e-02 1.146981939673423767e-01 2.970569021999835968e-02 3.399297222495079041e-02
2.684000000000000000e+03 1.465613842010498047e+01 -7.667833805084228516e+00 1.911384165287017822e-01 -1.273530274629592896e-01 1.913561858236789703e-02 1.067916750907897949e-01
2.685000000000000000e+03 1.681125450134277344e+01 -6.875658988952636719e+00 2.813026905059814453e-01 -2.684174180030822754e-01 3.865585895255208015e-03 1.199259608983993530e-02
2.686000000000000000e+03 9.870635032653808594e+00 6.902546405792236328e+00 -2.107858381350524724e-05 -1.150205480371369049e-05 -9.774191312317270786e-06 -4.840307610720628873e-06
2.687000000000000000e+03 1.176897335052490234e+01 6.320767879486083984e+00 1.879155934148002416e-05 9.637738912715576589e-06 8.528789294359739870e-06 1.005226658890023828e-05
2.688000000000000000e+03 1.154564762115478516e+01 8.788943290710449219e+00 6.326378297671908513e-06 3.245946936658583581e-05 1.163575416285311803e-05 1.189310478366678581e-05
2.689000000000000000e+03 8.750364303588867188e+00 6.665024757385253906e+00 -1.823201273509766906e-05 -1.671084100962616503e-05 -1.048285594151820987e-05 -2.287701136083342135e-06
2.690000000000000000e+03 2.701235389709472656e+01 -1.150310802459716797e+01 6.339114308357238770e-01 9.845026135444641113e-01 4.855242073535919189e-01 9.756183624267578125e-01
2.691000000000000000e+03 2.204520606994628906e+01 -7.126634120941162109e+00 1.033118486404418945e+00 -6.523816585540771484e-01 1.142210587859153748e-01 -1.635773479938507080e-01
2.692000000000000000e+03 2.195115852355957031e+01 -7.966683387756347656e+00 1.134944081306457520e+00 -6.196196675300598145e-01 1.545973271131515503e-01 5.550423637032508850e-02
2.693000000000000000e+03 3.159271621704101562e+01 -1.388592433929443359e+01 -5.642564296722412109e-01 1.202782273292541504e+00 1.915577352046966553e-01 -9.206444025039672852e-01
2.694000000000000000e+03 2.112382125854492188e+01 -7.214221477508544922e+00 8.507868647575378418e-01 -5.613372921943664551e-01 8.683486282825469971e-02 -1.175680533051490784e-01
2.695000000000000000e+03 2.023026847839355469e+01 -7.240794181823730469e+00 6.849663257598876953e-01 -5.230310559272766113e-01 4.858057573437690735e-02 -8.578024804592132568e-02
2.696000000000000000e+03 1.830922317504882812e+01 -7.882211208343505859e+00 4.933041930198669434e-01 -3.845550119876861572e-01 3.262475505471229553e-02 5.252569913864135742e-02
2.697000000000000000e+03 1.644272613525390625e+01 -1.063782691955566406e+01 3.886334300041198730e-01 -2.683255970478057861e-01 3.609234467148780823e-02 2.926401793956756592e-01
2.698000000000000000e+03 2.001264953613281250e+01 -8.130836486816406250e+00 7.439866065979003906e-01 -5.022554397583007812e-01 7.251935452222824097e-02 6.742385029792785645e-02
2.699000000000000000e+03 3.208449172973632812e+01 -1.315208911895751953e+01 -3.379752635955810547e-01 1.473812460899353027e+00 3.407511711120605469e-01 -1.082511901855468750e+00
2.700000000000000000e+03 1.160170936584472656e+01 7.544878959655761719e+00 5.389277703216066584e-06 2.781426701403688639e-05 9.961063369701150805e-06 1.475570479669841006e-05
2.701000000000000000e+03 1.210027122497558594e+01 8.071841239929199219e+00 -4.616322712536202744e-06 -3.056249624933116138e-05 -1.055364646163070574e-05 -1.628862810321152210e-05
2.702000000000000000e+03 2.967587471008300781e+01 -1.322000598907470703e+01 -3.284921050071716309e-01 1.224654793739318848e+00 2.688488066196441650e-01 -1.009719446301460266e-01
2.703000000000000000e+03 6.973145294189453125e+01 -3.514953374862670898e+00 -1.168871298432350159e-01 3.706846619024872780e-04 -3.495493531227111816e-02 -2.814504876732826233e-02
2.704000000000000000e+03 9.328024864196777344e+00 2.276286315917968750e+01 9.473141835769638419e-05 -2.614104050735477358e-05 2.057711390079930425e-05 3.314559216960333288e-05
2.705000000000000000e+03 1.928627967834472656e+01 -1.117232894897460938e+01 5.496612787246704102e-01 -3.826995790004730225e-01 5.008852109313011169e-02 4.100276231765747070e-01
2.706000000000000000e+03 2.114239692687988281e+01 -1.169748210906982422e+01 6.135861873626708984e-01 -3.413921296596527100e-01 8.165821433067321777e-02 5.825827717781066895e-01
2.707000000000000000e+03 7.020822143554687500e+01 -7.147559165954589844e+00 -1.553918886929750443e-02 -1.139568444341421127e-02 -8.080461993813514709e-03 -3.980036854045465589e-05
2.708000000000000000e+03 7.221655273437500000e+01 -6.471008300781250000e+00 -3.034091927111148834e-02 -1.586986891925334930e-02 -1.386323664337396622e-02 -2.445651916787028313e-03
2.709000000000000000e+03 1.139422893524169922e+01 -1.104959583282470703e+01 1.222392320632934570e-01 1.614983826875686646e-01 8.512128144502639771e-02 2.370697855949401855e-01
2.710000000000000000e+03 7.173101043701171875e+01 4.827378273010253906e+00 -1.174582317471504211e-01 -1.092230081558227539e-01 -6.800436973571777344e-02 -2.529239654541015625e-01
2.711000000000000000e+03 6.831468200683593750e+01 2.084766387939453125e+00 -2.601554095745086670e-01 9.720621630549430847e-03 -7.513043284416198730e-02 -2.284364849328994751e-01
2.712000000000000000e+03 4.915050125122070312e+01 1.161601829528808594e+01 1.176934480667114258e+00 2.861843407154083252e-01 4.389356374740600586e-01 2.449367493391036987e-01
2.713000000000000000e+03 5.000724029541015625e+01 1.740242958068847656e+01 8.067361712455749512e-01 1.032359242439270020e+00 5.517286658287048340e-01 4.084973037242889404e-01
2.714000000000000000e+03 1.789596366882324219e+01 -1.166330623626708984e+01 4.230051934719085693e-01 -3.192116320133209229e-01 3.113807179033756256e-02 3.793632984161376953e-01
2.715000000000000000e+03 1.415440559387207031e+01 -1.107876110076904297e+01 2.740193009376525879e-01 -9.187052398920059204e-02 5.464463680982589722e-02 2.985327243804931641e-01
2.716000000000000000e+03 1.249846458435058594e+01 -9.238303184509277344e+00 1.387814432382583618e-01 1.841862499713897705e-02 4.716001823544502258e-02 1.773264408111572266e-01
2.717000000000000000e+03 6.834190368652343750e+01 -7.933652997016906738e-01 -2.414747774600982666e-01 3.579259291291236877e-02 -6.170465424656867981e-02 -1.013813167810440063e-01
2.718000000000000000e+03 2.577721405029296875e+01 -1.300596141815185547e+01 1.293097436428070068e-01 3.930939137935638428e-01 1.567210853099822998e-01 8.464926481246948242e-01
2.719000000000000000e+03 2.659636497497558594e+01 -1.267267608642578125e+01 2.096257954835891724e-01 6.489452123641967773e-01 2.575713098049163818e-01 8.656056523323059082e-01
2.720000000000000000e+03 7.407135772705078125e+01 -5.746982097625732422e+00 -2.508879452943801880e-02 -1.362833380699157715e-02 -1.161513850092887878e-02 -5.134282168000936508e-03
2.721000000000000000e+03 6.924947261810302734e+00 8.155220031738281250e+00 8.772854926064610481e-06 9.835014679993037134e-06 5.582360699918353930e-06 -4.743483259517233819e-06
2.722000000000000000e+03 6.972611999511718750e+01 -7.022419571876525879e-01 -1.814719289541244507e-01 2.430217806249856949e-03 -5.371250957250595093e-02 -1.036703065037727356e-01
2.723000000000000000e+03 8.330924034118652344e+00 -1.161621856689453125e+01 2.654932253062725067e-02 3.501304388046264648e-01 1.130039319396018982e-01 1.040057316422462463e-01
2.724000000000000000e+03 7.311222839355468750e+01 -2.082686805725097656e+01 3.845400933641940355e-04 -1.118368600145913661e-04 8.181096927728503942e-05 1.471025752834975719e-04
2.725000000000000000e+03 7.012162017822265625e+01 1.959235572814941406e+01 1.153113991022109985e-01 -3.988656699657440186e-01 -8.506628125905990601e-02 -2.607332766056060791e-01
2.726000000000000000e+03 7.136420440673828125e+01 1.633605957031250000e+01 6.915916502475738525e-02 -3.965628743171691895e-01 -9.822111576795578003e-02 -3.049339950084686279e-01
2.727000000000000000e+03 7.021201324462890625e+01 1.105449581146240234e+01 -1.399615034461021423e-02 -2.468340843915939331e-01 -7.824907451868057251e-02 -3.740758299827575684e-01
2.728000000000000000e+03 7.168463134765625000e+01 8.788587570190429688e+00 -5.582349002361297607e-02 -2.103579193353652954e-01 -7.985442876815795898e-02 -3.220938146114349365e-01
2.729000000000000000e+03 9.869251251220703125e+00 -9.250646591186523438e+00 1.364527922123670578e-02 1.596708744764328003e-01 5.199484899640083313e-02 9.172211587429046631e-02
2.730000000000000000e+03 7.144242858886718750e+01 2.266711711883544922e+00 -1.408726722002029419e-01 -5.614686012268066406e-02 -5.910586193203926086e-02 -1.861430108547210693e-01
2.731000000000000000e+03 6.702575683593750000e+00 -8.008591651916503906e+00 -5.477770045399665833e-02 1.256461292505264282e-01 2.126052975654602051e-02 -5.241250991821289062e-02
2.732000000000000000e+03 6.978874206542968750e+01 1.227513694763183594e+01 1.190522778779268265e-02 -2.612100839614868164e-01 -7.479146122932434082e-02 -3.820435106754302979e-01
2.733000000000000000e+03 1.019386196136474609e+01 1.404948329925537109e+01 -3.189363997080363333e-05 -1.804954808903858066e-05 -1.498295659985160455e-05 -1.741911728458944708e-05
2.734000000000000000e+03 7.164786815643310547e+00 1.041081523895263672e+01 6.645212579314829782e-06 -7.717231369497312699e-07 1.762046849762555212e-06 8.049037205637432635e-06
2.735000000000000000e+03 2.850614166259765625e+01 -1.292945194244384766e+01 -1.433169692754745483e-01 1.094467520713806152e+00 2.853451669216156006e-01 3.566008508205413818e-01
2.736000000000000000e+03 7.281760692596435547e+00 1.155269718170166016e+01 1.197696747112786397e-06 -1.786543725756928325e-05 -5.000321834813803434e-06 -2.096171328958007507e-06
2.737000000000000000e+03 2.377062416076660156e+01 -1.294864559173583984e+01 3.553987443447113037e-01 -7.082779426127672195e-03 1.044947877526283264e-01 8.320883512496948242e-01
2.738000000000000000e+03 2.414150810241699219e+01 -1.133406352996826172e+01 8.514685630798339844e-01 -3.991831094026565552e-02 2.434650659561157227e-01 8.858950138092041016e-01
2.739000000000000000e+03 6.831746578216552734e+00 2.134761619567871094e+01 -4.005698792752809823e-05 6.043250323273241520e-06 -1.020412128127645701e-05 -3.686661148094572127e-05
2.740000000000000000e+03 7.145390033721923828e+00 -9.480954170227050781e+00 -4.774142056703567505e-02 1.927263438701629639e-01 4.349547997117042542e-02 -2.401271648705005646e-02
2.741000000000000000e+03 8.603946685791015625e+00 -9.386950492858886719e+00 -2.301343716681003571e-02 1.947378367185592651e-01 5.151732265949249268e-02 4.348355531692504883e-02
2.742000000000000000e+03 7.308797454833984375e+01 -2.865008592605590820e+00 -6.546025723218917847e-02 -2.487722225487232208e-02 -2.710124477744102478e-02 -4.242474958300590515e-02
2.743000000000000000e+03 8.780836105346679688e+00 -1.067216873168945312e+01 2.890585688874125481e-03 2.638307213783264160e-01 8.001638948917388916e-02 8.626662939786911011e-02
2.744000000000000000e+03 8.986475944519042969e+00 1.723387527465820312e+01 5.606340346275828779e-05 -3.772594573092646897e-05 5.501236955751664937e-06 -9.067179576049966272e-07
2.745000000000000000e+03 8.058505058288574219e+00 1.584019756317138672e+01 5.037055598222650588e-05 1.125197377405129373e-05 1.848675856308545917e-05 3.937030669476371258e-06
2.746000000000000000e+03 6.963549041748046875e+01 -2.196886062622070312e+00 -1.511672288179397583e-01 1.032456289976835251e-02 -4.225280135869979858e-02 -5.705327913165092468e-02
2.747000000000000000e+03 7.001993560791015625e+01 -4.650905609130859375e+00 -8.048834651708602905e-02 -4.832406993955373764e-03 -2.559622749686241150e-02 -1.088305748999118805e-02
2.748000000000000000e+03 6.874980449676513672e+00 2.279349899291992188e+01 5.526038512471131980e-05 7.669706064916681498e-06 1.887902726593893021e-05 3.883071622112765908e-05
2.749000000000000000e+03 7.085838317871093750e+01 -4.394926548004150391e+00 -7.671990245580673218e-02 -9.872631169855594635e-03 -2.597776055335998535e-02 -1.836242154240608215e-02
2.750000000000000000e+03 8.584433555603027344e+00 1.469679069519042969e+01 -5.936520392424426973e-05 -1.237420474353712052e-05 -2.152182241843547672e-05 -2.431653228995855898e-06
2.751000000000000000e+03 9.780950546264648438e+00 7.987189292907714844e+00 -1.805196734494529665e-05 -1.762412466632667929e-05 -1.070282814907841384e-05 8.468716714560287073e-07
2.752000000000000000e+03 6.187607192993164062e+01 5.566509723663330078e+00 -4.025906920433044434e-01 1.314542070031166077e-02 -1.168335750699043274e-01 -5.099144577980041504e-01
2.753000000000000000e+03 1.126518344879150391e+01 3.252005767822265625e+01 -1.325665944023057818e-04 -1.504215761087834835e-04 -8.489644824294373393e-05 -2.056011435342952609e-04
2.754000000000000000e+03 1.806814002990722656e+01 -8.625488281250000000e+00 4.977523088455200195e-01 -3.865782022476196289e-01 3.335223346948623657e-02 1.320383995771408081e-01
2.755000000000000000e+03 5.093652343750000000e+01 8.042784690856933594e+00 3.521966338157653809e-01 -4.504508674144744873e-01 -2.947627007961273193e-02 -6.991159915924072266e-01
2.756000000000000000e+03 4.789444351196289062e+01 7.291473865509033203e+00 8.251650929450988770e-01 -6.709971427917480469e-01 4.625038057565689087e-02 -3.656952381134033203e-01
2.757000000000000000e+03 9.121141433715820312e+00 1.842566299438476562e+01 -4.610726318787783384e-05 3.669157013064250350e-05 -2.824707962645334192e-06 -1.756723577273078263e-05
2.758000000000000000e+03 7.048734283447265625e+01 4.855381011962890625e+00 -1.520823091268539429e-01 -8.281863480806350708e-02 -7.047028094530105591e-02 -2.822209596633911133e-01
2.759000000000000000e+03 9.855204582214355469e+00 1.118921375274658203e+01 2.038690399785991758e-05 1.404794238624162972e-05 1.033045373333152384e-05 1.035522745951311663e-05
2.760000000000000000e+03 4.795984268188476562e+01 1.139282321929931641e+01 1.349788546562194824e+00 5.437686443328857422e-01 5.680671930313110352e-01 5.408132672309875488e-01
2.761000000000000000e+03 6.861760711669921875e+01 2.690006446838378906e+01 1.291155964136123657e-01 -3.336790204048156738e-01 -6.136903166770935059e-02 -1.016744449734687805e-01
2.762000000000000000e+03 5.744265365600585938e+01 9.455423355102539062e+00 3.195806592702865601e-02 -8.663047850131988525e-02 -1.640172488987445831e-02 -6.282729506492614746e-01
2.763000000000000000e+03 9.217493057250976562e+00 1.980089187622070312e+01 5.117255932418629527e-05 -1.887148573587182909e-05 9.690322258393280208e-06 2.224018135166261345e-05
2.764000000000000000e+03 5.338851547241210938e+01 7.978160381317138672e+00 -5.828202143311500549e-02 -1.840559095144271851e-01 -7.270137965679168701e-02 -7.605888843536376953e-01
2.765000000000000000e+03 9.600940704345703125e+00 -1.103416538238525391e+01 5.006881058216094971e-02 2.754462063312530518e-01 9.765449911355972290e-02 1.613595187664031982e-01
2.766000000000000000e+03 1.059921741485595703e+01 -9.746590614318847656e+00 5.927840992808341980e-02 1.578308641910552979e-01 6.513278186321258545e-02 1.530830711126327515e-01
2.767000000000000000e+03 7.046326446533203125e+01 2.132239532470703125e+01 1.163079738616943359e-01 -4.257778227329254150e-01 -9.284096211194992065e-02 -2.187588065862655640e-01
2.768000000000000000e+03 4.437088775634765625e+01 -2.887033271789550781e+01 1.108897179365158081e-01 5.042961239814758301e-01 1.845557540655136108e-01 -3.174715340137481689e-01
2.769000000000000000e+03 7.084749603271484375e+01 2.272834396362304688e+01 1.106739565730094910e-01 -4.524298906326293945e-01 -1.025267839431762695e-01 -1.906127929687500000e-01
2.770000000000000000e+03 8.720335960388183594e+00 1.092385578155517578e+01 -2.070745176752097905e-05 -3.080452734138816595e-05 -1.545359373267274350e-05 -1.492526371293934062e-05
2.771000000000000000e+03 5.523590087890625000e+01 9.649221420288085938e+00 1.760850548744201660e-01 -1.206218227744102478e-01 1.663897186517715454e-02 -6.263335347175598145e-01
2.772000000000000000e+03 6.186943054199218750e+01 6.776947498321533203e+00 -3.185551762580871582e-01 -2.351625822484493256e-02 -1.026214286684989929e-01 -5.580001473426818848e-01
2.773000000000000000e+03 6.981988525390625000e+01 1.783788490295410156e+01 1.177569702267646790e-01 -3.638924956321716309e-01 -7.384066283702850342e-02 -3.006587922573089600e-01
2.774000000000000000e+03 5.882405471801757812e+01 5.868754863739013672e+00 -4.793199896812438965e-01 3.248678985983133316e-04 -1.436985284090042114e-01 -6.062362790107727051e-01
2.775000000000000000e+03 5.815963745117187500e+01 8.129753112792968750e+00 -1.767759174108505249e-01 -7.404179871082305908e-02 -7.524531334638595581e-02 -6.542039513587951660e-01
2.776000000000000000e+03 6.908290863037109375e+01 1.056088352203369141e+01 -3.022554330527782440e-02 -2.027266472578048706e-01 -6.988565623760223389e-02 -4.045462012290954590e-01
2.777000000000000000e+03 4.359893417358398438e+01 -3.333337783813476562e+01 -7.623339444398880005e-02 6.527789235115051270e-01 1.729636639356613159e-01 -2.614603936672210693e-01
2.778000000000000000e+03 4.562941360473632812e+01 -3.149374389648437500e+01 1.358557026833295822e-02 4.632182717323303223e-01 1.430411487817764282e-01 -2.553760111331939697e-01
2.779000000000000000e+03 5.197506332397460938e+01 1.778396415710449219e+01 7.621631622314453125e-01 6.698122620582580566e-01 4.295926094055175781e-01 2.169550061225891113e-01
2.780000000000000000e+03 4.924676895141601562e+01 1.032734489440917969e+01 1.134076595306396484e+00 3.246947424486279488e-03 3.411970436573028564e-01 6.544646620750427246e-02
2.781000000000000000e+03 4.053183364868164062e+01 -3.468286132812500000e+01 -2.169389575719833374e-01 8.404341936111450195e-01 1.870485693216323853e-01 -1.641292273998260498e-01
2.782000000000000000e+03 4.302611541748046875e+01 -3.564471817016601562e+01 -1.729344129562377930e-01 6.999294757843017578e-01 1.580985188484191895e-01 -1.778927594423294067e-01
2.783000000000000000e+03 8.052163124084472656e+00 2.130141639709472656e+01 6.842775474069640040e-05 -1.001537111733341590e-05 1.752371645125094801e-05 3.610826388467103243e-05
2.784000000000000000e+03 6.502821350097656250e+01 2.064490795135498047e+00 -4.242281019687652588e-01 5.481171235442161560e-02 -1.108249202370643616e-01 -2.864301204681396484e-01
2.785000000000000000e+03 7.010285949707031250e+01 2.567512512207031250e+01 1.142308786511421204e-01 -4.232593774795532227e-01 -9.270854294300079346e-02 -1.261431872844696045e-01
2.786000000000000000e+03 5.096007156372070312e+01 2.278388977050781250e+01 4.962767958641052246e-01 1.155406832695007324e+00 4.955050945281982422e-01 2.519740760326385498e-01
2.787000000000000000e+03 5.148254013061523438e+01 2.804792594909667969e+01 3.051626682281494141e-01 1.148212432861328125e+00 4.360125064849853516e-01 2.060308754444122314e-01
2.788000000000000000e+03 3.054287528991699219e+01 -9.035057067871093750e+00 7.820869684219360352e-01 4.249623298645019531e+00 1.509513020515441895e+00 -2.294554114341735840e-01
2.789000000000000000e+03 3.082125854492187500e+01 -9.602658271789550781e+00 5.360052585601806641e-01 3.513436794281005859e+00 1.214832544326782227e+00 -6.479644775390625000e-01
2.790000000000000000e+03 3.089827919006347656e+01 -1.331295871734619141e+01 -3.889740705490112305e-01 1.293195962905883789e+00 2.712665498256683350e-01 -6.672657132148742676e-01
2.791000000000000000e+03 3.262953186035156250e+01 -1.000591278076171875e+01 7.039086818695068359e-01 2.111453056335449219e+00 8.446084856986999512e-01 -1.507488131523132324e+00
2.792000000000000000e+03 3.336467742919921875e+01 -1.393634796142578125e+01 -5.334517359733581543e-01 1.385114908218383789e+00 2.554989457130432129e-01 -1.276028394699096680e+00
2.793000000000000000e+03 2.948526000976562500e+01 -8.971666336059570312e+00 1.166297912597656250e+00 3.620212078094482422e+00 1.435953021049499512e+00 8.587557673454284668e-01
2.794000000000000000e+03 2.804044342041015625e+01 -8.956277847290039062e+00 1.935794472694396973e+00 1.898429632186889648e+00 1.150267243385314941e+00 1.490884184837341309e+00
2.795000000000000000e+03 8.067079544067382812e+00 7.515868186950683594e+00 4.015837839688174427e-05 4.351645202405052260e-06 1.335300748905865476e-05 -5.848426553711760789e-06
2.796000000000000000e+03 3.358611679077148438e+01 -1.151492214202880859e+01 2.190386503934860229e-01 1.526736974716186523e+00 5.237326622009277344e-01 -1.410937190055847168e+00
2.797000000000000000e+03 3.298840713500976562e+01 -1.083149433135986328e+01 4.257964789867401123e-01 1.788353681564331055e+00 6.642450690269470215e-01 -1.424578428268432617e+00
2.798000000000000000e+03 1.260293483734130859e+01 -7.456818103790283203e+00 7.404485344886779785e-02 -7.341254968196153641e-03 2.001107856631278992e-02 9.016892313957214355e-02
2.799000000000000000e+03 3.599948501586914062e+01 -1.457318878173828125e+01 -4.803090393543243408e-01 1.581471323966979980e+00 3.303487002849578857e-01 -1.020022273063659668e+00
2.800000000000000000e+03 3.514683151245117188e+01 -1.384610652923583984e+01 -4.070692956447601318e-01 1.467700004577636719e+00 3.181892335414886475e-01 -1.211638689041137695e+00
2.801000000000000000e+03 2.695539093017578125e+01 -7.093473434448242188e+00 3.411669492721557617e+00 7.986491918563842773e-02 1.047460317611694336e+00 8.415620923042297363e-01
2.802000000000000000e+03 3.426020812988281250e+01 -1.290889644622802734e+01 -1.905683577060699463e-01 1.402558565139770508e+00 3.635970652103424072e-01 -1.312272787094116211e+00
2.803000000000000000e+03 2.728574752807617188e+01 -8.644542694091796875e+00 2.295564651489257812e+00 9.569088220596313477e-01 9.757420420646667480e-01 1.347558975219726562e+00
2.804000000000000000e+03 2.554267501831054688e+01 -7.468969821929931641e+00 2.517311573028564453e+00 -5.247197151184082031e-01 5.977776050567626953e-01 4.055151641368865967e-01
2.805000000000000000e+03 2.629339218139648438e+01 -7.259776115417480469e+00 2.926795005798339844e+00 -3.210148811340332031e-01 7.817340493202209473e-01 6.151080131530761719e-01
2.806000000000000000e+03 2.096870994567871094e+01 -8.103004455566406250e+00 8.950606584548950195e-01 -5.821911096572875977e-01 9.386086463928222656e-02 6.110682711005210876e-02
2.807000000000000000e+03 2.472065353393554688e+01 -6.770340919494628906e+00 2.090947151184082031e+00 -8.131526112556457520e-01 3.833383321762084961e-01 -1.844863444566726685e-01
2.808000000000000000e+03 1.040193080902099609e+01 7.534250259399414062e+00 1.648013312660623342e-05 1.731860902509652078e-05 1.013962264551082626e-05 5.704379418602911755e-06
2.809000000000000000e+03 1.082475090026855469e+01 9.578383445739746094e+00 -6.732105703122215346e-06 -3.279289012425579131e-05 -1.185749897558707744e-05 -4.525806616584304720e-06
2.810000000000000000e+03 8.768186569213867188e+00 -7.158448219299316406e+00 -3.640732914209365845e-02 1.022556126117706299e-01 1.975448615849018097e-02 7.054471410810947418e-03
2.811000000000000000e+03 1.881422233581542969e+01 -8.842313766479492188e+00 5.962051749229431152e-01 -4.294125735759735107e-01 5.003778636455535889e-02 1.574272066354751587e-01
2.812000000000000000e+03 1.710661697387695312e+01 -9.997174263000488281e+00 4.343011677265167236e-01 -3.164730072021484375e-01 3.534844890236854553e-02 2.560920417308807373e-01
2.813000000000000000e+03 1.303181743621826172e+01 -8.202730178833007812e+00 1.316116750240325928e-01 -2.395621687173843384e-02 3.229663521051406860e-02 1.356026381254196167e-01
2.814000000000000000e+03 1.608267593383789062e+01 -8.886483192443847656e+00 3.367273807525634766e-01 -2.433004379272460938e-01 2.802808210253715515e-02 1.676100939512252808e-01
2.815000000000000000e+03 2.170933723449707031e+01 -9.669199943542480469e+00 1.017052412033081055e+00 -5.141959190368652344e-01 1.508569568395614624e-01 4.012953341007232666e-01
2.816000000000000000e+03 2.915041351318359375e+01 -1.254250812530517578e+01 -1.016675978899002075e-01 1.397036790847778320e+00 3.886107802391052246e-01 1.596575677394866943e-01
2.817000000000000000e+03 1.165394306182861328e+01 -9.195089340209960938e+00 8.724381774663925171e-02 8.003395795822143555e-02 5.018333345651626587e-02 1.582347899675369263e-01
2.818000000000000000e+03 1.151821422576904297e+01 -1.007999134063720703e+01 1.138133481144905090e-01 1.107325181365013123e-01 6.736376136541366577e-02 1.940700858831405640e-01
2.819000000000000000e+03 7.107658386230468750e+01 -8.644098043441772461e-01 -1.376669555902481079e-01 -9.169275872409343719e-03 -4.405086860060691833e-02 -9.422329813241958618e-02
2.820000000000000000e+03 7.087060546875000000e+01 -2.243787050247192383e+00 -1.221851184964179993e-01 -8.383395150303840637e-03 -3.917055204510688782e-02 -5.766867101192474365e-02
2.821000000000000000e+03 3.259551239013671875e+01 -1.251921463012695312e+01 -1.584089845418930054e-01 1.607418656349182129e+00 4.347029030323028564e-01 -1.217556953430175781e+00
2.822000000000000000e+03 7.902970314025878906e+00 1.717742538452148438e+01 -5.873369809705764055e-05 2.099618359352461994e-05 -1.132125453295884654e-05 -7.783553883200511336e-06
2.823000000000000000e+03 7.822420120239257812e+00 8.292334556579589844e+00 -2.104066516039893031e-05 -2.655868456713506021e-06 -7.108960289770038798e-06 -5.166646133147878572e-07
2.824000000000000000e+03 7.549673557281494141e+00 -7.978047847747802734e+00 -4.919966682791709900e-02 1.334909647703170776e-01 2.528738975524902344e-02 -2.516585029661655426e-02
2.825000000000000000e+03 9.320786476135253906e+00 -9.899663925170898438e+00 1.872461102902889252e-02 2.053557634353637695e-01 6.722411513328552246e-02 9.625194966793060303e-02
2.826000000000000000e+03 1.850086212158203125e+01 -1.082749080657958984e+01 5.099801421165466309e-01 -3.732271492481231689e-01 4.102589935064315796e-02 3.497429788112640381e-01
2.827000000000000000e+03 2.056902122497558594e+01 -1.050346565246582031e+01 7.523528337478637695e-01 -4.478483498096466064e-01 9.135133773088455200e-02 4.290814399719238281e-01
2.828000000000000000e+03 6.606799316406250000e+01 3.428633213043212891e+00 -3.362164199352264404e-01 1.441372931003570557e-02 -9.654080122709274292e-02 -3.311845064163208008e-01
2.829000000000000000e+03 3.144489288330078125e+01 -1.267827129364013672e+01 -2.527344226837158203e-01 1.607492804527282715e+00 4.064275026321411133e-01 -8.778967261314392090e-01
2.830000000000000000e+03 2.458248710632324219e+01 -1.259736919403076172e+01 3.771712779998779297e-01 1.064254492521286011e-01 1.450790166854858398e-01 8.636384606361389160e-01
2.831000000000000000e+03 2.537106895446777344e+01 -1.216609096527099609e+01 5.530437231063842773e-01 2.985101044178009033e-01 2.554661333560943604e-01 9.547306299209594727e-01
2.832000000000000000e+03 5.432902526855468750e+01 8.690500259399414062e+00 5.788489431142807007e-02 -1.731692254543304443e-01 -3.458529710769653320e-02 -6.676965355873107910e-01
2.833000000000000000e+03 1.026640701293945312e+01 8.726393699645996094e+00 8.574922503612469882e-06 2.422114994260482490e-05 9.838821824814658612e-06 -1.923903710121521726e-06
2.834000000000000000e+03 1.364506912231445312e+01 -1.007989406585693359e+01 2.261502593755722046e-01 -4.601000249385833740e-02 5.404207855463027954e-02 2.516865134239196777e-01
2.835000000000000000e+03 5.025657272338867188e+01 1.527942180633544922e+01 9.505106806755065918e-01 7.058827280998229980e-01 4.969180226325988770e-01 3.380961418151855469e-01
2.836000000000000000e+03 6.875655364990234375e+01 1.165262031555175781e+01 6.416364572942256927e-03 -2.270829975605010986e-01 -6.619998812675476074e-02 -4.114039838314056396e-01
2.837000000000000000e+03 7.243315124511718750e+01 -5.065692901611328125e+00 -4.789134487509727478e-02 -1.726717315614223480e-02 -1.954755559563636780e-02 -1.221095770597457886e-02
2.838000000000000000e+03 2.242472457885742188e+01 -1.273583889007568359e+01 3.989323377609252930e-01 -1.697831600904464722e-01 6.874475628137588501e-02 7.352385520935058594e-01
2.839000000000000000e+03 2.341646766662597656e+01 -1.226483821868896484e+01 5.166400671005249023e-01 -7.288361340761184692e-02 1.331269294023513794e-01 8.303557038307189941e-01
2.840000000000000000e+03 2.357799148559570312e+01 -9.612615585327148438e+00 1.381190061569213867e+00 -4.186767935752868652e-01 2.887539863586425781e-01 6.183969974517822266e-01
2.841000000000000000e+03 2.223599243164062500e+01 -1.168000984191894531e+01 6.517999768257141113e-01 -2.814601957798004150e-01 1.111019328236579895e-01 6.889393329620361328e-01
2.842000000000000000e+03 2.618912315368652344e+01 -1.179755878448486328e+01 5.942166447639465332e-01 5.377806425094604492e-01 3.395991921424865723e-01 9.617747068405151367e-01
2.843000000000000000e+03 1.584077453613281250e+01 -1.000539493560791016e+01 3.482400476932525635e-01 -2.301310002803802490e-01 3.543271496891975403e-02 2.474346011877059937e-01
2.844000000000000000e+03 2.740229225158691406e+01 -1.236172676086425781e+01 2.063309848308563232e-01 9.359536767005920410e-01 3.426854014396667480e-01 7.298388481140136719e-01
2.845000000000000000e+03 1.713357162475585938e+01 -1.118617630004882812e+01 4.087866544723510742e-01 -2.976801991462707520e-01 3.333193808794021606e-02 3.340113759040832520e-01
2.846000000000000000e+03 1.061821079254150391e+01 -7.635211467742919922e+00 2.081295475363731384e-02 8.202472329139709473e-02 3.085130266845226288e-02 7.221963256597518921e-02
2.847000000000000000e+03 9.411679267883300781e+00 1.241663265228271484e+01 -2.309616684215143323e-05 -2.165451951441355050e-05 -1.342520590696949512e-05 -1.478502508689416572e-05
2.848000000000000000e+03 6.836325073242187500e+01 6.773628592491149902e-01 -2.559251487255096436e-01 1.763973757624626160e-02 -7.148562371730804443e-02 -1.678265929222106934e-01
2.849000000000000000e+03 6.833197784423828125e+01 1.982641410827636719e+01 1.624002307653427124e-01 -3.252871334552764893e-01 -4.886607080698013306e-02 -2.642460167407989502e-01
2.850000000000000000e+03 6.825799560546875000e+01 1.793391418457031250e+01 1.506046205759048462e-01 -3.114285767078399658e-01 -4.824718460440635681e-02 -3.167120218276977539e-01
2.851000000000000000e+03 2.871428108215332031e+01 -1.195332527160644531e+01 1.270137876272201538e-01 1.553328275680541992e+00 5.041025876998901367e-01 4.035535752773284912e-01
2.852000000000000000e+03 2.917400741577148438e+01 -1.150934028625488281e+01 1.620289385318756104e-01 1.865637898445129395e+00 6.083000898361206055e-01 2.688792347908020020e-01
2.853000000000000000e+03 7.167553710937500000e+01 7.498104095458984375e+00 -7.661055773496627808e-02 -1.813503354787826538e-01 -7.738826423883438110e-02 -3.083440065383911133e-01
2.854000000000000000e+03 6.931312561035156250e+01 4.781128406524658203e+00 -1.865974813699722290e-01 -6.555894017219543457e-02 -7.564692944288253784e-02 -3.098867237567901611e-01
2.855000000000000000e+03 6.906278991699218750e+01 1.349867057800292969e+01 5.575693771243095398e-02 -2.734584510326385498e-01 -6.531045585870742798e-02 -3.876865506172180176e-01
2.856000000000000000e+03 6.952815246582031250e+01 9.415994644165039062e+00 -5.628146603703498840e-02 -1.882436722517013550e-01 -7.335754483938217163e-02 -3.864522576332092285e-01
2.857000000000000000e+03 7.050199890136718750e+01 9.909003257751464844e+00 -3.575561940670013428e-02 -2.246791869401931763e-01 -7.813043892383575439e-02 -3.637838363647460938e-01
2.858000000000000000e+03 7.948482990264892578e+00 -8.760667800903320312e+00 -3.232248872518539429e-02 1.685818433761596680e-01 4.087780788540840149e-02 7.462825742550194263e-04
2.859000000000000000e+03 1.674866867065429688e+01 -8.542727470397949219e+00 3.808098435401916504e-01 -2.944101691246032715e-01 2.591990306973457336e-02 1.370858550071716309e-01
2.860000000000000000e+03 5.101822662353515625e+01 5.969884395599365234e+00 -5.887029767036437988e-01 -3.525101542472839355e-01 -2.823639512062072754e-01 -1.013719320297241211e+00
2.861000000000000000e+03 6.063484954833984375e+01 6.907442092895507812e+00 -3.159429132938385010e-01 -2.348009869456291199e-02 -1.018268987536430359e-01 -5.853839516639709473e-01
2.862000000000000000e+03 6.964200592041015625e+01 8.083704113960266113e-01 -2.054184526205062866e-01 1.095266896300017834e-03 -6.129695475101470947e-02 -1.579198092222213745e-01
2.863000000000000000e+03 7.048065185546875000e+01 2.372343301773071289e+00 -1.824461817741394043e-01 -3.121927008032798767e-02 -6.409963965415954590e-02 -2.057432681322097778e-01
2.864000000000000000e+03 4.792176437377929688e+01 5.849575996398925781e+00 1.515240818262100220e-01 -1.086411595344543457e+00 -2.804662585258483887e-01 -7.557780146598815918e-01
2.865000000000000000e+03 4.917269897460937500e+01 7.415286064147949219e+00 5.161763429641723633e-01 -6.361293792724609375e-01 -3.598590195178985596e-02 -5.886780023574829102e-01
2.866000000000000000e+03 1.001340198516845703e+01 3.033975791931152344e+01 -4.161323886364698410e-05 -1.653915533097460866e-04 -6.210143328644335270e-05 -1.981625100597739220e-04
2.867000000000000000e+03 9.856458663940429688e+00 1.004737949371337891e+01 -1.714080281089991331e-05 2.333185148017946631e-05 1.857314941844379064e-06 -6.744475058440002613e-07
2.868000000000000000e+03 8.870138168334960938e+00 1.008784866333007812e+01 3.026961894647683948e-05 -2.341205436096061021e-05 2.057269284705398604e-06 1.768024958437308669e-05
2.869000000000000000e+03 6.658210754394531250e+01 2.202456665039062500e+01 2.148970365524291992e-01 -2.404655516147613525e-01 -7.670555263757705688e-03 -2.089489847421646118e-01
2.870000000000000000e+03 6.874430084228515625e+01 2.324185752868652344e+01 1.566384881734848022e-01 -3.535751998424530029e-01 -5.908101052045822144e-02 -1.845842003822326660e-01
2.871000000000000000e+03 7.170836639404296875e+01 -5.774451255798339844e+00 -3.634005039930343628e-02 -1.233574561774730682e-02 -1.460273936390876770e-02 -6.898893509060144424e-03
2.872000000000000000e+03 7.201435852050781250e+01 -2.510826826095581055e+00 -9.220568090677261353e-02 -1.273379288613796234e-02 -3.148183971643447876e-02 -5.357448384165763855e-02
2.873000000000000000e+03 6.718620300292968750e+01 3.419215917587280273e+00 -2.880592346191406250e-01 6.507289130240678787e-03 -8.446558564901351929e-02 -3.072085678577423096e-01
2.874000000000000000e+03 6.485257720947265625e+01 3.295321702957153320e+00 -3.894710838794708252e-01 3.981431946158409119e-02 -1.048970296978950500e-01 -3.406616449356079102e-01
2.875000000000000000e+03 7.079374694824218750e+01 2.427988243103027344e+01 1.042273715138435364e-01 -4.748525619506835938e-01 -1.111875548958778381e-01 -1.599359512329101562e-01
2.876000000000000000e+03 8.068031311035156250e+00 1.023392677307128906e+01 -7.728371201665140688e-06 3.093806299148127437e-05 6.962908173591131344e-06 -1.736888589221052825e-05
2.877000000000000000e+03 7.862608432769775391e+00 9.252735137939453125e+00 1.153075572801753879e-05 -6.953178399271564558e-06 1.373273221361159813e-06 1.059352871379815042e-05
2.878000000000000000e+03 6.472032165527343750e+01 4.679738521575927734e+00 -3.487880527973175049e-01 4.197390284389257431e-03 -1.033771932125091553e-01 -4.130218029022216797e-01
2.879000000000000000e+03 6.321494293212890625e+01 5.760497093200683594e+00 -3.405436873435974121e-01 -1.034715399146080017e-02 -1.052672490477561951e-01 -4.895797073841094971e-01
2.880000000000000000e+03 9.072745323181152344e+00 2.760141181945800781e+01 1.961871166713535786e-04 -1.465859822928905487e-04 1.488034104113467038e-05 2.175732515752315521e-05
2.881000000000000000e+03 5.712288284301757812e+01 1.095154476165771484e+01 2.292950302362442017e-01 -1.128343790769577026e-01 3.493819758296012878e-02 -5.637209415435791016e-01
2.882000000000000000e+03 5.302756881713867188e+01 2.205579376220703125e+01 5.447837114334106445e-01 8.060228824615478516e-01 4.052419662475585938e-01 1.864690631628036499e-01
2.883000000000000000e+03 4.976261138916015625e+01 1.947827148437500000e+01 6.502339243888854980e-01 1.219861030578613281e+00 5.610284805297851562e-01 3.800373971462249756e-01
2.884000000000000000e+03 5.284383010864257812e+01 9.588998794555664062e+00 4.249981343746185303e-01 -2.014555633068084717e-01 6.706277281045913696e-02 -5.429349541664123535e-01
2.885000000000000000e+03 7.828085422515869141e+00 3.601928329467773438e+01 -5.087027966510504484e-05 4.000067419838160276e-04 1.047409386956132948e-04 -7.429214747389778495e-05
2.886000000000000000e+03 4.927540588378906250e+01 8.888040542602539062e+00 8.784337043762207031e-01 -3.446170985698699951e-01 1.601449847221374512e-01 -2.986219823360443115e-01
2.887000000000000000e+03 5.200709152221679688e+01 8.408798217773437500e+00 2.567255795001983643e-01 -2.800897657871246338e-01 -7.009258493781089783e-03 -6.875604987144470215e-01
2.888000000000000000e+03 5.487166595458984375e+01 7.800218582153320312e+00 -1.558191627264022827e-01 -1.217082962393760681e-01 -8.325824141502380371e-02 -7.314615845680236816e-01
2.889000000000000000e+03 5.057119750976562500e+01 1.065935707092285156e+01 9.249653816223144531e-01 -9.036006033420562744e-02 2.503815889358520508e-01 -1.811834275722503662e-01
2.890000000000000000e+03 3.089401817321777344e+01 -9.232548713684082031e+00 6.871923804283142090e-01 3.820346355438232422e+00 1.352261543273925781e+00 -7.782478332519531250e-01
2.891000000000000000e+03 2.873724937438964844e+01 -9.933128356933593750e+00 9.263687133789062500e-01 2.371363639831542969e+00 9.893197417259216309e-01 8.877922892570495605e-01
2.892000000000000000e+03 3.090488243103027344e+01 -1.006815147399902344e+01 4.290942847728729248e-01 3.047384738922119141e+00 1.042943716049194336e+00 -6.724475622177124023e-01
2.893000000000000000e+03 3.082766151428222656e+01 -1.114370536804199219e+01 1.239053308963775635e-01 2.380158424377441406e+00 7.512191534042358398e-01 -6.225938796997070312e-01
2.894000000000000000e+03 3.210074234008789062e+01 -1.022285461425781250e+01 5.343294739723205566e-01 2.393833160400390625e+00 8.784487843513488770e-01 -1.350591897964477539e+00
2.895000000000000000e+03 2.722387886047363281e+01 -8.130836486816406250e+00 2.830984354019165039e+00 7.677737474441528320e-01 1.079627394676208496e+00 1.347731709480285645e+00
2.896000000000000000e+03 3.371504211425781250e+01 -1.245632839202880859e+01 -8.382084965705871582e-02 1.466956734657287598e+00 4.149407744407653809e-01 -1.355633735656738281e+00
2.897000000000000000e+03 3.325588607788085938e+01 -1.118583202362060547e+01 3.171524107456207275e-01 1.648461461067199707e+00 5.896841287612915039e-01 -1.425438165664672852e+00
2.898000000000000000e+03 2.381198883056640625e+01 -7.770587444305419922e+00 1.731927275657653809e+00 -6.692314743995666504e-01 3.188087046146392822e-01 1.479672640562057495e-01
2.899000000000000000e+03 1.960580635070800781e+01 -9.064280509948730469e+00 6.935015916824340820e-01 -4.841866493225097656e-01 6.279447674751281738e-02 1.955676823854446411e-01
2.900000000000000000e+03 3.316077041625976562e+01 -1.199089050292968750e+01 4.352815821766853333e-02 1.602318525314331055e+00 4.937539994716644287e-01 -1.342566609382629395e+00
2.901000000000000000e+03 3.479701614379882812e+01 -1.332240104675292969e+01 -2.757723927497863770e-01 1.411241531372070312e+00 3.406407535076141357e-01 -1.279835700988769531e+00
2.902000000000000000e+03 3.319940185546875000e+01 -1.297684097290039062e+01 -2.549546957015991211e-01 1.470106124877929688e+00 3.645454347133636475e-01 -1.295718431472778320e+00
2.903000000000000000e+03 2.871849822998046875e+01 -9.129878044128417969e+00 1.447142004966735840e+00 2.719386816024780273e+00 1.249958634376525879e+00 1.220422387123107910e+00
2.904000000000000000e+03 2.674497413635253906e+01 -8.499559402465820312e+00 2.417602777481079102e+00 4.890576004981994629e-01 8.719981312751770020e-01 1.214705586433410645e+00
2.905000000000000000e+03 1.096152114868164062e+01 -8.341025352478027344e+00 4.042507335543632507e-02 8.241947740316390991e-02 3.685336560010910034e-02 1.038105264306068420e-01
2.906000000000000000e+03 2.823055648803710938e+01 -1.152995967864990234e+01 3.733400702476501465e-01 1.518425107002258301e+00 5.675295591354370117e-01 6.937526464462280273e-01
2.907000000000000000e+03 1.166508960723876953e+01 -8.393358230590820312e+00 7.179136574268341064e-02 5.140911042690277100e-02 3.696014359593391418e-02 1.187054589390754700e-01
2.908000000000000000e+03 1.334844970703125000e+01 -9.085757255554199219e+00 1.662967205047607422e-01 -3.328315541148185730e-02 3.990406915545463562e-02 1.772981137037277222e-01
2.909000000000000000e+03 2.145073890686035156e+01 -1.062425136566162109e+01 8.292694091796875000e-01 -4.338166713714599609e-01 1.186358183622360229e-01 5.204843878746032715e-01
2.910000000000000000e+03 1.777326393127441406e+01 -1.043682670593261719e+01 4.798215925693511963e-01 -3.477300703525543213e-01 3.962745517492294312e-02 3.022083640098571777e-01
2.911000000000000000e+03 3.028349876403808594e+01 -1.268850326538085938e+01 -2.287312000989913940e-01 1.501023173332214355e+00 3.816875815391540527e-01 -3.626371622085571289e-01
2.912000000000000000e+03 1.657918930053710938e+01 -7.922603607177734375e+00 3.298079669475555420e-01 -2.644261717796325684e-01 1.961454004049301147e-02 9.079761058092117310e-02
2.913000000000000000e+03 1.709211730957031250e+01 -8.997392654418945312e+00 4.213640093803405762e-01 -3.184278309345245361e-01 3.088085353374481201e-02 1.739426702260971069e-01
2.914000000000000000e+03 1.496194553375244141e+01 -8.502669334411621094e+00 2.468197047710418701e-01 -1.567265093326568604e-01 2.702796086668968201e-02 1.541349440813064575e-01
2.915000000000000000e+03 1.415883445739746094e+01 -8.808475494384765625e+00 2.151525467634201050e-01 -9.641117602586746216e-02 3.562240675091743469e-02 1.791963130235671997e-01
2.916000000000000000e+03 2.278148841857910156e+01 -8.738462448120117188e+00 1.338396906852722168e+00 -5.839919447898864746e-01 2.263215035200119019e-01 3.116212785243988037e-01
2.917000000000000000e+03 2.470814323425292969e+01 -7.647514343261718750e+00 2.070906162261962891e+00 -6.504857540130615234e-01 4.261260926723480225e-01 2.512913942337036133e-01
2.918000000000000000e+03 2.484485435485839844e+01 -1.152872371673583984e+01 8.049930334091186523e-01 1.274094581604003906e-01 2.797207534313201904e-01 9.334995150566101074e-01
2.919000000000000000e+03 1.652962303161621094e+01 -9.488885879516601562e+00 3.955214023590087891e-01 -2.836813926696777344e-01 3.355200216174125671e-02 2.144967466592788696e-01
2.920000000000000000e+03 1.036889076232910156e+01 -8.676735877990722656e+00 2.669002488255500793e-02 1.275888532400131226e-01 4.628366604447364807e-02 9.731491655111312866e-02
2.921000000000000000e+03 9.907463073730468750e+00 -8.141031265258789062e+00 -1.272457651793956757e-03 1.173682287335395813e-01 3.482872992753982544e-02 6.423783302307128906e-02
2.922000000000000000e+03 2.931744575500488281e+01 -1.089301109313964844e+01 3.945010900497436523e-01 2.204479455947875977e+00 7.796941399574279785e-01 3.393514454364776611e-01
2.923000000000000000e+03 8.295577049255371094e+00 -7.649487972259521484e+00 -3.435096144676208496e-02 1.291385889053344727e-01 2.843628823757171631e-02 7.500273641198873520e-04
2.924000000000000000e+03 2.673681068420410156e+01 -9.688615798950195312e+00 1.643342018127441406e+00 7.577890753746032715e-01 7.203393578529357910e-01 1.218357443809509277e+00
2.925000000000000000e+03 1.978171539306640625e+01 -1.027004337310791016e+01 6.621670126914978027e-01 -4.469437003135681152e-01 6.456699222326278687e-02 3.505361080169677734e-01
2.926000000000000000e+03 2.186437797546386719e+01 -8.796907424926757812e+00 1.083817481994628906e+00 -5.907951593399047852e-01 1.479067057371139526e-01 2.304378598928451538e-01
2.927000000000000000e+03 1.834187507629394531e+01 -9.662433624267578125e+00 5.430017113685607910e-01 -3.987090587615966797e-01 4.328779876232147217e-02 2.434974908828735352e-01
2.928000000000000000e+03 7.028894042968750000e+01 7.541646957397460938e+00 -9.763825684785842896e-02 -1.502048075199127197e-01 -7.435292005538940430e-02 -3.471932113170623779e-01
2.929000000000000000e+03 2.327809143066406250e+01 -1.145629787445068359e+01 8.030297756195068359e-01 -1.842462569475173950e-01 1.856350600719451904e-01 8.041733503341674805e-01
2.930000000000000000e+03 1.259690189361572266e+01 -1.021335983276367188e+01 1.638456881046295166e-01 4.184957221150398254e-02 6.170857697725296021e-02 2.313827574253082275e-01
2.931000000000000000e+03 1.091606903076171875e+01 -9.025580406188964844e+00 6.009338796138763428e-02 1.059596762061119080e-01 4.981591925024986267e-02 1.295123398303985596e-01
2.932000000000000000e+03 6.937490081787109375e+01 3.502434730529785156e+00 -2.068430036306381226e-01 -3.395944461226463318e-02 -7.224073261022567749e-02 -2.621741890907287598e-01
2.933000000000000000e+03 6.943421936035156250e+01 2.196277618408203125e+00 -2.114566266536712646e-01 -2.208299003541469574e-02 -7.006188482046127319e-02 -2.221464067697525024e-01
2.934000000000000000e+03 7.185556030273437500e+01 -3.620843648910522461e+00 -7.731278985738754272e-02 -1.648103073239326477e-02 -2.813814580440521240e-02 -3.114515170454978943e-02
2.935000000000000000e+03 7.081526947021484375e+01 -3.426729917526245117e+00 -9.897571802139282227e-02 -3.335204906761646271e-03 -3.069327585399150848e-02 -3.529179841279983521e-02
2.936000000000000000e+03 6.668799591064453125e+01 1.617508506774902344e+01 1.568177044391632080e-01 -2.459830641746520996e-01 -2.674960717558860779e-02 -3.771074414253234863e-01
2.937000000000000000e+03 6.824137115478515625e+01 1.601462745666503906e+01 1.224732547998428345e-01 -2.871605455875396729e-01 -4.940618947148323059e-02 -3.600904941558837891e-01
2.938000000000000000e+03 1.106492042541503906e+01 6.988613605499267578e+00 -1.626828088774345815e-05 -1.479277580074267462e-05 -9.318317097495310009e-06 -1.100520057661924511e-05
2.939000000000000000e+03 1.914677810668945312e+01 -8.009800910949707031e+00 5.947655439376831055e-01 -4.603450596332550049e-01 4.032614827156066895e-02 5.349159613251686096e-02
2.940000000000000000e+03 5.985491561889648438e+01 8.320973396301269531e+00 -1.379208415746688843e-01 -6.610547751188278198e-02 -6.120789423584938049e-02 -6.248972415924072266e-01
2.941000000000000000e+03 2.026834487915039062e+01 -9.393430709838867188e+00 7.904415130615234375e-01 -5.034331083297729492e-01 8.610253036022186279e-02 2.589246928691864014e-01
2.942000000000000000e+03 7.116144561767578125e+01 -5.130634307861328125e+00 -5.715168640017509460e-02 -1.291611231863498688e-02 -2.102033980190753937e-02 -8.282143622636795044e-03
2.943000000000000000e+03 5.107085037231445312e+01 1.404874038696289062e+01 9.643694162368774414e-01 4.078529179096221924e-01 4.116666913032531738e-01 1.746621876955032349e-01
2.944000000000000000e+03 5.149679565429687500e+01 1.273162174224853516e+01 9.240598678588867188e-01 1.151664480566978455e-01 3.117679059505462646e-01 -4.450762644410133362e-02
2.945000000000000000e+03 5.061235809326171875e+01 9.200533866882324219e+00 6.668436527252197266e-01 -2.884482145309448242e-01 1.135186329483985901e-01 -4.248664975166320801e-01
2.946000000000000000e+03 6.818766021728515625e+01 1.245034885406494141e+01 3.470334410667419434e-02 -2.264775186777114868e-01 -5.753225088119506836e-02 -4.210642278194427490e-01
2.947000000000000000e+03 6.453888702392578125e+01 6.076283931732177734e+00 -2.866906821727752686e-01 -1.563534513115882874e-02 -9.069781005382537842e-02 -4.618259370326995850e-01
2.948000000000000000e+03 6.296914291381835938e+01 7.019548892974853516e+00 -2.579345405101776123e-01 -2.686851657927036285e-02 -8.544091880321502686e-02 -5.290220379829406738e-01
2.949000000000000000e+03 6.098107910156250000e+01 8.139915466308593750e+00 -1.807082444429397583e-01 -5.996481329202651978e-02 -7.220192253589630127e-02 -5.985683202743530273e-01
2.950000000000000000e+03 5.608731842041015625e+01 8.547345161437988281e+00 -4.828279837965965271e-02 -1.194634810090065002e-01 -5.032388493418693542e-02 -6.728265285491943359e-01
2.951000000000000000e+03 5.871696472167968750e+01 1.004275226593017578e+01 4.930497333407402039e-02 -9.875570982694625854e-02 -1.483521983027458191e-02 -5.929740667343139648e-01
2.952000000000000000e+03 5.267263031005859375e+01 1.585228538513183594e+01 8.243044614791870117e-01 3.939445316791534424e-01 3.654747009277343750e-01 9.129120409488677979e-02
2.953000000000000000e+03 5.181840133666992188e+01 9.506285667419433594e+00 5.330891013145446777e-01 -2.440544515848159790e-01 8.671040087938308716e-02 -5.161334276199340820e-01
2.954000000000000000e+03 5.260990524291992188e+01 1.896619796752929688e+01 6.814917922019958496e-01 6.818902492523193359e-01 4.090146124362945557e-01 1.809444129467010498e-01
2.955000000000000000e+03 5.159572982788085938e+01 1.955419349670410156e+01 6.678723692893981934e-01 8.835965991020202637e-01 4.654406905174255371e-01 2.595162391662597656e-01
2.956000000000000000e+03 7.002576446533203125e+01 2.346347236633300781e+01 1.232970356941223145e-01 -4.206778407096862793e-01 -8.921423554420471191e-02 -1.812099069356918335e-01
2.957000000000000000e+03 6.992811584472656250e+01 2.450126838684082031e+01 1.314419507980346680e-01 -4.101970195770263672e-01 -8.362651616334915161e-02 -1.532010585069656372e-01
2.958000000000000000e+03 5.296173858642578125e+01 8.753335952758789062e+00 1.879352182149887085e-01 -2.481817305088043213e-01 -1.807395555078983307e-02 -6.783161759376525879e-01
2.959000000000000000e+03 3.140224838256835938e+01 -9.895130157470703125e+00 5.255720615386962891e-01 3.048158884048461914e+00 1.072119355201721191e+00 -1.077280402183532715e+00
2.960000000000000000e+03 3.040602874755859375e+01 -1.013688087463378906e+01 4.012842476367950439e-01 3.012327671051025391e+00 1.024083614349365234e+00 -2.491188496351242065e-01
2.961000000000000000e+03 1.234239196777343750e+01 -8.426482200622558594e+00 9.702856093645095825e-02 1.843038946390151978e-02 3.463768586516380310e-02 1.315906047821044922e-01
2.962000000000000000e+03 2.972465705871582031e+01 -1.203181838989257812e+01 -1.264839898794889450e-02 1.753899216651916504e+00 5.223752856254577637e-01 -3.817722573876380920e-02
2.963000000000000000e+03 2.989109802246093750e+01 -1.018665599822998047e+01 4.894536435604095459e-01 2.862777709960937500e+00 1.005669474601745605e+00 1.322655379772186279e-01
2.964000000000000000e+03 2.991485977172851562e+01 -9.535663604736328125e+00 7.317591309547424316e-01 3.432838916778564453e+00 1.249379396438598633e+00 2.859655916690826416e-01
2.965000000000000000e+03 2.901084136962890625e+01 -9.419621467590332031e+00 1.086565017700195312e+00 2.950829982757568359e+00 1.211218476295471191e+00 9.490365386009216309e-01
2.966000000000000000e+03 2.566839408874511719e+01 -8.339443206787109375e+00 2.230926513671875000e+00 -1.964514553546905518e-01 6.103425621986389160e-01 8.015089035034179688e-01
2.967000000000000000e+03 2.472647285461425781e+01 -8.599729537963867188e+00 1.921256899833679199e+00 -3.752278983592987061e-01 4.638086855411529541e-01 6.280601024627685547e-01
2.968000000000000000e+03 3.195082092285156250e+01 -1.206174087524414062e+01 -6.396543234586715698e-02 1.799933195114135742e+00 5.207903385162353516e-01 -1.096344232559204102e+00
2.969000000000000000e+03 2.373331642150878906e+01 -8.672854423522949219e+00 1.555369257926940918e+00 -5.580371618270874023e-01 2.991996407508850098e-01 4.156777858734130859e-01
2.970000000000000000e+03 2.458734893798828125e+01 -9.611155509948730469e+00 1.516135215759277344e+00 -2.065988183021545410e-01 3.928609192371368408e-01 8.033424615859985352e-01
2.971000000000000000e+03 2.741361999511718750e+01 -9.261001586914062500e+00 1.825486779212951660e+00 1.277103662490844727e+00 9.307771325111389160e-01 1.378591060638427734e+00
2.972000000000000000e+03 2.261576461791992188e+01 -9.656316757202148438e+00 1.146598219871520996e+00 -4.914179742336273193e-01 1.965540647506713867e-01 4.831667244434356689e-01
2.973000000000000000e+03 1.905645561218261719e+01 -9.971306800842285156e+00 6.102679371833801270e-01 -4.216760098934173584e-01 5.657757446169853210e-02 2.963263094425201416e-01
2.974000000000000000e+03 2.518803024291992188e+01 -1.077501106262207031e+01 1.055674552917480469e+00 1.553523391485214233e-01 3.633080720901489258e-01 9.807497859001159668e-01
2.975000000000000000e+03 3.182734298706054688e+01 -1.108454608917236328e+01 2.015893310308456421e-01 2.201861619949340820e+00 7.210353016853332520e-01 -1.106634020805358887e+00
2.976000000000000000e+03 3.083756637573242188e+01 -1.214444065093994141e+01 -1.130232438445091248e-01 1.804035425186157227e+00 5.073036551475524902e-01 -6.175613999366760254e-01
2.977000000000000000e+03 1.534843349456787109e+01 -9.287143707275390625e+00 3.054614067077636719e-01 -1.926763057708740234e-01 3.383553400635719299e-02 2.028554230928421021e-01
2.978000000000000000e+03 2.338013648986816406e+01 -1.055953788757324219e+01 1.054935455322265625e+00 -2.862741947174072266e-01 2.305983603000640869e-01 7.319692969322204590e-01
2.979000000000000000e+03 2.768736267089843750e+01 -1.102498054504394531e+01 7.096446156501770020e-01 1.332123041152954102e+00 6.125302910804748535e-01 9.299215078353881836e-01
2.980000000000000000e+03 2.871789550781250000e+01 -1.103713607788085938e+01 4.832309782505035400e-01 1.899021029472351074e+00 7.146756052970886230e-01 6.195985674858093262e-01
2.981000000000000000e+03 2.827197074890136719e+01 -1.047407817840576172e+01 7.902517914772033691e-01 1.907757163047790527e+00 8.094027042388916016e-01 9.336237907409667969e-01
2.982000000000000000e+03 6.791958618164062500e+01 5.675260066986083984e+00 -1.997244358062744141e-01 -6.341374665498733521e-02 -7.894145697355270386e-02 -3.708283901214599609e-01
2.983000000000000000e+03 6.824915313720703125e+01 4.636655330657958984e+00 -2.214175611734390259e-01 -3.888157010078430176e-02 -7.808973640203475952e-02 -3.206061720848083496e-01
2.984000000000000000e+03 6.827545166015625000e+01 3.420414209365844727e+00 -2.411905080080032349e-01 -2.381214685738086700e-02 -7.950079441070556641e-02 -2.898248434066772461e-01
2.985000000000000000e+03 5.187025833129882812e+01 1.077757930755615234e+01 7.400119304656982422e-01 -1.216273009777069092e-01 1.855153888463973999e-01 -3.097552359104156494e-01
2.986000000000000000e+03 6.775778198242187500e+01 1.138381385803222656e+01 2.201311290264129639e-03 -1.918719708919525146e-01 -5.690119788050651550e-02 -4.330985844135284424e-01
2.987000000000000000e+03 6.787674713134765625e+01 1.012663936614990234e+01 -3.847984224557876587e-02 -1.765095591545104980e-01 -6.449682265520095825e-02 -4.375369548797607422e-01
2.988000000000000000e+03 6.883804321289062500e+01 7.378173351287841797e+00 -1.239601671695709229e-01 -1.261364072561264038e-01 -7.502897083759307861e-02 -3.835553526878356934e-01
2.989000000000000000e+03 5.482723236083984375e+01 1.265735054016113281e+01 5.729102492332458496e-01 -2.872166782617568970e-02 1.632565706968307495e-01 -3.479040563106536865e-01
2.990000000000000000e+03 5.257264709472656250e+01 2.014824104309082031e+01 6.297587752342224121e-01 7.579782009124755859e-01 4.163210988044738770e-01 1.958980709314346313e-01
2.991000000000000000e+03 5.244910812377929688e+01 1.440959548950195312e+01 8.439165353775024414e-01 2.708189785480499268e-01 3.344206511974334717e-01 7.260145153850317001e-03
2.992000000000000000e+03 5.338901519775390625e+01 1.173007583618164062e+01 6.490768194198608398e-01 -7.433480024337768555e-02 1.724226027727127075e-01 -3.486854732036590576e-01
2.993000000000000000e+03 5.911025619506835938e+01 8.938513755798339844e+00 -6.907890737056732178e-02 -7.563947141170501709e-02 -4.341551288962364197e-02 -6.196194887161254883e-01
2.994000000000000000e+03 5.578659439086914062e+01 1.098088645935058594e+01 3.173168897628784180e-01 -9.961692988872528076e-02 6.530998647212982178e-02 -5.350590944290161133e-01
2.995000000000000000e+03 6.987228393554687500e+01 1.602866744995117188e+01 9.059764444828033447e-02 -3.391757011413574219e-01 -7.457341998815536499e-02 -3.404476642608642578e-01
2.996000000000000000e+03 6.787209320068359375e+01 1.430928230285644531e+01 8.588872849941253662e-02 -2.570026516914367676e-01 -5.133417993783950806e-02 -4.000050425529479980e-01
2.997000000000000000e+03 5.306261444091796875e+01 1.059609603881835938e+01 5.275619626045227051e-01 -1.391398161649703979e-01 1.165266409516334534e-01 -4.676384329795837402e-01
2.998000000000000000e+03 6.642179870605468750e+01 1.998137283325195312e+01 2.150782793760299683e-01 -2.420583516359329224e-01 -8.094022050499916077e-03 -2.633231878280639648e-01
2.999000000000000000e+03 6.420272827148437500e+01 7.469187736511230469e+00 -2.046358585357666016e-01 -6.088688969612121582e-02 -7.965682446956634521e-02 -5.061519742012023926e-01
3.000000000000000000e+03 5.848841094970703125e+01 1.145724868774414062e+01 2.051826566457748413e-01 -8.506515622138977051e-02 3.603525087237358093e-02 -5.369859933853149414e-01
3.001000000000000000e+03 6.856111145019531250e+01 2.163712692260742188e+01 1.565945744514465332e-01 -3.425866365432739258e-01 -5.579761415719985962e-02 -2.257128655910491943e-01
3.002000000000000000e+03 6.395476531982421875e+01 8.814954757690429688e+00 -1.235653236508369446e-01 -8.143776655197143555e-02 -6.150092929601669312e-02 -5.230605006217956543e-01
3.003000000000000000e+03 6.893482208251953125e+01 2.559290122985839844e+01 1.441450715065002441e-01 -3.532891571521759033e-01 -6.274323165416717529e-02 -1.302485913038253784e-01
3.004000000000000000e+03 5.416205978393554688e+01 1.025064563751220703e+01 3.745558559894561768e-01 -1.479202210903167725e-01 6.799069046974182129e-02 -5.389703512191772461e-01
3.005000000000000000e+03 3.230855178833007812e+01 -1.073243808746337891e+01 3.871023654937744141e-01 2.134271144866943359e+00 7.564120292663574219e-01 -1.333665251731872559e+00
3.006000000000000000e+03 3.155399513244628906e+01 -1.050232219696044922e+01 3.503862917423248291e-01 2.543038368225097656e+00 8.680273890495300293e-01 -1.057135701179504395e+00
3.007000000000000000e+03 2.778888130187988281e+01 -9.889986038208007812e+00 1.272531628608703613e+00 1.594696402549743652e+00 8.601683974266052246e-01 1.191303849220275879e+00
3.008000000000000000e+03 3.281264877319335938e+01 -1.152779197692871094e+01 1.498388946056365967e-01 1.731937527656555176e+00 5.645329356193542480e-01 -1.336305856704711914e+00
3.009000000000000000e+03 2.240549850463867188e+01 -1.062675094604492188e+01 9.724881649017333984e-01 -3.983508050441741943e-01 1.722412109375000000e-01 6.139979958534240723e-01
3.010000000000000000e+03 3.029612541198730469e+01 -1.155607128143310547e+01 4.898174479603767395e-02 2.087925434112548828e+00 6.410721540451049805e-01 -2.851745486259460449e-01
3.011000000000000000e+03 3.134281349182128906e+01 -1.158173179626464844e+01 4.021726548671722412e-02 2.086234569549560547e+00 6.379355192184448242e-01 -8.511967658996582031e-01
3.012000000000000000e+03 2.550506210327148438e+01 -9.856067657470703125e+00 1.563418984413146973e+00 1.453251540660858154e-01 5.126232504844665527e-01 1.007960319519042969e+00
3.013000000000000000e+03 2.431544303894042969e+01 -1.056039237976074219e+01 1.151217341423034668e+00 -1.075378581881523132e-01 3.131038546562194824e-01 8.709372878074645996e-01
3.014000000000000000e+03 2.931235694885253906e+01 -1.017282295227050781e+01 6.184050440788269043e-01 2.675704717636108398e+00 9.882329106330871582e-01 5.232150554656982422e-01
3.015000000000000000e+03 6.724468231201171875e+01 1.293454742431640625e+01 5.839661136269569397e-02 -2.181050181388854980e-01 -4.791252315044403076e-02 -4.263338148593902588e-01
3.016000000000000000e+03 2.619531059265136719e+01 -1.026289749145507812e+01 1.340940117835998535e+00 5.448867678642272949e-01 5.657480955123901367e-01 1.128574013710021973e+00
3.017000000000000000e+03 5.999166488647460938e+01 9.236941337585449219e+00 -6.305156648159027100e-02 -8.118875324726104736e-02 -4.327209293842315674e-02 -5.944897532463073730e-01
3.018000000000000000e+03 5.703745651245117188e+01 1.227109622955322266e+01 3.748843967914581299e-01 -7.349541038274765015e-02 9.041669219732284546e-02 -4.722251296043395996e-01
3.019000000000000000e+03 7.040084075927734375e+01 6.172232151031494141e+00 -1.282721906900405884e-01 -1.190465763211250305e-01 -7.419563084840774536e-02 -3.206381499767303467e-01
3.020000000000000000e+03 6.595560455322265625e+01 6.393683433532714844e+00 -2.280464321374893188e-01 -5.149938166141510010e-02 -8.386374264955520630e-02 -4.378320872783660889e-01
3.021000000000000000e+03 6.383038711547851562e+01 1.497385120391845703e+01 2.126059234142303467e-01 -1.659728437662124634e-01 1.398992631584405899e-02 -4.165491461753845215e-01
3.022000000000000000e+03 6.100735092163085938e+01 9.235859870910644531e+00 -5.663544312119483948e-02 -8.049750328063964844e-02 -4.113988205790519714e-02 -5.853634476661682129e-01
3.023000000000000000e+03 5.252884674072265625e+01 1.310391044616699219e+01 8.269929885864257812e-01 1.232391223311424255e-01 2.850696444511413574e-01 -1.046686768531799316e-01
3.024000000000000000e+03 5.224882507324218750e+01 1.199070930480957031e+01 8.060582280158996582e-01 2.107360167428851128e-03 2.424496710300445557e-01 -2.076205909252166748e-01
3.025000000000000000e+03 5.124325561523437500e+01 1.649004554748535156e+01 8.436366915702819824e-01 6.826016306877136230e-01 4.578714966773986816e-01 2.596597373485565186e-01
3.026000000000000000e+03 6.698132324218750000e+01 8.283919334411621094e+00 -1.252240389585494995e-01 -1.128531992435455322e-01 -7.142317295074462891e-02 -4.468901455402374268e-01
3.027000000000000000e+03 4.964139938354492188e+01 2.174538421630859375e+01 5.085763335227966309e-01 1.366475701332092285e+00 5.625156164169311523e-01 3.189079463481903076e-01
3.028000000000000000e+03 4.862523269653320312e+01 2.043013572692871094e+01 5.375162959098815918e-01 1.551975369453430176e+00 6.268475055694580078e-01 3.960616588592529297e-01
3.029000000000000000e+03 5.379818725585937500e+01 2.062757682800292969e+01 5.895480513572692871e-01 6.280394196510314941e-01 3.652762472629547119e-01 1.288871318101882935e-01
3.030000000000000000e+03 6.511889648437500000e+01 1.476604652404785156e+01 1.554206907749176025e-01 -1.967537999153137207e-01 -1.239993236958980560e-02 -4.243092238903045654e-01
3.031000000000000000e+03 6.646189117431640625e+01 1.460583209991455078e+01 1.305995434522628784e-01 -2.269433587789535522e-01 -2.890314161777496338e-02 -4.077107906341552734e-01
3.032000000000000000e+03 6.654006958007812500e+01 9.685981750488281250e+00 -6.092395260930061340e-02 -1.358927786350250244e-01 -5.904502049088478088e-02 -4.651196599006652832e-01
3.033000000000000000e+03 6.220701217651367188e+01 7.869384765625000000e+00 -1.872364729642868042e-01 -5.453236401081085205e-02 -7.253064960241317749e-02 -5.647815465927124023e-01
3.034000000000000000e+03 5.455947494506835938e+01 1.140206241607666016e+01 4.743592739105224609e-01 -8.844988048076629639e-02 1.157728135585784912e-01 -4.702154695987701416e-01
3.035000000000000000e+03 3.100956153869628906e+01 -1.062508678436279297e+01 2.522464096546173096e-01 2.673120021820068359e+00 8.776099085807800293e-01 -7.306379079818725586e-01
3.036000000000000000e+03 3.051068878173828125e+01 -1.069595336914062500e+01 2.600618004798889160e-01 2.619486093521118164e+00 8.638643622398376465e-01 -3.640610873699188232e-01
3.037000000000000000e+03 2.830701255798339844e+01 -9.475068092346191406e+00 1.373940229415893555e+00 2.209418058395385742e+00 1.075007557868957520e+00 1.280002474784851074e+00
3.038000000000000000e+03 5.986973571777343750e+01 1.169155693054199219e+01 1.706785112619400024e-01 -1.030777245759963989e-01 2.028023451566696167e-02 -5.333008766174316406e-01
3.039000000000000000e+03 6.608249664306640625e+01 4.886018753051757812e+00 -2.841824293136596680e-01 -8.354997262358665466e-03 -8.776122331619262695e-02 -3.824685811996459961e-01
3.040000000000000000e+03 5.413007736206054688e+01 1.548915386199951172e+01 7.180550098419189453e-01 2.103766500949859619e-01 2.785294950008392334e-01 -8.862686902284622192e-02
3.041000000000000000e+03 6.740334320068359375e+01 6.862209796905517578e+00 -1.760294586420059204e-01 -7.695064693689346313e-02 -7.589402794837951660e-02 -4.090134203433990479e-01
3.042000000000000000e+03 6.838089752197265625e+01 8.776980400085449219e+00 -8.961848914623260498e-02 -1.445317119359970093e-01 -7.024505734443664551e-02 -4.144033789634704590e-01
3.043000000000000000e+03 6.609150695800781250e+01 1.323019790649414062e+01 7.913193851709365845e-02 -2.015277594327926636e-01 -3.671874478459358215e-02 -4.480444490909576416e-01
3.044000000000000000e+03 5.724835968017578125e+01 2.114536857604980469e+01 5.043310523033142090e-01 3.066514134407043457e-01 2.432947456836700439e-01 -1.866522617638111115e-02
3.045000000000000000e+03 5.546398162841796875e+01 2.257983779907226562e+01 5.064401030540466309e-01 5.320322513580322266e-01 3.115417063236236572e-01 8.844568580389022827e-02
3.046000000000000000e+03 4.919424819946289062e+01 1.429907608032226562e+01 1.058499813079833984e+00 8.292608857154846191e-01 5.663281679153442383e-01 4.831045567989349365e-01
3.047000000000000000e+03 6.311826705932617188e+01 1.655380821228027344e+01 2.837409079074859619e-01 -1.352938711643218994e-01 4.453410580754280090e-02 -3.601800203323364258e-01
3.048000000000000000e+03 5.803980636596679688e+01 1.270213127136230469e+01 3.420498967170715332e-01 -9.438591450452804565e-02 7.429920136928558350e-02 -4.747785925865173340e-01
3.049000000000000000e+03 5.618209838867187500e+01 1.355208873748779297e+01 5.311368703842163086e-01 -8.975119329988956451e-03 1.566485315561294556e-01 -3.381794691085815430e-01
3.050000000000000000e+03 6.530885314941406250e+01 1.620047760009765625e+01 2.030870169401168823e-01 -2.078312784433364868e-01 -1.423280220478773117e-03 -3.761893808841705322e-01
3.051000000000000000e+03 6.454736328125000000e+01 1.196925258636474609e+01 5.764006823301315308e-02 -1.582145094871520996e-01 -3.017233312129974365e-02 -4.921331703662872314e-01
3.052000000000000000e+03 5.595887374877929688e+01 1.236738300323486328e+01 4.469819366931915283e-01 -6.131965294480323792e-02 1.156986802816390991e-01 -4.306653439998626709e-01
3.053000000000000000e+03 6.559936523437500000e+01 7.833502769470214844e+00 -1.613370329141616821e-01 -7.658286392688751221e-02 -7.137596607208251953e-02 -4.715064167976379395e-01
3.054000000000000000e+03 5.987338256835937500e+01 1.031431961059570312e+01 5.481693148612976074e-02 -8.720939606428146362e-02 -9.717740118503570557e-03 -5.740860700607299805e-01
3.055000000000000000e+03 5.874202346801757812e+01 1.392440414428710938e+01 3.750044405460357666e-01 -6.943916529417037964e-02 9.166958183050155640e-02 -4.202452003955841064e-01
3.056000000000000000e+03 5.004528808593750000e+01 2.422780418395996094e+01 4.306243658065795898e-01 1.307276964187622070e+00 5.213704109191894531e-01 2.397199571132659912e-01
3.057000000000000000e+03 4.869026947021484375e+01 2.319377136230468750e+01 4.201313853263854980e-01 1.578438520431518555e+00 5.995709896087646484e-01 2.822521626949310303e-01
3.058000000000000000e+03 5.506997299194335938e+01 1.389108657836914062e+01 6.378110647201538086e-01 3.482357412576675415e-02 2.017903923988342285e-01 -2.565310299396514893e-01
3.059000000000000000e+03 5.384105682373046875e+01 1.421668529510498047e+01 7.268286347389221191e-01 1.407966762781143188e-01 2.602875828742980957e-01 -1.395242959260940552e-01
3.060000000000000000e+03 5.421378326416015625e+01 2.254872322082519531e+01 5.252934098243713379e-01 6.832749843597412109e-01 3.625705242156982422e-01 1.442568302154541016e-01
3.061000000000000000e+03 6.462766265869140625e+01 1.956567192077636719e+01 2.678726911544799805e-01 -1.682154089212417603e-01 2.989718131721019745e-02 -2.651556134223937988e-01
3.062000000000000000e+03 6.411471557617187500e+01 1.620431709289550781e+01 2.283106446266174316e-01 -1.763116270303726196e-01 1.559970807284116745e-02 -3.856379687786102295e-01
3.063000000000000000e+03 7.043236541748046875e+01 8.806743621826171875e+00 -6.806363165378570557e-02 -1.908852159976959229e-01 -7.768465578556060791e-02 -3.643214404582977295e-01
3.064000000000000000e+03 6.473727416992187500e+01 1.054459381103515625e+01 -1.164636295288801193e-02 -1.300302445888519287e-01 -4.250298067927360535e-02 -4.995568394660949707e-01
3.065000000000000000e+03 6.346491241455078125e+01 1.365527153015136719e+01 1.587036997079849243e-01 -1.539827734231948853e-01 1.416279817931354046e-03 -4.636302888393402100e-01
3.066000000000000000e+03 5.719150161743164062e+01 1.328051280975341797e+01 4.229386448860168457e-01 -4.041268676519393921e-02 1.147577837109565735e-01 -4.070468246936798096e-01
3.067000000000000000e+03 6.125884628295898438e+01 1.141142463684082031e+01 1.086689159274101257e-01 -1.030507683753967285e-01 1.685445313341915607e-03 -5.279029011726379395e-01
3.068000000000000000e+03 6.679354858398437500e+01 1.170138263702392578e+01 1.525794807821512222e-02 -1.872498244047164917e-01 -5.159756168723106384e-02 -4.535902142524719238e-01
3.069000000000000000e+03 6.480542755126953125e+01 1.340111255645751953e+01 1.278231143951416016e-01 -1.764866113662719727e-01 -1.459905039519071579e-02 -4.519728124141693115e-01
3.070000000000000000e+03 6.310559844970703125e+01 1.222221660614013672e+01 1.057734340429306030e-01 -1.329203546047210693e-01 -8.144075982272624969e-03 -4.952645301818847656e-01
3.071000000000000000e+03 6.255670928955078125e+01 1.087127017974853516e+01 2.774067781865596771e-02 -1.167696267366409302e-01 -2.670868486166000366e-02 -5.313861966133117676e-01
3.072000000000000000e+03 6.521588134765625000e+01 9.201539993286132812e+00 -9.513372927904129028e-02 -1.121551617980003357e-01 -6.218666583299636841e-02 -5.009274482727050781e-01
3.073000000000000000e+03 6.345915222167968750e+01 2.122116279602050781e+01 3.033478558063507080e-01 -9.357251226902008057e-02 6.293260306119918823e-02 -2.014414370059967041e-01
3.074000000000000000e+03 5.862326049804687500e+01 2.391588783264160156e+01 3.933729231357574463e-01 2.852799296379089355e-01 2.035958468914031982e-01 -5.718564148992300034e-03
3.075000000000000000e+03 6.213768386840820312e+01 1.732744789123535156e+01 3.344539105892181396e-01 -9.059452265501022339e-02 7.315781712532043457e-02 -3.171511292457580566e-01
3.076000000000000000e+03 6.354957199096679688e+01 9.994878768920898438e+00 -2.126764319837093353e-02 -1.145415678620338440e-01 -4.074276611208915710e-02 -5.290017127990722656e-01
3.077000000000000000e+03 6.096636199951171875e+01 1.025343894958496094e+01 2.406940609216690063e-02 -9.442592412233352661e-02 -2.110695466399192810e-02 -5.651497244834899902e-01
3.078000000000000000e+03 5.753273773193359375e+01 1.437393951416015625e+01 4.819125831127166748e-01 -1.150740869343280792e-02 1.411215513944625854e-01 -3.445883095264434814e-01
3.079000000000000000e+03 5.795574569702148438e+01 1.646673393249511719e+01 5.042352080345153809e-01 4.387706145644187927e-02 1.644336879253387451e-01 -2.528056800365447998e-01
3.080000000000000000e+03 6.011127853393554688e+01 1.685231590270996094e+01 4.094874858856201172e-01 -2.695026062428951263e-02 1.147611662745475769e-01 -2.979790866374969482e-01
3.081000000000000000e+03 6.209511947631835938e+01 1.410442352294921875e+01 2.347215563058853149e-01 -1.247887015342712402e-01 3.297985717654228210e-02 -4.436393678188323975e-01
3.082000000000000000e+03 5.736587142944335938e+01 1.885678863525390625e+01 5.466407537460327148e-01 1.925988197326660156e-01 2.217718809843063354e-01 -1.012070626020431519e-01
3.083000000000000000e+03 5.605075073242187500e+01 2.015793037414550781e+01 5.679279565811157227e-01 3.615628182888031006e-01 2.788472175598144531e-01 7.859243080019950867e-03
3.084000000000000000e+03 5.542155456542968750e+01 2.596943092346191406e+01 3.918836414813995361e-01 6.418802142143249512e-01 3.101291656494140625e-01 1.341965943574905396e-01
3.085000000000000000e+03 5.380139160156250000e+01 2.585894203186035156e+01 3.966567814350128174e-01 8.269613385200500488e-01 3.670854270458221436e-01 1.703696250915527344e-01
3.086000000000000000e+03 6.448929595947265625e+01 2.650899887084960938e+01 2.167536020278930664e-01 -6.649339944124221802e-02 4.507806152105331421e-02 -8.064186573028564453e-02
3.087000000000000000e+03 6.258391952514648438e+01 1.539308357238769531e+01 2.621613740921020508e-01 -1.298147737979888916e-01 3.970398008823394775e-02 -4.037018120288848877e-01
3.088000000000000000e+03 5.879590988159179688e+01 1.779637527465820312e+01 4.873226284980773926e-01 4.757749289274215698e-02 1.604700386524200439e-01 -2.143223583698272705e-01
3.089000000000000000e+03 6.164777755737304688e+01 1.274367523193359375e+01 1.676729768514633179e-01 -1.210215985774993896e-01 1.399541553109884262e-02 -4.983201622962951660e-01
3.090000000000000000e+03 5.541141128540039062e+01 1.508050918579101562e+01 6.376577019691467285e-01 9.674093127250671387e-02 2.203195989131927490e-01 -1.984955966472625732e-01
3.091000000000000000e+03 6.072438049316406250e+01 1.469969749450683594e+01 3.130610585212707520e-01 -9.338699281215667725e-02 6.590221822261810303e-02 -4.150682687759399414e-01
3.092000000000000000e+03 5.933731460571289062e+01 1.545531940460205078e+01 4.190498590469360352e-01 -4.416070505976676941e-02 1.124667450785636902e-01 -3.413666784763336182e-01
3.093000000000000000e+03 5.293877410888671875e+01 2.925018882751464844e+01 2.511256635189056396e-01 9.657717943191528320e-01 3.650692403316497803e-01 1.742026209831237793e-01
3.094000000000000000e+03 5.249095916748046875e+01 2.652354240417480469e+01 3.694058656692504883e-01 9.822596907615661621e-01 4.054996669292449951e-01 1.851816177368164062e-01
3.095000000000000000e+03 5.526240921020507812e+01 2.794020271301269531e+01 3.108190298080444336e-01 7.137640118598937988e-01 3.073749244213104248e-01 1.513694375753402710e-01
3.096000000000000000e+03 6.026300048828125000e+01 2.336359405517578125e+01 3.686670958995819092e-01 1.485705524682998657e-01 1.551712900400161743e-01 -6.676713377237319946e-02
3.097000000000000000e+03 6.210620880126953125e+01 1.968798065185546875e+01 3.584525585174560547e-01 -4.651283845305442810e-02 9.358191490173339844e-02 -2.251050323247909546e-01
3.098000000000000000e+03 6.135943603515625000e+01 1.604379463195800781e+01 3.441410958766937256e-01 -9.127470105886459351e-02 7.585991919040679932e-02 -3.565281629562377930e-01
3.099000000000000000e+03 6.016238021850585938e+01 1.323287391662597656e+01 2.668597102165222168e-01 -9.293499588966369629e-02 5.217741429805755615e-02 -4.661761820316314697e-01
3.100000000000000000e+03 5.974473571777343750e+01 1.917928886413574219e+01 4.503757357597351074e-01 5.821631476283073425e-02 1.525776237249374390e-01 -1.836155951023101807e-01
3.101000000000000000e+03 5.591704177856445312e+01 1.623686408996582031e+01 6.167026758193969727e-01 1.445128619670867920e-01 2.283646762371063232e-01 -1.560810804367065430e-01
3.102000000000000000e+03 6.100463104248046875e+01 1.823547744750976562e+01 3.951698839664459229e-01 -3.529333323240280151e-02 1.079629659652709961e-01 -2.595583200454711914e-01
3.103000000000000000e+03 5.843284225463867188e+01 2.012408256530761719e+01 4.897820651531219482e-01 1.711744964122772217e-01 1.982869654893875122e-01 -1.008960828185081482e-01
3.104000000000000000e+03 5.811573410034179688e+01 2.228359222412109375e+01 4.450473785400390625e-01 2.671586871147155762e-01 2.136618196964263916e-01 -2.826102264225482941e-02
3.105000000000000000e+03 6.186927032470703125e+01 2.247082328796386719e+01 3.403146564960479736e-01 3.312897682189941406e-02 1.120330840349197388e-01 -1.274697333574295044e-01
3.106000000000000000e+03 5.713274765014648438e+01 2.602234268188476562e+01 3.667514920234680176e-01 4.849904179573059082e-01 2.555225789546966553e-01 8.579740673303604126e-02
3.107000000000000000e+03 5.941181945800781250e+01 2.157487106323242188e+01 4.254056811332702637e-01 1.608089506626129150e-01 1.758643835783004761e-01 -8.583540469408035278e-02
3.108000000000000000e+03 5.711332321166992188e+01 1.546278667449951172e+01 5.394281148910522461e-01 3.482594713568687439e-02 1.722762286663055420e-01 -2.649748623371124268e-01
3.109000000000000000e+03 5.505255508422851562e+01 1.803647804260253906e+01 6.400256156921386719e-01 3.300405740737915039e-01 2.910198569297790527e-01 -1.389865297824144363e-02
3.110000000000000000e+03 6.078741836547851562e+01 2.071037673950195312e+01 3.950491845607757568e-01 4.216678440570831299e-02 1.311647891998291016e-01 -1.580488532781600952e-01
3.111000000000000000e+03 6.298269271850585938e+01 2.457764434814453125e+01 2.797717452049255371e-01 3.312226384878158569e-03 8.492518961429595947e-02 -9.746598452329635620e-02
3.112000000000000000e+03 5.900095367431640625e+01 2.590971183776855469e+01 3.370451629161834717e-01 3.295788168907165527e-01 1.999871879816055298e-01 3.315861895680427551e-02
3.113000000000000000e+03 7.390316772460937500e+01 3.741188049316406250e+01 1.808653585612773895e-02 -7.143641710281372070e-01 -2.088832855224609375e-01 -2.254993282258510590e-02
3.114000000000000000e+03 5.366119003295898438e+01 2.746334457397460938e+01 3.324149549007415771e-01 8.584765195846557617e-01 3.572674393653869629e-01 1.677384227514266968e-01
3.115000000000000000e+03 6.583799743652343750e+01 2.484865379333496094e+01 2.091738581657409668e-01 -1.826765835285186768e-01 7.949180901050567627e-03 -1.330167204141616821e-01
3.116000000000000000e+03 5.710286331176757812e+01 2.819983291625976562e+01 2.916491031646728516e-01 5.428308248519897461e-01 2.503439784049987793e-01 1.119067147374153137e-01
3.117000000000000000e+03 6.104597091674804688e+01 2.558119010925292969e+01 3.004319965839385986e-01 1.506562530994415283e-01 1.353264749050140381e-01 -3.737889975309371948e-02
3.118000000000000000e+03 5.911447906494140625e+01 2.820399475097656250e+01 2.704254686832427979e-01 3.799061179161071777e-01 1.950994729995727539e-01 6.314016878604888916e-02
3.119000000000000000e+03 6.636245727539062500e+01 2.782721710205078125e+01 1.570754945278167725e-01 -1.893966048955917358e-01 -9.696330875158309937e-03 -7.703045010566711426e-02
3.120000000000000000e+03 6.714591217041015625e+01 2.614017295837402344e+01 1.728213727474212646e-01 -2.430629134178161621e-01 -2.107246220111846924e-02 -1.099105626344680786e-01
3.121000000000000000e+03 1.709045219421386719e+01 4.158683776855468750e+01 -9.853153023868799210e-04 -1.392440753988921642e-03 -7.133267936296761036e-04 -1.937208289746195078e-04
3.122000000000000000e+03 9.351373672485351562e+00 3.908076477050781250e+01 -1.165982394013553858e-04 4.794349661096930504e-04 1.088510180125012994e-04 -1.473892916692420840e-05
3.123000000000000000e+03 7.120016479492187500e+01 -3.265942764282226562e+01 -4.355072043836116791e-03 6.485331105068325996e-04 -1.111961668357253075e-03 2.758850809186697006e-03
3.124000000000000000e+03 3.766750717163085938e+01 -4.116321945190429688e+01 -3.223506510257720947e-01 7.718533873558044434e-01 1.348508298397064209e-01 -9.006353095173835754e-03
3.125000000000000000e+03 4.593866348266601562e+01 -3.322941589355468750e+01 -2.580130845308303833e-02 4.734899699687957764e-01 1.343065947294235229e-01 -2.208885252475738525e-01
3.126000000000000000e+03 2.357453346252441406e+01 -3.426873016357421875e+01 -2.223250269889831543e-01 1.584854163229465485e-02 -6.194294616580009460e-02 1.466646976768970490e-02
3.127000000000000000e+03 7.272979736328125000e+01 -3.614346694946289062e+01 1.497951016062870622e-04 -6.794491200707852840e-04 -1.588962040841579437e-04 4.292673431336879730e-03
3.128000000000000000e+03 7.357915496826171875e+01 -3.811612319946289062e+01 2.244055736809968948e-03 -3.261648816987872124e-03 -3.052779647987335920e-04 3.651800565421581268e-03
3.129000000000000000e+03 6.814076423645019531e+00 3.825202941894531250e+01 5.837372555106412619e-06 -9.301820682594552636e-05 -2.615425182739272714e-05 9.167430107481777668e-05
3.130000000000000000e+03 1.248179912567138672e+01 -4.137360763549804688e+01 3.311898186802864075e-02 -1.239915341138839722e-01 -2.726176567375659943e-02 1.273762155324220657e-02
3.131000000000000000e+03 2.771288490295410156e+01 -3.848930740356445312e+01 -1.695615202188491821e-01 2.512224018573760986e-01 2.449825964868068695e-02 8.236291259527206421e-02
3.132000000000000000e+03 1.271803188323974609e+01 3.960110092163085938e+01 -5.962153081782162189e-04 -5.631356034427881241e-04 -3.478052676655352116e-04 -4.724500468000769615e-04
3.133000000000000000e+03 5.309653091430664062e+01 -3.553897857666015625e+01 -8.336228318512439728e-03 1.618271321058273315e-01 4.604727402329444885e-02 -6.325603276491165161e-02
3.134000000000000000e+03 3.573824691772460938e+01 4.013808822631835938e+01 -4.745653364807367325e-03 3.740591406822204590e-01 1.107940450310707092e-01 -8.228310197591781616e-02
3.135000000000000000e+03 6.791406250000000000e+01 3.093608665466308594e+01 9.050517529249191284e-02 -2.736985087394714355e-01 -5.495800450444221497e-02 -4.196765646338462830e-02
3.136000000000000000e+03 1.676383209228515625e+01 -4.116067886352539062e+01 -3.341251611709594727e-02 -1.311752200126647949e-01 -4.937632009387016296e-02 1.736705005168914795e-02
3.137000000000000000e+03 5.167683410644531250e+01 3.503775405883789062e+01 -1.667368225753307343e-02 1.132026672363281250e+00 3.346059024333953857e-01 1.653811037540435791e-01
3.138000000000000000e+03 8.208278656005859375e+00 -4.125547790527343750e+01 6.085742264986038208e-02 9.307756274938583374e-02 4.618049785494804382e-02 7.492957520298659801e-04
3.139000000000000000e+03 4.257141494750976562e+01 -3.836056900024414062e+01 -2.261655926704406738e-01 7.033060789108276367e-01 1.431421488523483276e-01 -1.057717725634574890e-01
3.140000000000000000e+03 6.363692474365234375e+01 3.513599395751953125e+01 5.864571779966354370e-02 1.154754459857940674e-01 5.223634839057922363e-02 2.028398960828781128e-02
3.141000000000000000e+03 6.698468780517578125e+01 3.687524032592773438e+01 3.345816209912300110e-02 -1.418622285127639771e-01 -3.252121806144714355e-02 2.742699580267071724e-03
3.142000000000000000e+03 5.673738479614257812e+01 3.739951705932617188e+01 -2.698038704693317413e-02 7.321472167968750000e-01 2.115500420331954956e-01 8.239895105361938477e-02
3.143000000000000000e+03 4.875643157958984375e+01 3.839954376220703125e+01 -2.086613625288009644e-01 1.357993841171264648e+00 3.447997570037841797e-01 8.936132490634918213e-02
3.144000000000000000e+03 5.505730819702148438e+01 -3.975318908691406250e+01 9.301683865487575531e-03 1.179258972406387329e-01 3.816827386617660522e-02 -2.017130702733993530e-02
3.145000000000000000e+03 6.797187805175781250e+01 2.498346328735351562e+01 1.591342389583587646e-01 -3.050243854522705078e-01 -4.376704618334770203e-02 -1.420718729496002197e-01
3.146000000000000000e+03 6.352336883544921875e+01 2.876235389709472656e+01 1.920939534902572632e-01 2.438309788703918457e-02 6.494311988353729248e-02 -3.456213325262069702e-02
3.147000000000000000e+03 6.130220413208007812e+01 2.813035392761230469e+01 2.373988628387451172e-01 2.011783570051193237e-01 1.315731704235076904e-01 1.872571418061852455e-03
3.148000000000000000e+03 7.186891937255859375e+01 -4.121031951904296875e+01 4.276526626199483871e-03 -3.851675195619463921e-03 1.274554670089855790e-04 1.611364074051380157e-03
3.149000000000000000e+03 5.655303192138671875e+01 3.387083816528320312e+01 7.151937484741210938e-02 6.999721527099609375e-01 2.314474582672119141e-01 1.240274459123611450e-01
3.150000000000000000e+03 3.855144882202148438e+01 4.114126586914062500e+01 -1.248319298028945923e-01 7.826770544052124023e-01 1.973535418510437012e-01 -6.318222731351852417e-02
3.151000000000000000e+03 4.890299224853515625e+01 3.610729598999023438e+01 -1.063967868685722351e-01 1.346072196960449219e+00 3.719026148319244385e-01 1.338547021150588989e-01
3.152000000000000000e+03 5.815311813354492188e+01 -4.110759353637695312e+01 2.303253859281539917e-02 6.039800867438316345e-02 2.502916380763053894e-02 -4.494771361351013184e-03
3.153000000000000000e+03 5.035685729980468750e+01 2.962193489074707031e+01 2.377462983131408691e-01 1.260641098022460938e+00 4.495162069797515869e-01 1.990091949701309204e-01
3.154000000000000000e+03 5.689203643798828125e+01 3.077272415161132812e+01 1.986331194639205933e-01 6.182187795639038086e-01 2.450555711984634399e-01 1.331264525651931763e-01
3.155000000000000000e+03 6.170328140258789062e+01 3.276115417480468750e+01 1.173767820000648499e-01 2.618529200553894043e-01 1.137689054012298584e-01 3.784895315766334534e-02
3.156000000000000000e+03 2.322194480895996094e+01 -4.108908081054687500e+01 -9.683338552713394165e-02 1.060651801526546478e-02 -2.586806192994117737e-02 1.200938038527965546e-02
3.157000000000000000e+03 5.379115676879882812e+01 3.289325332641601562e+01 8.930832892656326294e-02 9.300547838211059570e-01 3.058089315891265869e-01 1.567276269197463989e-01
3.158000000000000000e+03 5.476692962646484375e+01 3.023828887939453125e+01 2.175996303558349609e-01 7.804977297782897949e-01 2.994292080402374268e-01 1.533978879451751709e-01
3.159000000000000000e+03 5.017886352539062500e+01 3.284081268310546875e+01 8.443974703550338745e-02 1.259164690971374512e+00 4.030813574790954590e-01 1.927155256271362305e-01
3.160000000000000000e+03 6.568884277343750000e+01 3.000419998168945312e+01 1.352638453245162964e-01 -1.260939389467239380e-01 2.750971587374806404e-03 -3.871325030922889709e-02
3.161000000000000000e+03 6.775223541259765625e+01 -1.245902252197265625e+01 5.449608433991670609e-03 6.979136727750301361e-03 3.728623501956462860e-03 -3.420653287321329117e-03
3.162000000000000000e+03 3.231449127197265625e+01 -4.326847553253173828e+00 2.692118644714355469e+00 2.129561185836791992e+00 1.446503996849060059e+00 5.495053291320800781e+00
3.163000000000000000e+03 3.168335151672363281e+01 -4.076013565063476562e+00 1.118971109390258789e+00 4.701175689697265625e+00 1.746044039726257324e+00 5.861577987670898438e+00
3.164000000000000000e+03 7.915055847167968750e+01 -1.037658691406250000e+01 1.806924818083643913e-03 6.972325500100851059e-03 2.633775118738412857e-03 3.920454066246747971e-03
3.165000000000000000e+03 3.272339630126953125e+01 -8.002291679382324219e+00 2.086506605148315430e+00 1.764018774032592773e+00 1.155157566070556641e+00 -1.839797496795654297e+00
3.166000000000000000e+03 3.247913360595703125e+01 -8.044047355651855469e+00 1.960366249084472656e+00 2.171930313110351562e+00 1.239688992500305176e+00 -1.915784120559692383e+00
3.167000000000000000e+03 3.194362068176269531e+01 -7.943301677703857422e+00 1.888465642929077148e+00 3.411469459533691406e+00 1.589980483055114746e+00 -2.060994625091552734e+00
3.168000000000000000e+03 3.120810508728027344e+01 -7.352184772491455078e+00 1.722649812698364258e+00 6.288951396942138672e+00 2.403480291366577148e+00 -1.901992559432983398e+00
3.169000000000000000e+03 3.940202295780181885e-01 2.096851110458374023e+00 1.102789246942847967e-05 4.168356554146157578e-06 4.558874479698715732e-06 1.328391363131231628e-06
3.170000000000000000e+03 2.602296447753906250e+01 -1.719679951667785645e+00 -4.234313011169433594e+00 -1.748616695404052734e-01 -1.322752356529235840e+00 4.038886725902557373e-01
3.171000000000000000e+03 7.844253540039062500e+01 -8.953288078308105469e+00 1.284444151679053903e-04 8.749399334192276001e-03 2.663353225216269493e-03 6.988530978560447693e-03
3.172000000000000000e+03 1.330516695976257324e+00 2.729015350341796875e+00 -8.734816219657659531e-06 -6.137858690635766834e-06 -4.461802291189087555e-06 9.448682249058037996e-06
3.173000000000000000e+03 2.604352188110351562e+01 3.848233032226562500e+01 2.859588712453842163e-03 -8.158848620951175690e-03 -1.589777995832264423e-03 2.175197191536426544e-02
3.174000000000000000e+03 4.183120727539062500e+01 -1.520940208435058594e+01 2.515055984258651733e-02 8.600887060165405273e-01 2.655717730522155762e-01 -1.499393880367279053e-01
3.175000000000000000e+03 7.673793315887451172e+00 -1.685684967041015625e+01 7.462955713272094727e-01 1.051822185516357422e+00 5.394353270530700684e-01 5.359957218170166016e-01
3.176000000000000000e+03 2.014917564392089844e+01 2.290023088455200195e+00 3.238118040371773532e-07 6.701649795104458462e-07 2.981930435907997889e-07 1.476358988838910591e-06
3.177000000000000000e+03 2.561196804046630859e+00 2.705463171005249023e+00 2.579266219981946051e-05 1.630205161973208305e-07 7.786705282342154533e-06 -5.948390025878325105e-06
3.178000000000000000e+03 3.420913314819335938e+01 -3.863662242889404297e+00 -3.573742508888244629e-02 1.183862090110778809e+00 3.444373905658721924e-01 3.067640304565429688e+00
3.179000000000000000e+03 3.217370986938476562e+01 -3.953907966613769531e+00 9.707810878753662109e-01 3.011090040206909180e+00 1.194561362266540527e+00 5.497146606445312500e+00
3.180000000000000000e+03 3.231361007690429688e+01 -3.725302219390869141e+00 4.822603166103363037e-01 2.729472160339355469e+00 9.635197520256042480e-01 5.243891716003417969e+00
3.181000000000000000e+03 3.398434829711914062e+01 -4.190611362457275391e+00 2.921711206436157227e-01 8.452216386795043945e-01 3.412178456783294678e-01 3.104585409164428711e+00
3.182000000000000000e+03 3.214807510375976562e+01 -4.140237331390380859e+00 1.963557958602905273e+00 2.981856107711791992e+00 1.483624219894409180e+00 5.787349224090576172e+00
3.183000000000000000e+03 3.235338592529296875e+01 -4.013649940490722656e+00 1.461993336677551270e+00 2.343060493469238281e+00 1.141516208648681641e+00 5.401390075683593750e+00
3.184000000000000000e+03 3.246610641479492188e+01 -3.879583835601806641e+00 1.000153422355651855e+00 2.411043643951416016e+00 1.023359060287475586e+00 5.283237457275390625e+00
3.185000000000000000e+03 3.133275032043457031e+01 -7.554353713989257812e+00 1.692174434661865234e+00 5.508080482482910156e+00 2.160076618194580078e+00 -1.932871580123901367e+00
3.186000000000000000e+03 2.715873479843139648e+00 3.800490570068359375e+01 -5.016114664613269269e-05 1.461973588448017836e-04 2.881086402339860797e-05 -3.402458241907879710e-05
3.187000000000000000e+03 6.682736206054687500e+01 -7.425618171691894531e+00 -3.912469372153282166e-03 6.866080220788717270e-03 8.860831148922443390e-04 -9.497229941189289093e-03
3.188000000000000000e+03 2.304903984069824219e+01 -1.665498924255371094e+01 -7.429249882698059082e-01 9.447296708822250366e-02 -1.945355981588363647e-01 4.319851994514465332e-01
3.189000000000000000e+03 4.254003047943115234e+00 -3.423085403442382812e+01 -6.917285174131393433e-02 4.205585718154907227e-01 1.054157167673110962e-01 -2.484921924769878387e-02
3.190000000000000000e+03 2.474189949035644531e+01 -4.325796604156494141e+00 2.131882011890411377e-01 -6.150522232055664062e-01 -1.205592080950737000e-01 -1.424683928489685059e+00
3.191000000000000000e+03 3.291199111938476562e+01 -2.419723749160766602e+00 -1.944465160369873047e+00 2.683161258697509766e+00 2.216088175773620605e-01 4.309786319732666016e+00
3.192000000000000000e+03 3.300331115722656250e+01 -1.660587668418884277e+00 -2.380570173263549805e+00 2.545647144317626953e+00 4.952310025691986084e-02 2.800027608871459961e+00
3.193000000000000000e+03 3.344821548461914062e+01 -2.510752439498901367e+00 -1.673201680183410645e+00 2.413135290145874023e+00 2.219800800085067749e-01 4.019546508789062500e+00
3.194000000000000000e+03 3.155304336547851562e+01 -7.595322132110595703e+00 1.881286740303039551e+00 4.703432083129882812e+00 1.975415706634521484e+00 -2.110547304153442383e+00
3.195000000000000000e+03 3.974301147460937500e+01 -1.641550445556640625e+01 -1.069216653704643250e-01 1.183557510375976562e+00 3.229907453060150146e-01 -1.680496633052825928e-01
3.196000000000000000e+03 4.057774353027343750e+01 3.641380310058593750e+01 -1.495434492826461792e-01 1.280059218406677246e+00 3.391547501087188721e-01 -2.352404594421386719e-01
3.197000000000000000e+03 8.203639984130859375e+00 -3.132495307922363281e+01 -4.233593940734863281e-01 -1.348942220211029053e-01 -1.674760878086090088e-01 1.360019743442535400e-01
3.198000000000000000e+03 6.805599212646484375e+01 -3.462939834594726562e+01 -5.123212002217769623e-03 7.153170881792902946e-04 -1.322368392720818520e-03 6.335924845188856125e-03
3.199000000000000000e+03 6.648906707763671875e+01 -3.454329299926757812e+01 -4.336534067988395691e-03 1.843215781264007092e-03 -7.479954510927200317e-04 1.103748381137847900e-02
3.200000000000000000e+03 7.169537353515625000e+01 -1.734770202636718750e+01 -1.002162389340810478e-04 -1.286171900574117899e-04 -6.865002796985208988e-05 -7.437625754391774535e-05
3.201000000000000000e+03 2.639269065856933594e+01 -3.959509372711181641e+00 -1.920363008975982666e-01 -7.833506464958190918e-01 -2.926160693168640137e-01 -2.114092826843261719e+00
3.202000000000000000e+03 2.676315307617187500e+01 -3.461458206176757812e+01 -1.562682539224624634e-01 1.032448858022689819e-01 -1.590700820088386536e-02 9.675376117229461670e-02
3.203000000000000000e+03 2.388295745849609375e+01 -1.569079589843750000e+01 -5.978000760078430176e-01 1.253596097230911255e-01 -1.417321413755416870e-01 6.036562323570251465e-01
3.204000000000000000e+03 4.517759323120117188e+00 -4.653924942016601562e+00 -4.127791896462440491e-02 -1.145880087278783321e-03 -1.272713951766490936e-02 -7.279403507709503174e-02
3.205000000000000000e+03 7.627930450439453125e+01 -1.776675033569335938e+01 3.421674045966938138e-05 -6.512845720862969756e-05 -9.273514478991273791e-06 -3.146892777294851840e-05
3.206000000000000000e+03 2.943687629699707031e+01 -9.531499862670898438e+00 9.210531711578369141e-01 3.131937742233276367e+00 1.215897321701049805e+00 6.694762706756591797e-01
3.207000000000000000e+03 4.680693817138671875e+01 4.201187133789062500e+00 -7.817996740341186523e-01 -1.832721710205078125e+00 -7.843564152717590332e-01 -1.023887276649475098e+00
3.208000000000000000e+03 7.643518829345703125e+01 -9.145275115966796875e+00 1.655056374147534370e-03 1.019227434881031513e-03 8.022851543501019478e-04 8.922522887587547302e-03
3.209000000000000000e+03 3.450131416320800781e+00 4.608828067779541016e+00 5.881298420717939734e-06 1.564299782330635935e-05 6.457288691308349371e-06 -4.216853540128795430e-06
3.210000000000000000e+03 2.789182662963867188e+01 -8.420318603515625000e+00 2.469984292984008789e+00 1.678086161613464355e+00 1.244421124458312988e+00 1.613112568855285645e+00
3.211000000000000000e+03 3.136053276062011719e+01 -8.719268798828125000e+00 1.057821750640869141e+00 3.963831186294555664e+00 1.506495833396911621e+00 -1.310940742492675781e+00
3.212000000000000000e+03 6.111307525634765625e+01 3.058012580871582031e+01 1.678014397621154785e-01 2.676905989646911621e-01 1.306476145982742310e-01 3.795280680060386658e-02
3.213000000000000000e+03 7.280177307128906250e+01 -2.855363273620605469e+01 -1.001374097540974617e-03 8.391078154090791941e-05 -2.752389991655945778e-04 7.180202519521117210e-04
3.214000000000000000e+03 1.505297756195068359e+01 -1.053504753112792969e+01 3.117696046829223633e-01 -1.688656657934188843e-01 4.287118092179298401e-02 2.758710980415344238e-01
3.215000000000000000e+03 1.034094142913818359e+01 -1.202904224395751953e+01 1.133948564529418945e-01 2.865896224975585938e-01 1.199953407049179077e-01 2.429608255624771118e-01
3.216000000000000000e+03 3.759519577026367188e+01 -2.807520484924316406e+01 5.385849252343177795e-02 1.519798874855041504e+00 4.720972180366516113e-01 -1.986857056617736816e-01
3.217000000000000000e+03 1.560562229156494141e+01 3.238755464553833008e+00 2.976849827973637730e-06 2.662451834112289362e-06 1.691790430413675494e-06 -1.161984641839808319e-06
3.218000000000000000e+03 3.633304977416992188e+01 -2.874237775802612305e+00 -1.209824323654174805e+00 2.656571149826049805e+00 4.340240359306335449e-01 1.189393520355224609e+00
3.219000000000000000e+03 1.483318614959716797e+01 3.912108659744262695e+00 5.124370545672718436e-06 -1.848071065069234464e-06 9.828899010244640522e-07 -2.739298224696540274e-06
3.220000000000000000e+03 3.118837165832519531e+01 -9.465129852294921875e+00 6.557364463806152344e-01 3.368360042572021484e+00 1.207228899002075195e+00 -9.807974696159362793e-01
3.221000000000000000e+03 1.934467315673828125e+01 -1.478772735595703125e+01 1.332458574324846268e-02 -1.710287481546401978e-01 -4.731124639511108398e-02 4.430752396583557129e-01
3.222000000000000000e+03 3.617885589599609375e+01 -1.555217170715332031e+01 -6.113135218620300293e-01 1.768673062324523926e+00 3.472078740596771240e-01 -8.415548205375671387e-01
3.223000000000000000e+03 3.652339935302734375e+01 -1.499932575225830078e+01 -4.822942316532135010e-01 1.568411827087402344e+00 3.258352875709533691e-01 -8.018200397491455078e-01
3.224000000000000000e+03 7.556342315673828125e+01 -3.494179916381835938e+01 -1.112811733037233353e-04 -2.027775626629590988e-03 -6.417170516215264797e-04 2.215199638158082962e-03
3.225000000000000000e+03 2.158102989196777344e+01 -1.429145908355712891e+01 2.787408418953418732e-02 -1.018326804041862488e-01 -2.218757942318916321e-02 6.349508166313171387e-01
3.226000000000000000e+03 5.137324905395507812e+01 2.530777549743652344e+01 4.076478481292724609e-01 1.128540515899658203e+00 4.608565270900726318e-01 2.112682312726974487e-01
3.227000000000000000e+03 3.880924224853515625e+01 -4.470543265342712402e-01 -1.301779866218566895e+00 3.598993778228759766e+00 6.891641616821289062e-01 1.646067649126052856e-01
3.228000000000000000e+03 7.570257568359375000e+01 -2.626278686523437500e+01 3.720918321050703526e-04 -4.072952433489263058e-04 -1.056102064467268065e-05 3.563704376574605703e-04
3.229000000000000000e+03 7.574127960205078125e+01 -2.122833442687988281e+01 1.239061821252107620e-04 -3.622815711423754692e-04 -7.151260797400027514e-05 9.035372204380109906e-05
3.230000000000000000e+03 3.695848464965820312e+01 -1.461020469665527344e+01 -3.647905886173248291e-01 1.446868777275085449e+00 3.246234357357025146e-01 -7.967076301574707031e-01
3.231000000000000000e+03 4.500927734375000000e+01 -3.019099044799804688e+01 6.869045644998550415e-02 4.926408827304840088e-01 1.683993935585021973e-01 -2.883189618587493896e-01
3.232000000000000000e+03 7.387126159667968750e+01 2.770957374572753906e+01 4.589286819100379944e-02 -6.832523941993713379e-01 -1.912078559398651123e-01 -8.704720437526702881e-02
3.233000000000000000e+03 5.231098937988281250e+01 2.367498397827148438e+01 4.738890230655670166e-01 9.554309248924255371e-01 4.287959933280944824e-01 1.990011781454086304e-01
3.234000000000000000e+03 3.513167572021484375e+01 -1.194105625152587891e+01 1.516016125679016113e-01 1.198594331741333008e+00 4.050588011741638184e-01 -1.288722157478332520e+00
3.235000000000000000e+03 1.623877906799316406e+01 5.666758537292480469e+00 -8.784903002378996462e-06 2.018346640397794545e-05 3.419568656681803986e-06 1.277550836675800383e-05
3.236000000000000000e+03 8.231875419616699219e+00 3.124007606506347656e+01 1.120337401516735554e-04 -2.981449943035840988e-04 -5.583337770076468587e-05 -1.311923697357997298e-04
3.237000000000000000e+03 2.663888549804687500e+01 -1.077656364440917969e+01 1.032705903053283691e+00 7.938877940177917480e-01 5.479781031608581543e-01 1.086051583290100098e+00
3.238000000000000000e+03 4.133979034423828125e+01 -2.852728080749511719e+01 9.622402489185333252e-02 8.654301166534423828e-01 2.884962260723114014e-01 -3.490722775459289551e-01
3.239000000000000000e+03 3.955783462524414062e+01 -2.909836006164550781e+01 1.609215326607227325e-02 1.130878925323486328e+00 3.440913259983062744e-01 -3.087159097194671631e-01
3.240000000000000000e+03 7.543368530273437500e+01 -1.811308860778808594e+01 9.701467934064567089e-05 6.902538007125258446e-05 4.981201709597371519e-05 1.053667947417125106e-04
3.241000000000000000e+03 2.813933372497558594e+01 -1.217991828918457031e+01 1.701857298612594604e-01 1.279399514198303223e+00 4.348755776882171631e-01 6.296125054359436035e-01
3.242000000000000000e+03 1.576035785675048828e+01 -8.212721824645996094e+00 2.870151102542877197e-01 -2.120850831270217896e-01 2.247900702059268951e-02 1.284462064504623413e-01
3.243000000000000000e+03 7.485266113281250000e+01 -7.144779682159423828e+00 -1.028708461672067642e-02 -6.355179473757743835e-03 -4.992679227143526077e-03 4.314840305596590042e-03
3.244000000000000000e+03 1.606034660339355469e+01 6.414587974548339844e+00 1.470492406951962039e-05 -6.526797278638696298e-06 2.453437900840071961e-06 -4.216270554024958983e-06
3.245000000000000000e+03 1.506628131866455078e+01 5.624667644500732422e+00 1.223764320457121357e-05 1.192096533486619592e-05 7.247582743730163202e-06 1.276780494663398713e-05
3.246000000000000000e+03 2.996860885620117188e+01 -1.088044452667236328e+01 2.538117170333862305e-01 2.470579624176025391e+00 8.173174262046813965e-01 -4.632900282740592957e-02
3.247000000000000000e+03 5.938758087158203125e+01 2.767546415328979492e+00 -7.873956561088562012e-01 6.013017147779464722e-02 -2.181796431541442871e-01 -3.637904822826385498e-01
3.248000000000000000e+03 7.854936122894287109e+00 2.918063163757324219e+01 1.367296063108369708e-04 -2.442667901050299406e-04 -3.226115222787484527e-05 -6.815134838689118624e-05
3.249000000000000000e+03 6.999372959136962891e+00 2.836632728576660156e+01 -1.322117168456315994e-05 1.523283717688173056e-04 4.173216075287200511e-05 -5.721530760638415813e-05
3.250000000000000000e+03 2.423962593078613281e+01 -1.195833206176757812e+01 6.525915265083312988e-01 2.434326335787773132e-02 2.030804455280303955e-01 9.059454202651977539e-01
3.251000000000000000e+03 1.429603195190429688e+01 6.088016033172607422e+00 -5.223631887929514050e-06 -1.469992366764927283e-05 -5.977066848572576419e-06 -1.082577182387467474e-05
3.252000000000000000e+03 6.891783905029296875e+01 2.450811004638671875e+01 1.395323127508163452e-01 -3.553513586521148682e-01 -6.474570930004119873e-02 -1.536160856485366821e-01
3.253000000000000000e+03 6.319983673095703125e+01 1.852540397644042969e+01 3.110194206237792969e-01 -1.162548959255218506e-01 5.842935666441917419e-02 -2.887558937072753906e-01
3.254000000000000000e+03 5.182504653930664062e+01 2.141296768188476562e+01 5.630461573600769043e-01 9.475356340408325195e-01 4.531745612621307373e-01 2.320009171962738037e-01
3.255000000000000000e+03 2.597961807250976562e+01 -1.096095275878906250e+01 1.026517868041992188e+00 4.734897017478942871e-01 4.500022530555725098e-01 1.059534907341003418e+00
3.256000000000000000e+03 5.986214637756347656e+00 5.620763778686523438e+00 1.177846297650830820e-05 -1.219247587869176641e-05 -1.242040781335163047e-07 -2.286321614519692957e-05
3.257000000000000000e+03 8.127407073974609375e+00 -7.067488670349121094e+00 -5.317074060440063477e-02 1.103269234299659729e-01 1.714685373008251190e-02 -2.014322951436042786e-02
3.258000000000000000e+03 6.394301223754882812e+01 1.735499000549316406e+01 2.667970359325408936e-01 -1.591687202453613281e-01 3.228849545121192932e-02 -3.356151878833770752e-01
3.259000000000000000e+03 4.892661666870117188e+01 1.269004631042480469e+01 1.181798696517944336e+00 5.740164518356323242e-01 5.267445445060729980e-01 4.344208538532257080e-01
3.260000000000000000e+03 5.681547164916992188e+01 2.250112724304199219e+01 4.762237071990966797e-01 3.944202065467834473e-01 2.611931860446929932e-01 3.189047798514366150e-02
3.261000000000000000e+03 5.183961391448974609e+00 2.720744132995605469e+01 6.661235966021195054e-05 7.347901555476710200e-05 4.202741183689795434e-05 -1.561057615617755800e-05
3.262000000000000000e+03 1.032605743408203125e+01 -6.431849002838134766e+00 -1.758848316967487335e-02 6.387677043676376343e-02 1.388648524880409241e-02 3.166586905717849731e-02
3.263000000000000000e+03 1.000417423248291016e+01 -7.033383369445800781e+00 -1.721082255244255066e-02 7.896310836076736450e-02 1.852568611502647400e-02 3.484671935439109802e-02
3.264000000000000000e+03 6.725778961181640625e+01 4.754992961883544922e+00 -2.495473772287368774e-01 -3.426881507039070129e-02 -8.514485508203506470e-02 -3.608023524284362793e-01
3.265000000000000000e+03 1.208235454559326172e+01 -6.879908084869384766e+00 4.932961985468864441e-02 6.720430217683315277e-03 1.681501418352127075e-02 6.766884028911590576e-02
3.266000000000000000e+03 5.474065780639648438e+01 1.932926368713378906e+01 6.333401203155517578e-01 4.487017989158630371e-01 3.246125876903533936e-01 6.180284544825553894e-02
3.267000000000000000e+03 7.324746704101562500e+01 -1.753281831741333008e+00 -7.566916942596435547e-02 -2.570194005966186523e-02 -3.041133470833301544e-02 -6.298676878213882446e-02
3.268000000000000000e+03 4.838878250122070312e+01 1.342756748199462891e+01 1.161451935768127441e+00 8.840075135231018066e-01 6.136378049850463867e-01 5.849910378456115723e-01
3.269000000000000000e+03 4.800726318359375000e+01 1.250645065307617188e+01 1.246392130851745605e+00 8.138401508331298828e-01 6.180696487426757812e-01 6.150283813476562500e-01
3.270000000000000000e+03 2.089976119995117188e+01 -9.638059616088867188e+00 8.735457658767700195e-01 -5.131461620330810547e-01 1.081198677420616150e-01 3.363274633884429932e-01
3.271000000000000000e+03 1.024637413024902344e+01 5.041305065155029297e+00 -5.034726200392469764e-06 -1.242244024979299866e-06 -1.883091044874163345e-06 7.273094979609595612e-06
3.272000000000000000e+03 9.999023437500000000e+00 5.880061626434326172e+00 -1.409154538123402745e-05 -8.900959073798730969e-06 -6.897751518408767879e-06 -2.730596406763652340e-06
3.273000000000000000e+03 1.275019359588623047e+01 8.349723815917968750e+00 1.905714088934473693e-05 7.093507861100079026e-07 5.929947292315773666e-06 2.753196667981683277e-06
3.274000000000000000e+03 5.082784271240234375e+01 1.855177307128906250e+01 7.105429172515869141e-01 9.595601558685302734e-01 5.010309219360351562e-01 3.194606900215148926e-01
3.275000000000000000e+03 6.912606811523437500e+01 6.042709350585937500e+00 -1.616252660751342773e-01 -8.812001347541809082e-02 -7.492358237504959106e-02 -3.476723134517669678e-01
3.276000000000000000e+03 5.366046142578125000e+01 1.294968605041503906e+01 7.200886607170104980e-01 4.027526080608367920e-02 2.281091660261154175e-01 -2.317311763763427734e-01
3.277000000000000000e+03 1.053836250305175781e+01 5.504868507385253906e+00 1.386182248097611591e-05 9.724825758894439787e-06 7.075994744809577242e-06 2.628677066240925342e-06
3.278000000000000000e+03 5.458416748046875000e+01 1.674607658386230469e+01 7.033617496490478516e-01 2.668044269084930420e-01 2.910498380661010742e-01 -3.754850849509239197e-02
3.279000000000000000e+03 5.377907180786132812e+01 1.845639228820800781e+01 6.938072443008422852e-01 5.045603513717651367e-01 3.595102727413177490e-01 1.067966595292091370e-01
3.280000000000000000e+03 5.652005004882812500e+01 1.751837539672851562e+01 6.042628884315490723e-01 1.791198104619979858e-01 2.350148111581802368e-01 -1.125509068369865417e-01
3.281000000000000000e+03 6.186717987060546875e+01 9.757575988769531250e+00 -3.503191098570823669e-02 -9.186578541994094849e-02 -3.806930780410766602e-02 -5.660072565078735352e-01
3.282000000000000000e+03 5.649915313720703125e+01 1.461328220367431641e+01 5.707071423530578613e-01 2.333255298435688019e-02 1.782119125127792358e-01 -2.860637307167053223e-01
3.283000000000000000e+03 7.539549827575683594e+00 1.260704231262207031e+01 -7.106213615770684555e-06 -1.932852501340676099e-05 -7.930421816126909107e-06 -7.459165317413862795e-06
3.284000000000000000e+03 8.286847114562988281e+00 1.187838649749755859e+01 6.986915195739129558e-06 4.696060932474210858e-05 1.618425812921486795e-05 1.596437505213543773e-05
3.285000000000000000e+03 6.581075286865234375e+01 1.198853874206542969e+01 4.438779875636100769e-02 -1.727070063352584839e-01 -3.849576041102409363e-02 -4.646162688732147217e-01
3.286000000000000000e+03 8.700025558471679688e+00 9.225924491882324219e+00 -1.954749131982680410e-05 2.241939364466816187e-05 8.615706406089884695e-07 -1.324732693319674581e-05
3.287000000000000000e+03 9.204867362976074219e+00 8.343190193176269531e+00 6.250971182453213260e-06 2.103426777466665953e-05 8.185571459762286395e-06 -8.607978088548406959e-06
3.288000000000000000e+03 8.588792800903320312e+00 8.447453498840332031e+00 1.701903966022655368e-05 -5.672533916367683560e-06 3.403951950531336479e-06 7.196354545158101246e-06
3.289000000000000000e+03 7.190987396240234375e+01 -1.413351440429687500e+01 3.129210745100863278e-05 4.765722042066045105e-05 2.368479908909648657e-05 1.583279845362994820e-05
3.290000000000000000e+03 7.117191314697265625e+01 -1.423426437377929688e+01 -6.730714630975853652e-06 -2.509679688955657184e-05 -9.548253729008138180e-06 -6.907015176693676040e-06
3.291000000000000000e+03 7.054098510742187500e+01 -1.506571102142333984e+01 -5.854351184098049998e-05 -2.253295133414212614e-05 -2.432293877063784748e-05 -2.375225449213758111e-05
3.292000000000000000e+03 7.272534942626953125e+01 -1.476733016967773438e+01 6.827485776739194989e-05 7.729471690254285932e-05 4.367087240098044276e-05 4.451268614502623677e-05
3.293000000000000000e+03 7.199845123291015625e+01 -1.486828804016113281e+01 -3.066124554607085884e-05 -6.652405863860622048e-05 -2.915559161920100451e-05 -2.994014175783377141e-05
3.294000000000000000e+03 7.127030181884765625e+01 -1.496769714355468750e+01 6.287183350650593638e-05 5.082647112431004643e-05 3.410949284443631768e-05 4.955087206326425076e-05
3.295000000000000000e+03 7.264659118652343750e+01 -1.403121566772460938e+01 3.378191877345670946e-06 -7.003980135777965188e-05 -1.999848245759494603e-05 -5.649881586577976122e-06
3.296000000000000000e+03 7.043277740478515625e+01 -1.433362007141113281e+01 2.540931200201157480e-05 1.374762996420031413e-05 1.174708268081303686e-05 1.089486340788425878e-05
3.297000000000000000e+03 7.413023376464843750e+01 -1.390827560424804688e+01 6.009237495163688436e-06 -1.114543047151528299e-04 -3.163352084811776876e-05 -5.287546628096606582e-06
3.298000000000000000e+03 7.418925476074218750e+01 -1.464601135253906250e+01 6.776140799047425389e-05 9.577207674738019705e-05 4.906004323856905103e-05 3.211830699001438916e-05
3.299000000000000000e+03 7.345582580566406250e+01 -1.469340133666992188e+01 -2.929689799202606082e-05 -9.165907249553129077e-05 -3.628679041867144406e-05 -3.164415466017089784e-05
3.300000000000000000e+03 7.487351226806640625e+01 -1.386064338684082031e+01 3.582375939004123211e-05 1.260061981156468391e-04 4.854898725170642138e-05 2.316054633411113173e-06
3.301000000000000000e+03 7.492264556884765625e+01 -1.459901237487792969e+01 -2.014457822951953858e-05 -1.062697047018446028e-04 -3.792428469751030207e-05 -2.433126246614847332e-05
3.302000000000000000e+03 7.565595245361328125e+01 -1.455239677429199219e+01 4.521983646554872394e-05 9.910837979987263680e-05 4.329846706241369247e-05 -7.153361821110593155e-06
3.303000000000000000e+03 7.561669921875000000e+01 -1.381339359283447266e+01 4.215212356939446181e-06 -1.277987175853922963e-04 -3.707505311467684805e-05 5.398388111643726006e-06
3.304000000000000000e+03 7.338691711425781250e+01 -1.395629978179931641e+01 3.897078204317949712e-05 8.998002158477902412e-05 3.868524072458967566e-05 9.940487871062941849e-06
3.305000000000000000e+03 7.636968994140625000e+01 -1.377867794036865234e+01 2.623516593303065747e-05 9.823247091844677925e-05 3.734029087354429066e-05 -1.790107489796355367e-05
3.306000000000000000e+03 7.711952209472656250e+01 -1.377026462554931641e+01 3.004302925546653569e-05 -1.641285780351608992e-05 4.089051799383014441e-06 5.249565947451628745e-05
3.307000000000000000e+03 7.880826568603515625e+01 -1.359098052978515625e+01 5.930503448325907812e-06 -7.016745075816288590e-05 -1.927108496602158993e-05 -7.934630048112012446e-06
3.308000000000000000e+03 7.957907104492187500e+01 -1.383945655822753906e+01 1.915928078233264387e-05 4.035952952108345926e-05 1.785564381862059236e-05 -2.040309118456207216e-05
3.309000000000000000e+03 7.818760681152343750e+01 -1.360080337524414062e+01 1.335981651209294796e-04 5.675186184816993773e-05 5.710500772693194449e-05 -7.349913175858091563e-06
3.310000000000000000e+03 7.770421600341796875e+01 -1.456077384948730469e+01 8.761539356783032417e-05 -1.179209357360377908e-04 -9.091661922866478562e-06 3.381868009455502033e-05
3.311000000000000000e+03 7.832720947265625000e+01 -1.463026809692382812e+01 1.636894194234628230e-05 1.357009168714284897e-04 4.562095637083984911e-05 1.062494811776559800e-05
3.312000000000000000e+03 7.636756134033203125e+01 -1.452004623413085938e+01 -8.106855602818541229e-06 -8.425323903793469071e-05 -2.770802893792279065e-05 4.271864236216060817e-05
3.313000000000000000e+03 7.868551635742187500e+01 -1.398741340637207031e+01 -2.651467220857739449e-04 -6.555283471243456006e-05 -9.920987213263288140e-05 -1.761594176059588790e-04
3.314000000000000000e+03 7.704452514648437500e+01 -1.451572895050048828e+01 -1.710885044303722680e-05 8.846412674756720662e-05 2.140658216376323253e-05 -1.039367271005176008e-04
3.315000000000000000e+03 7.932569885253906250e+01 -1.446048069000244141e+01 4.054391174577176571e-04 5.197596692596562207e-05 1.372245169477537274e-04 5.856600910192355514e-05
3.316000000000000000e+03 7.842517852783203125e+01 -1.427305221557617188e+01 2.062787971226498485e-04 4.436211747815832496e-05 7.519227801822125912e-05 1.316780108027160168e-04
3.317000000000000000e+03 7.781768798828125000e+01 -1.396652030944824219e+01 -1.578525116201490164e-04 -6.956441211514174938e-05 -6.822507566539570689e-05 -4.276609251974150538e-05
3.318000000000000000e+03 7.885647583007812500e+01 -1.460024929046630859e+01 -2.479798858985304832e-04 -1.502363884355872869e-04 -1.194648866658098996e-04 5.036181755713187158e-05
3.319000000000000000e+03 7.711834716796875000e+01 -1.299776554107666016e+01 6.624577101320028305e-03 2.280444750795140862e-04 2.055786550045013428e-03 1.673583406955003738e-03
3.320000000000000000e+03 7.789198303222656250e+01 -1.297994422912597656e+01 3.689955919981002808e-03 2.569710195530205965e-04 1.184078049845993519e-03 1.360250287689268589e-03
3.321000000000000000e+03 7.903719329833984375e+01 -1.217878055572509766e+01 8.893834892660379410e-04 1.600882387720048428e-03 7.470797863788902760e-04 1.675338251516222954e-03
3.322000000000000000e+03 7.634127044677734375e+01 -1.300821304321289062e+01 1.070862077176570892e-02 2.502720744814723730e-04 3.287667874246835709e-03 2.264608163386583328e-03
3.323000000000000000e+03 7.865165710449218750e+01 -1.295684051513671875e+01 1.117805833928287029e-03 5.790265277028083801e-05 3.527125227265059948e-04 9.664172539487481117e-04
3.324000000000000000e+03 7.934807586669921875e+01 -1.291915225982666016e+01 7.410161197185516357e-04 7.150996825657784939e-04 4.368347581475973129e-04 -2.172608037653844804e-05
3.325000000000000000e+03 7.966441345214843750e+01 -1.234435749053955078e+01 7.281152647919952869e-05 5.759980995208024979e-04 1.946428965311497450e-04 8.328575640916824341e-04
3.326000000000000000e+03 7.627622985839843750e+01 -1.226877021789550781e+01 7.882813923060894012e-03 2.479210379533469677e-04 2.439220668748021126e-03 4.656155593693256378e-03
3.327000000000000000e+03 7.770402526855468750e+01 -1.224003696441650391e+01 3.733506659045815468e-03 9.604187798686325550e-04 1.408177660778164864e-03 3.791165770962834358e-03
3.328000000000000000e+03 7.840223693847656250e+01 -1.221670055389404297e+01 2.850464079529047012e-03 1.238021883182227612e-03 1.226545777171850204e-03 2.880139974877238274e-03
3.329000000000000000e+03 7.699185180664062500e+01 -1.225809097290039062e+01 6.562365684658288956e-03 7.803451735526323318e-04 2.202813280746340752e-03 4.945053718984127045e-03
3.330000000000000000e+03 7.406774902343750000e+01 -1.312981986999511719e+01 1.881162077188491821e-02 -1.095693151000887156e-04 5.610615480691194534e-03 2.095908625051379204e-03
3.331000000000000000e+03 7.400872802734375000e+01 -1.239208412170410156e+01 1.412935927510261536e-02 -7.005740772001445293e-04 4.028635565191507339e-03 3.214309923350811005e-03
3.332000000000000000e+03 7.557528686523437500e+01 -1.303425216674804688e+01 1.403683796525001526e-02 3.056199057027697563e-05 4.220220260322093964e-03 2.216712804511189461e-03
3.333000000000000000e+03 7.331423187255859375e+01 -1.317915630340576172e+01 2.048457786440849304e-02 9.045688784681260586e-06 6.148086860775947571e-03 1.883753575384616852e-03
3.334000000000000000e+03 7.482145690917968750e+01 -1.308151912689208984e+01 1.682077720761299133e-02 2.657314471434801817e-04 5.125952884554862976e-03 2.361802617087960243e-03
3.335000000000000000e+03 7.553604125976562500e+01 -1.229524612426757812e+01 1.042864751070737839e-02 1.747110509313642979e-04 3.181007690727710724e-03 5.040339659899473190e-03
3.336000000000000000e+03 7.324532318115234375e+01 -1.244205474853515625e+01 1.424593478441238403e-02 -2.749439445324242115e-04 4.191297572106122971e-03 2.056478755548596382e-03
3.337000000000000000e+03 7.477232360839843750e+01 -1.234315013885498047e+01 1.231644488871097565e-02 -2.695602597668766975e-04 3.614065470173954964e-03 3.897597081959247589e-03
3.338000000000000000e+03 7.096827697753906250e+01 -1.272444248199462891e+01 1.328129041939973831e-02 -3.176180412992835045e-03 3.031532978639006615e-03 -2.906801644712686539e-03
3.339000000000000000e+03 7.106666564941406250e+01 -1.345787525177001953e+01 1.478858292102813721e-02 1.045665005221962929e-03 4.750274587422609329e-03 3.697058709803968668e-04
3.340000000000000000e+03 7.031845092773437500e+01 -1.356116008758544922e+01 1.150621380656957626e-02 -2.447172999382019043e-03 2.717712428420782089e-03 -3.717692452482879162e-04
3.341000000000000000e+03 7.181496429443359375e+01 -1.335562419891357422e+01 1.795567944645881653e-02 -1.144949696026742458e-03 5.043219309300184250e-03 1.127296709455549717e-03
3.342000000000000000e+03 7.172639465332031250e+01 -1.262085151672363281e+01 1.398457959294319153e-02 -6.799613474868237972e-04 3.991385456174612045e-03 -9.480235166847705841e-04
3.343000000000000000e+03 7.256328582763671875e+01 -1.325442695617675781e+01 1.991312019526958466e-02 5.102897994220256805e-04 6.127023138105869293e-03 1.817361335270106792e-03
3.344000000000000000e+03 7.248452758789062500e+01 -1.251831245422363281e+01 1.497156545519828796e-02 -1.858990406617522240e-03 3.933772444725036621e-03 7.581704994663596153e-05
3.345000000000000000e+03 7.021024322509765625e+01 -1.282906818389892578e+01 1.008079107850790024e-02 -1.154338751803152263e-04 2.989607164636254311e-03 -3.492689924314618111e-03
3.346000000000000000e+03 6.946450042724609375e+01 -1.368148803710937500e+01 6.102081388235092163e-03 1.387023716233670712e-03 2.246731659397482872e-03 -1.410242402926087379e-03
3.347000000000000000e+03 6.942981719970703125e+01 -1.293651866912841797e+01 8.625254034996032715e-03 -3.272335510700941086e-03 1.605875440873205662e-03 -4.829030018299818039e-03
3.348000000000000000e+03 6.844756317138671875e+01 -1.325969314575195312e+01 6.231389939785003662e-03 2.758358139544725418e-03 2.696924377232789993e-03 -2.167787170037627220e-03
3.349000000000000000e+03 6.787104797363281250e+01 -1.338530731201171875e+01 1.119393855333328247e-03 5.802447907626628876e-03 2.076552482321858406e-03 7.350677042268216610e-04
3.350000000000000000e+03 6.822621154785156250e+01 -1.295994949340820312e+01 5.690491292625665665e-03 3.070547711104154587e-03 2.628311747685074806e-03 -4.293287172913551331e-03
3.351000000000000000e+03 6.794889068603515625e+01 -1.309183692932128906e+01 3.063578624278306961e-03 2.511620754376053810e-03 1.672559767030179501e-03 -2.946580294519662857e-03
3.352000000000000000e+03 6.875301361083984375e+01 -1.294659233093261719e+01 7.404220756143331528e-03 2.104936866089701653e-03 2.852747449651360512e-03 -3.859669202938675880e-03
3.353000000000000000e+03 6.854268646240234375e+01 -1.381786727905273438e+01 9.423029259778559208e-04 -2.710207831114530563e-03 -5.303714424371719360e-04 -1.797717413865029812e-03
3.354000000000000000e+03 6.915425872802734375e+01 -1.528317165374755859e+01 -5.450876415125094354e-05 -1.762628744472749531e-05 -2.164051511499565095e-05 -1.383056678605498746e-05
3.355000000000000000e+03 6.981649780273437500e+01 -1.516665935516357422e+01 6.688549183309078217e-05 1.884217635961249471e-05 2.571830191300250590e-05 1.604508906893897802e-05
3.356000000000000000e+03 6.849820709228515625e+01 -1.521993160247802734e+01 1.077931665349751711e-05 5.812271865579532459e-06 4.977476692147320136e-06 1.344627708022017032e-05
3.357000000000000000e+03 6.962475585937500000e+01 -1.444882297515869141e+01 -1.553614310978446156e-05 -5.895737103855935857e-06 -6.429563654819503427e-06 -1.498331130278529599e-06
3.358000000000000000e+03 6.880525207519531250e+01 -1.459250164031982422e+01 2.477216730767395347e-05 7.755413207632955164e-06 9.758274245541542768e-06 4.573554974740545731e-07
3.359000000000000000e+03 1.628620338439941406e+01 -1.255944609642028809e+00 -2.316141873598098755e-01 -1.868180371820926666e-02 -7.508879899978637695e-02 -5.255306605249643326e-03
3.360000000000000000e+03 1.779829025268554688e+01 -2.059187889099121094e+00 -2.964593172073364258e-01 -2.291923202574253082e-02 -9.581356495618820190e-02 -1.009140014648437500e-01
3.361000000000000000e+03 1.623538208007812500e+01 -1.994474172592163086e+00 -1.972827017307281494e-01 -1.181599590927362442e-02 -6.272961199283599854e-02 -3.170002251863479614e-02
3.362000000000000000e+03 1.858121871948242188e+01 -2.091711521148681641e+00 -3.468895852565765381e-01 -7.771764695644378662e-02 -1.273821741342544556e-01 -1.598168760538101196e-01
3.363000000000000000e+03 1.856809425354003906e+01 -1.350533485412597656e+00 -4.633861482143402100e-01 1.001656404696404934e-03 -1.387153416872024536e-01 -5.838979035615921021e-02
3.364000000000000000e+03 1.704577255249023438e+01 -1.287305474281311035e+00 -2.711696028709411621e-01 1.017593685537576675e-02 -7.829809933900833130e-02 -1.320308260619640350e-02
3.365000000000000000e+03 1.701626777648925781e+01 -2.026717901229858398e+00 -2.402180433273315430e-01 -3.519053757190704346e-02 -8.262257277965545654e-02 -6.639656424522399902e-02
3.366000000000000000e+03 1.780648040771484375e+01 -1.318892598152160645e+00 -3.414438068866729736e-01 -2.469473145902156830e-02 -1.098415628075599670e-01 -3.054126352071762085e-02
3.367000000000000000e+03 2.016102409362792969e+01 -1.984116315841674805e+00 -5.395249724388122559e-01 -9.808057546615600586e-02 -1.912816613912582397e-01 -2.416778206825256348e-01
3.368000000000000000e+03 1.932956504821777344e+01 -1.326877713203430176e+00 -5.841526389122009277e-01 -5.970939248800277710e-02 -1.931586116552352905e-01 -1.060829311609268188e-01
3.369000000000000000e+03 2.095439147949218750e+01 -1.900163888931274414e+00 -6.550191044807434082e-01 -5.610472336411476135e-02 -2.133371382951736450e-01 -2.827021777629852295e-01
3.370000000000000000e+03 1.936882019042968750e+01 -2.066858530044555664e+00 -4.270584285259246826e-01 -5.993478372693061829e-02 -1.460979580879211426e-01 -1.888798475265502930e-01
3.371000000000000000e+03 2.174835014343261719e+01 -1.814883351325988770e+00 -7.370400428771972656e-01 -9.220132231712341309e-02 -2.487724125385284424e-01 -2.938297688961029053e-01
3.372000000000000000e+03 2.161623764038085938e+01 -1.084643244743347168e+00 -1.008966922760009766e+00 -5.791434552520513535e-03 -3.044275045394897461e-01 -2.121924608945846558e-01
3.373000000000000000e+03 2.009082221984863281e+01 -1.247412800788879395e+00 -6.920422315597534180e-01 3.456409787759184837e-03 -2.065757513046264648e-01 -1.410696506500244141e-01
3.374000000000000000e+03 2.085324478149414062e+01 -1.166737556457519531e+00 -8.350428342819213867e-01 -6.971754133701324463e-02 -2.714281082153320312e-01 -1.660443395376205444e-01
3.375000000000000000e+03 2.387390518188476562e+01 -4.479292035102844238e-01 -3.322698771953582764e-01 6.971734762191772461e-02 -7.876575738191604614e-02 1.799758821725845337e-01
3.376000000000000000e+03 2.338660240173339844e+01 -1.393575310707092285e+00 -1.205517888069152832e+00 2.390814721584320068e-01 -2.899309098720550537e-01 -1.381479501724243164e-01
3.377000000000000000e+03 2.463154602050781250e+01 -7.788130044937133789e-01 -9.849789738655090332e-01 -2.607780992984771729e-01 -3.737271130084991455e-01 3.774502575397491455e-01
3.378000000000000000e+03 2.316317939758300781e+01 -6.830692291259765625e-01 -7.393354177474975586e-01 1.748245507478713989e-01 -1.693532764911651611e-01 -7.080420851707458496e-02
3.379000000000000000e+03 2.239013290405273438e+01 -9.233466386795043945e-01 -9.974682331085205078e-01 -7.571757584810256958e-02 -3.219557404518127441e-01 -1.951225101947784424e-01
3.380000000000000000e+03 2.256301116943359375e+01 -1.645976901054382324e+00 -9.296601414680480957e-01 1.071624159812927246e-01 -2.467493116855621338e-01 -2.124147862195968628e-01
3.381000000000000000e+03 2.414787673950195312e+01 -1.146310925483703613e+00 -1.473951220512390137e+00 2.219765484333038330e-01 -3.755924105644226074e-01 -7.036884129047393799e-02
3.382000000000000000e+03 2.268977355957031250e+01 7.519461512565612793e-01 1.317450141868903302e-06 3.812188822394091403e-07 5.096007384963741060e-07 1.118920522458211053e-06
3.383000000000000000e+03 2.288392829895019531e+01 3.258301690220832825e-02 -4.432273499332950450e-07 -8.842919783091929276e-07 -3.982557927884045057e-07 2.993501482251303969e-07
3.384000000000000000e+03 2.203942871093750000e+01 5.569665431976318359e-01 -5.850799311701848637e-07 -1.860181782831205055e-06 -7.335784744100237731e-07 -1.173204736915067770e-06
3.385000000000000000e+03 2.220252990722656250e+01 -1.685228794813156128e-01 4.117547405257937498e-07 1.468063260290364269e-06 5.639453775074798614e-07 6.980509681397961685e-08
3.386000000000000000e+03 2.341383171081542969e+01 3.852292895317077637e-01 1.035049024267209461e-07 4.797443580173421651e-07 1.749747724488770473e-07 -1.307322605725858011e-07
3.387000000000000000e+03 2.074801826477050781e+01 -3.961672186851501465e-01 2.433105805721424986e-07 2.900591653087758459e-06 9.431706757823121734e-07 -1.181600381983116677e-07
3.388000000000000000e+03 2.001827239990234375e+01 -4.734351336956024170e-01 -5.167348859913545311e-08 -3.145252549074939452e-06 -9.590778518031584099e-07 2.853315095308062155e-07
3.389000000000000000e+03 2.134514999389648438e+01 4.143537878990173340e-01 7.233069965195682016e-08 2.482926674929331057e-06 7.665772159271000419e-07 6.902384939166950062e-07
3.390000000000000000e+03 1.924920082092285156e+01 1.924032717943191528e-01 -1.052877905749483034e-06 -1.731718839437235147e-06 -8.353790690307505429e-07 1.860829534905406035e-08
3.391000000000000000e+03 1.994807052612304688e+01 2.632684409618377686e-01 6.089255748520372435e-07 1.874549980129813775e-06 7.450426551258715335e-07 -3.145037794638483319e-07
3.392000000000000000e+03 2.064687156677246094e+01 3.372591733932495117e-01 7.566479887088917167e-09 -2.398392553004669026e-06 -7.172478149186645169e-07 4.040642664904225967e-08
3.393000000000000000e+03 1.928845596313476562e+01 -5.475775003433227539e-01 4.823902486350561958e-07 3.168348030158085749e-06 1.095221477953600697e-06 -1.501021813510305947e-07
3.394000000000000000e+03 2.147724342346191406e+01 -3.157954216003417969e-01 -1.140394090271001915e-08 -2.263172973471228033e-06 -6.823730700489250012e-07 -1.010387684630131844e-08
3.395000000000000000e+03 1.707793617248535156e+01 -5.109162330627441406e-01 -2.452586613799212500e-07 -2.766510760920937173e-06 -9.035308607963088434e-07 4.789676211203186540e-08
3.396000000000000000e+03 1.633993148803710938e+01 -4.782602787017822266e-01 5.176838726583810057e-07 2.618858161440584809e-06 9.409626500200829469e-07 1.813611447687435430e-07
3.397000000000000000e+03 1.781616592407226562e+01 -5.415064096450805664e-01 2.818734969878278207e-07 3.052906549783074297e-06 1.000433940134826116e-06 -1.037880750232034188e-07
3.398000000000000000e+03 1.854128074645996094e+01 1.711868941783905029e-01 5.831067255712696351e-07 1.611525590305973310e-06 6.583896947631728835e-07 -7.775592791858798591e-08
3.399000000000000000e+03 1.855440711975097656e+01 -5.699911117553710938e-01 -1.065198347305340576e-07 -3.171592425132985227e-06 -9.834336651692865416e-07 3.810666271419904660e-08
3.400000000000000000e+03 1.639075088500976562e+01 2.602692842483520508e-01 -1.482114157624891959e-06 -1.796819788069115020e-06 -9.836801382334670052e-07 -1.432845095905577182e-07
3.401000000000000000e+03 1.710744285583496094e+01 2.284961640834808350e-01 8.749313451517082285e-07 1.766164132277481258e-06 7.923286489130987320e-07 -1.968798244433855871e-07
3.402000000000000000e+03 1.782435607910156250e+01 1.987887471914291382e-01 -5.801285851703141816e-07 -1.619470822333823889e-06 -6.598798449886089657e-07 1.314556357101537287e-07
3.403000000000000000e+03 1.421318435668945312e+01 5.040000677108764648e-01 1.336860805167816579e-06 2.268191110488260165e-06 1.081515620171558112e-06 9.715532769405399449e-07
3.404000000000000000e+03 1.412459087371826172e+01 -2.306861728429794312e-01 -5.409380037235678174e-07 -3.655507725852658041e-06 -1.258933707504183985e-06 -7.407264206449326593e-07
3.405000000000000000e+03 1.338628387451171875e+01 -1.375386416912078857e-01 5.381566552387084812e-07 4.344376520748483017e-06 1.464759861846687272e-06 9.336581570096313953e-07
3.406000000000000000e+03 1.486306858062744141e+01 -3.233485221862792969e-01 4.614842623595905025e-07 3.145909431623294950e-06 1.082218091141839977e-06 5.140680059412261471e-07
3.407000000000000000e+03 1.566856193542480469e+01 3.219058215618133545e-01 1.104877696889161598e-06 1.721279204502934590e-06 8.478470476802613121e-07 4.853455379816296045e-07
3.408000000000000000e+03 1.560165977478027344e+01 -4.155019819736480713e-01 -3.268732768901827512e-07 -2.769382490441785194e-06 -9.288767159887356684e-07 -4.184209387858572882e-07
3.409000000000000000e+03 1.348572158813476562e+01 5.957868695259094238e-01 -1.754910044837743044e-06 -2.626154355311882682e-06 -1.314319320044887718e-06 -1.320840397056599613e-06
3.410000000000000000e+03 1.494081592559814453e+01 4.126985073089599609e-01 -1.355258177682117093e-06 -1.924428943311795592e-06 -9.839061476668575779e-07 -8.130821242957608774e-07
3.411000000000000000e+03 1.115022563934326172e+01 2.165033817291259766e-01 -8.411801672991714440e-07 -6.379294063663110137e-06 -2.166142394344205968e-06 -8.676964853293611668e-07
3.412000000000000000e+03 1.122651290893554688e+01 9.537453055381774902e-01 9.984900088966242038e-07 4.122859536437317729e-06 1.536404852231498808e-06 7.453431294379697647e-07
3.413000000000000000e+03 1.040434932708740234e+01 3.321511745452880859e-01 -4.934302069159457460e-07 6.678013505734270439e-06 1.855374989645497408e-06 4.037621579300321173e-07
3.414000000000000000e+03 1.189680099487304688e+01 9.631319344043731689e-02 2.338517788302851841e-07 5.737825631513260305e-06 1.791503223103063647e-06 8.889745686246897094e-07
3.415000000000000000e+03 1.274307727813720703e+01 7.053368687629699707e-01 1.102322130464017391e-06 2.986658728332258761e-06 1.226694280376250390e-06 1.354483970317232888e-06
3.416000000000000000e+03 1.264393043518066406e+01 -2.822761237621307373e-02 -5.819825332764594350e-07 -5.026298822485841811e-06 -1.682484480625134893e-06 -1.028973770189622883e-06
3.417000000000000000e+03 1.046920776367187500e+01 1.071231842041015625e+00 3.468318823252047878e-07 -4.253538918419508263e-06 -1.172012161987368017e-06 -1.392381250298058148e-07
3.418000000000000000e+03 1.198451900482177734e+01 8.317164182662963867e-01 -1.236063667420239653e-06 -3.674831987154902890e-06 -1.473268639529123902e-06 -1.363059709547087550e-06
3.419000000000000000e+03 9.722556114196777344e+00 1.127092480659484863e+00 1.811163997444964480e-06 4.648929461836814880e-06 1.938027935466379859e-06 -6.790234579057141673e-07
3.420000000000000000e+03 8.893199920654296875e+00 3.828711509704589844e-01 8.625528380434843712e-08 5.292844889481784776e-06 1.613730091776233166e-06 1.543224072975135641e-07
3.421000000000000000e+03 8.134614944458007812e+00 3.804794847965240479e-01 -6.151275329102645628e-07 -4.144994818489067256e-06 -1.428036739525850862e-06 3.178285226113075623e-07
3.422000000000000000e+03 7.376657485961914062e+00 3.794998824596405029e-01 1.401473070927750086e-07 2.414883510937215760e-06 7.665092311981425155e-07 -7.195599778242467437e-07
3.423000000000000000e+03 5.861315727233886719e+00 3.756705820560455322e-01 -1.659340966853051214e-07 -2.105989096889970824e-06 -6.815769779677793849e-07 -2.047269617833080702e-06
3.424000000000000000e+03 5.314155578613281250e+00 1.111996769905090332e+00 -1.995052940628738725e-07 -2.762815711321309209e-06 -8.886963200893660542e-07 -4.707806510850787163e-06
3.425000000000000000e+03 4.345917224884033203e+00 3.706551194190979004e-01 -1.375682813886669464e-06 -7.806575922586489469e-06 -2.754677552729845047e-06 -4.598015038936864585e-06
3.426000000000000000e+03 2.830904960632324219e+00 3.606805205345153809e-01 -6.981489377722027712e-07 -1.301649535889737308e-05 -4.114393505005864426e-06 -5.980570222163805738e-06
3.427000000000000000e+03 2.075619697570800781e+00 3.579981029033660889e-01 8.523873589183494914e-07 1.288043677050154656e-05 4.119847289985045791e-06 5.513450105354422703e-06
3.428000000000000000e+03 2.378913402557373047e+00 1.097998142242431641e+00 4.984315637557301670e-06 -9.518570550426375121e-06 -1.360276428385986947e-06 -2.737423301368835382e-06
3.429000000000000000e+03 1.332661628723144531e+00 3.664357960224151611e-01 -1.196000653180817608e-06 -1.180718572868499905e-05 -3.900956016877898946e-06 -5.451419383462052792e-06
3.430000000000000000e+03 1.659207582473754883e+00 1.106435775756835938e+00 -4.495690063777146861e-06 7.482098681066418067e-06 8.959227102423028555e-07 3.148006726405583322e-07
3.431000000000000000e+03 6.544207930564880371e-01 3.946581482887268066e-01 1.500713005953002721e-05 1.499559402873273939e-05 9.000817044579889625e-06 1.349777267023455352e-05
3.432000000000000000e+03 3.110946178436279297e+00 1.100680470466613770e+00 -2.953284820250701159e-06 8.612743840785697103e-06 1.697837888059439138e-06 5.824676463817013428e-06
3.433000000000000000e+03 3.587856292724609375e+00 3.676122725009918213e-01 1.371692178508965299e-06 1.107445768866455182e-05 3.733844778253114782e-06 5.903820692765293643e-06
3.434000000000000000e+03 5.103871345520019531e+00 3.719967305660247803e-01 5.582478479482233524e-07 4.747620096168247983e-06 1.591760337760206312e-06 3.121431973340804689e-06
3.435000000000000000e+03 6.048347473144531250e+00 1.115670561790466309e+00 -3.695491272992512677e-07 1.145687633652414661e-06 2.328415433794361888e-07 4.077816811332013458e-06
3.436000000000000000e+03 6.618996143341064453e+00 3.784884214401245117e-01 -2.699143806239590049e-07 -2.891729593557101907e-07 -1.677261991517298156e-07 1.342451469099614769e-06
3.437000000000000000e+03 8.251890182495117188e+00 1.120479464530944824e+00 6.648667181252676528e-07 2.881016143874148838e-06 1.063764898390218150e-06 -1.810917183320270851e-06
3.438000000000000000e+03 8.987222671508789062e+00 1.122871160507202148e+00 -9.563190133121679537e-07 -3.984169779869262129e-06 -1.482146672060480341e-06 1.273883299290901050e-06
3.439000000000000000e+03 9.651785850524902344e+00 3.870925009250640869e-01 -1.195618665406072978e-06 -6.103412033553468063e-06 -2.189709221056546085e-06 -3.499464273915009471e-09
3.440000000000000000e+03 7.517184734344482422e+00 1.119499921798706055e+00 -7.829439709894359112e-07 -1.790087935660267249e-06 -7.719095833635947201e-07 2.699447350096306764e-06
3.441000000000000000e+03 6.782775878906250000e+00 1.118488430976867676e+00 4.719070716419082601e-07 4.054837745570694096e-07 2.632172595440351870e-07 -3.276346433267462999e-06
3.442000000000000000e+03 4.579453945159912109e+00 1.110655069351196289e+00 1.058148200172581710e-06 4.118892320548184216e-06 1.553112156216229778e-06 5.757022790930932388e-06
3.443000000000000000e+03 3.844645261764526367e+00 1.107612252235412598e+00 8.278862395627584192e-08 -5.986573341942857951e-06 -1.771135430317372084e-06 -6.554582341777859256e-06
3.444000000000000000e+03 1.004219174385070801e+00 1.134658098220825195e+00 -7.305403869395377114e-06 1.819654471546527930e-06 -1.645724864829389844e-06 1.665009563112107571e-06
3.445000000000000000e+03 3.516347110271453857e-01 9.575126171112060547e-01 -1.376214913761941716e-05 -9.085990313906222582e-06 -6.854441835457691923e-06 -7.885998456913512200e-06
3.446000000000000000e+03 1.328147125244140625e+01 -9.107246994972229004e-01 -1.619317829608917236e-01 -9.040220640599727631e-03 -5.129160359501838684e-02 1.854860410094261169e-02
3.447000000000000000e+03 1.470345211029052734e+01 -1.836183547973632812e+00 -1.573439836502075195e-01 -3.406085306778550148e-03 -4.822501912713050842e-02 1.529134227894246578e-03
3.448000000000000000e+03 1.318203258514404297e+01 -1.644050240516662598e+00 -1.378151327371597290e-01 -8.177277049981057644e-04 -4.158985614776611328e-02 1.508611254394054413e-02
3.449000000000000000e+03 1.478120040893554688e+01 -1.100136518478393555e+00 -1.762398630380630493e-01 -1.163907628506422043e-02 -5.636367946863174438e-02 1.310331746935844421e-02
3.450000000000000000e+03 1.546425342559814453e+01 -1.930399060249328613e+00 -1.728618443012237549e-01 -2.279914356768131256e-02 -5.869829654693603516e-02 -2.022398263216018677e-02
3.451000000000000000e+03 1.553115558624267578e+01 -1.192991256713867188e+00 -2.003569900989532471e-01 4.305446986109018326e-03 -5.881546437740325928e-02 1.008207071572542191e-02
3.452000000000000000e+03 1.403127861022949219e+01 -1.006039500236511230e+00 -1.650646477937698364e-01 3.325401339679956436e-03 -4.852177575230598450e-02 1.903511025011539459e-02
3.453000000000000000e+03 1.394268608093261719e+01 -1.740725755691528320e+00 -1.470418274402618408e-01 -1.127266883850097656e-02 -4.749435186386108398e-02 6.185706239193677902e-03
3.454000000000000000e+03 1.171745300292968750e+01 -1.416588187217712402e+00 -1.310298293828964233e-01 3.670180449262261391e-03 -3.820789605379104614e-02 1.349721197038888931e-02
3.455000000000000000e+03 1.027132415771484375e+01 -1.186757922172546387e+00 -1.255388408899307251e-01 1.075698994100093842e-02 -3.443455696105957031e-02 5.489124450832605362e-03
3.456000000000000000e+03 1.244032764434814453e+01 -1.534988999366760254e+00 -1.350531876087188721e-01 -4.993656184524297714e-03 -4.201405495405197144e-02 1.135657262057065964e-02
3.457000000000000000e+03 1.253947448730468750e+01 -8.014244437217712402e-01 -1.570261716842651367e-01 5.597459967248141766e-04 -4.693992808461189270e-02 2.251401171088218689e-02
3.458000000000000000e+03 1.180517101287841797e+01 -6.811850070953369141e-01 -1.504437476396560669e-01 -5.554463248699903488e-03 -4.679946228861808777e-02 1.991374976933002472e-02
3.459000000000000000e+03 1.107078933715820312e+01 -5.637502074241638184e-01 -1.422678977251052856e-01 1.187060144729912281e-03 -4.232425242662429810e-02 1.879970729351043701e-02
3.460000000000000000e+03 1.099450206756591797e+01 -1.300992131233215332e+00 -1.273691654205322266e-01 3.289893735200166702e-03 -3.722378239035606384e-02 6.995617412030696869e-03
3.461000000000000000e+03 1.033618259429931641e+01 -4.476772546768188477e-01 -1.298509240150451660e-01 7.818478043191134930e-04 -3.872072324156761169e-02 1.181209087371826172e-02
3.462000000000000000e+03 9.576753616333007812e+00 -3.928347527980804443e-01 -1.260069906711578369e-01 5.026098806411027908e-03 -3.629426658153533936e-02 4.271007142961025238e-03
3.463000000000000000e+03 9.504050254821777344e+00 -1.132834792137145996e+00 -1.211131066083908081e-01 7.968367077410221100e-03 -3.394342213869094849e-02 9.847420733422040939e-04
3.464000000000000000e+03 8.792594909667968750e+00 -3.964475393295288086e-01 -1.294126957654953003e-01 3.492860705591738224e-04 -3.871902078390121460e-02 -1.805055188015103340e-03
3.465000000000000000e+03 8.008638381958007812e+00 -3.979170620441436768e-01 -1.240304186940193176e-01 2.123561222106218338e-03 -3.657205775380134583e-02 -4.023930057883262634e-03
3.466000000000000000e+03 7.224994659423828125e+00 -3.992207646369934082e-01 -1.138729751110076904e-01 -1.894141496450174600e-05 -3.416757285594940186e-02 -6.621823180466890335e-03
3.467000000000000000e+03 6.441524982452392578e+00 -4.004793763160705566e-01 -9.981273114681243896e-02 1.456371624954044819e-03 -2.950690686702728271e-02 -7.705771364271640778e-03
3.468000000000000000e+03 5.658351421356201172e+00 -4.034211039543151855e-01 -8.316364884376525879e-02 -4.119162331335246563e-04 -2.507266961038112640e-02 -9.319003671407699585e-03
3.469000000000000000e+03 4.875236511230468750e+00 -4.076028764247894287e-01 -6.476058810949325562e-02 7.793327677063643932e-04 -1.919437758624553680e-02 -9.288821369409561157e-03
3.470000000000000000e+03 4.092308998107910156e+00 -4.107097685337066650e-01 -4.622436314821243286e-02 -1.157115213572978973e-03 -1.421444304287433624e-02 -9.632331319153308868e-03
3.471000000000000000e+03 2.531672000885009766e+00 -4.164903461933135986e-01 -1.441857032477855682e-02 -1.966546988114714622e-03 -4.915535449981689453e-03 -5.994887091219425201e-03
3.472000000000000000e+03 2.214911937713623047e+00 -1.156490325927734375e+00 -1.485097594559192657e-02 -6.351859308779239655e-03 -6.360850762575864792e-03 -1.415786799043416977e-02
3.473000000000000000e+03 3.740455806255340576e-01 -5.643077492713928223e-01 2.254667924717068672e-04 8.699847967363893986e-04 3.286354767624288797e-04 4.653301730286329985e-04
3.474000000000000000e+03 1.421646475791931152e+00 -1.153123378753662109e+00 -7.137628272175788879e-03 -5.264875944703817368e-03 -3.720751265063881874e-03 -6.865538656711578369e-03
3.475000000000000000e+03 8.692774772644042969e+00 -1.136447548866271973e+00 -1.120899766683578491e-01 7.748306263238191605e-03 -3.130250051617622375e-02 -4.694353323429822922e-03
3.476000000000000000e+03 7.881700515747070312e+00 -1.137917041778564453e+00 -1.061644479632377625e-01 3.831848269328474998e-03 -3.069978021085262299e-02 -1.282394491136074066e-02
3.477000000000000000e+03 7.070939540863037109e+00 -1.139220714569091797e+00 -9.651954472064971924e-02 4.539652261883020401e-03 -2.759396843612194061e-02 -1.733672805130481720e-02
3.478000000000000000e+03 6.260352134704589844e+00 -1.140479445457458496e+00 -8.467776328325271606e-02 1.796580385416746140e-03 -2.486435323953628540e-02 -2.205267362296581268e-02
3.479000000000000000e+03 5.450060844421386719e+00 -1.143421053886413574e+00 -7.092142850160598755e-02 1.978481188416481018e-03 -2.068288438022136688e-02 -2.401914447546005249e-02
3.480000000000000000e+03 4.639828681945800781e+00 -1.147602915763854980e+00 -5.606579780578613281e-02 -1.017009373754262924e-03 -1.712484098970890045e-02 -2.571640349924564362e-02
3.481000000000000000e+03 3.829783916473388672e+00 -1.150709748268127441e+00 -4.129508510231971741e-02 -1.592822954989969730e-03 -1.286637317389249802e-02 -2.388299442827701569e-02
3.482000000000000000e+03 3.020616531372070312e+00 -1.151894450187683105e+00 -2.733153477311134338e-02 -5.286929663270711899e-03 -9.785539470613002777e-03 -2.142559364438056946e-02
3.483000000000000000e+03 3.310259342193603516e+00 -4.118944704532623291e-01 -2.860789746046066284e-02 -4.799272574018687010e-04 -8.726347237825393677e-03 -7.727576419711112976e-03
3.484000000000000000e+03 1.765524148941040039e+00 -4.131233394145965576e-01 -4.736864008009433746e-03 -6.955756689421832561e-04 -1.629731967113912106e-03 -2.863641362637281418e-03
3.485000000000000000e+03 1.067645549774169922e+00 -3.868701159954071045e-01 -1.715554972179234028e-04 -1.829393440857529640e-03 -6.002846639603376389e-04 -8.569819037802517414e-04
3.486000000000000000e+03 6.966503262519836426e-01 -1.126870155334472656e+00 -3.172377822920680046e-03 -2.573670120909810066e-03 -1.723814406432211399e-03 -2.126811770722270012e-03
3.487000000000000000e+03 3.117151832580566406e+01 -5.665437698364257812e+00 2.987837791442871094e+01 1.331818580627441406e+00 9.363059043884277344e+00 3.154155910015106201e-01
3.488000000000000000e+03 3.117250442504882812e+01 -5.645994663238525391e+00 3.215407562255859375e+01 4.787209987640380859e+00 1.108238601684570312e+01 8.475404739379882812e+00
3.489000000000000000e+03 3.116968727111816406e+01 -5.626731395721435547e+00 3.202861785888671875e+01 9.586809158325195312e+00 1.248462772369384766e+01 1.291848754882812500e+01
3.490000000000000000e+03 3.116317367553710938e+01 -5.608384609222412109e+00 3.028461647033691406e+01 1.592214107513427734e+01 1.386202716827392578e+01 1.620819282531738281e+01
3.491000000000000000e+03 3.115321350097656250e+01 -5.591657161712646484e+00 2.760517501831054688e+01 2.216925811767578125e+01 1.493233013153076172e+01 1.768360519409179688e+01
3.492000000000000000e+03 3.114018821716308594e+01 -5.577189445495605469e+00 2.428949928283691406e+01 2.856742668151855469e+01 1.585707759857177734e+01 1.746784210205078125e+01
3.493000000000000000e+03 3.112459373474121094e+01 -5.565534114837646484e+00 2.125829505920410156e+01 3.381252288818359375e+01 1.652124404907226562e+01 1.569546604156494141e+01
3.494000000000000000e+03 3.110703086853027344e+01 -5.557137489318847656e+00 1.880249977111816406e+01 3.790794372558593750e+01 1.701313209533691406e+01 1.253633880615234375e+01
3.495000000000000000e+03 3.108816719055175781e+01 -5.552320957183837891e+00 1.755609321594238281e+01 4.022093582153320312e+01 1.733310890197753906e+01 8.713713645935058594e+00
3.496000000000000000e+03 3.106872749328613281e+01 -5.551269054412841797e+00 1.729558372497558594e+01 4.065647125244140625e+01 1.738561630249023438e+01 4.764332771301269531e+00
3.497000000000000000e+03 3.104945373535156250e+01 -5.554021835327148438e+00 1.901114654541015625e+01 3.981352233886718750e+01 1.764740180969238281e+01 1.131723523139953613e+00
3.498000000000000000e+03 3.103108596801757812e+01 -5.560473918914794922e+00 2.031535911560058594e+01 3.721845245361328125e+01 1.726014328002929688e+01 -1.669968008995056152e+00
3.499000000000000000e+03 3.101432609558105469e+01 -5.570378303527832031e+00 2.349877548217773438e+01 3.475574111938476562e+01 1.747635459899902344e+01 -3.035121917724609375e+00
3.500000000000000000e+03 3.099981498718261719e+01 -5.583356380462646484e+00 2.630810737609863281e+01 3.131892967224121094e+01 1.728811073303222656e+01 -3.491412401199340820e+00
3.501000000000000000e+03 3.098810768127441406e+01 -5.598911285400390625e+00 2.851444244384765625e+01 2.825711822509765625e+01 1.703146743774414062e+01 -2.895137071609497070e+00
3.502000000000000000e+03 3.097965240478515625e+01 -5.616447925567626953e+00 3.085989379882812500e+01 2.665194320678710938e+01 1.725355148315429688e+01 -1.116119623184204102e+00
3.503000000000000000e+03 3.097477340698242188e+01 -5.635294437408447266e+00 3.206079483032226562e+01 2.490677261352539062e+01 1.709027099609375000e+01 1.341911196708679199e+00
3.504000000000000000e+03 3.097365570068359375e+01 -5.654730796813964844e+00 3.235863876342773438e+01 2.463115119934082031e+01 1.709693717956542969e+01 3.965772390365600586e+00
3.505000000000000000e+03 3.097634506225585938e+01 -5.674012660980224609e+00 3.171903038024902344e+01 2.582068824768066406e+01 1.726191520690917969e+01 6.741622447967529297e+00
3.506000000000000000e+03 3.098273658752441406e+01 -5.692401885986328125e+00 2.970204925537109375e+01 2.772710990905761719e+01 1.722874832153320312e+01 9.245444297790527344e+00
3.507000000000000000e+03 3.099258422851562500e+01 -5.709195137023925781e+00 2.676912307739257812e+01 3.063936614990234375e+01 1.722254753112792969e+01 1.087993144989013672e+01
3.508000000000000000e+03 3.100551414489746094e+01 -5.723750114440917969e+00 2.317698097229003906e+01 3.422399139404296875e+01 1.722029113769531250e+01 1.130854034423828125e+01
3.509000000000000000e+03 3.102103042602539062e+01 -5.735508918762207031e+00 1.870171356201171875e+01 3.760096740722656250e+01 1.689080429077148438e+01 1.044390583038330078e+01
3.510000000000000000e+03 3.103853797912597656e+01 -5.744021892547607422e+00 1.499640560150146484e+01 4.040224838256835938e+01 1.661959648132324219e+01 8.142825126647949219e+00
3.511000000000000000e+03 3.105736923217773438e+01 -5.748963832855224609e+00 1.129520893096923828e+01 4.186372756958007812e+01 1.594768142700195312e+01 4.539890766143798828e+00
3.512000000000000000e+03 3.107680130004882812e+01 -5.750144958496093750e+00 9.026768684387207031e+00 4.167638015747070312e+01 1.521094512939453125e+01 4.106053113937377930e-01
3.513000000000000000e+03 3.109609222412109375e+01 -5.747520446777343750e+00 7.566752910614013672e+00 3.942079925537109375e+01 1.409626579284667969e+01 -4.011569023132324219e+00
3.514000000000000000e+03 3.111450386047363281e+01 -5.741190433502197266e+00 7.516075611114501953e+00 3.556846237182617188e+01 1.292536163330078125e+01 -7.822381496429443359e+00
3.515000000000000000e+03 3.113132858276367188e+01 -5.731397628784179688e+00 7.966014385223388672e+00 2.999882316589355469e+01 1.138945102691650391e+01 -1.079372692108154297e+01
3.516000000000000000e+03 3.114592742919921875e+01 -5.718516349792480469e+00 9.413123130798339844e+00 2.350714874267578125e+01 9.876081466674804688e+00 -1.239252376556396484e+01
3.517000000000000000e+03 3.115773773193359375e+01 -5.703039646148681641e+00 1.077092170715332031e+01 1.631037712097167969e+01 8.124389648437500000e+00 -1.252702713012695312e+01
3.518000000000000000e+03 3.116630744934082031e+01 -5.685559749603271484e+00 1.446728229522705078e+01 7.378669261932373047e+00 6.553785800933837891e+00 -9.174296379089355469e+00
