# el_label, x, y, sXX, sYY, sZZ, sXY
1.000000000000000000e+00 2.162732887268066406e+01 -7.204340100288391113e-01 -6.722891330718994141e+00 -2.425114393234252930e+00 -2.744401693344116211e+00 -3.135644912719726562e+00
2.000000000000000000e+00 2.143266296386718750e+01 -7.619387507438659668e-01 -1.801627397537231445e+00 5.793128609657287598e-01 -3.666943609714508057e-01 -1.122095435857772827e-01
3.000000000000000000e+00 2.123799705505371094e+01 -8.034434914588928223e-01 -1.430513262748718262e+00 -3.313147425651550293e-01 -5.285484194755554199e-01 -4.501887261867523193e-01
4.000000000000000000e+00 2.104333114624023438e+01 -8.449482917785644531e-01 -9.098101258277893066e-01 3.788895159959793091e-02 -2.615763545036315918e-01 -2.660294771194458008e-01
5.000000000000000000e+00 2.164503669738769531e+01 -7.760908603668212891e-01 4.317885398864746094e+00 -2.056952476501464844e+00 6.782798767089843750e-01 5.039784312248229980e-01
6.000000000000000000e+00 2.146217536926269531e+01 -8.547001481056213379e-01 1.015329241752624512e+00 -1.496771574020385742e-01 2.596956193447113037e-01 -4.904667660593986511e-02
7.000000000000000000e+00 2.127931594848632812e+01 -9.333094954490661621e-01 1.690657734870910645e+00 5.250176191329956055e-01 6.647025942802429199e-01 6.840415596961975098e-01
8.000000000000000000e+00 2.109645462036132812e+01 -1.011918783187866211e+00 1.501172184944152832e+00 1.077337563037872314e-02 4.535836875438690186e-01 2.451198548078536987e-01
9.000000000000000000e+00 2.167324066162109375e+01 -8.272352814674377441e-01 7.635879516601562500e+00 1.996668219566345215e+00 2.889764308929443359e+00 5.040832996368408203e+00
1.000000000000000000e+01 2.150918388366699219e+01 -9.399408698081970215e-01 4.868140220642089844e+00 9.230181574821472168e-01 1.737347602844238281e+00 2.584115028381347656e+00
1.100000000000000000e+01 2.134512710571289062e+01 -1.052646517753601074e+00 3.489231109619140625e+00 1.240204215049743652e+00 1.418830633163452148e+00 1.717313289642333984e+00
1.200000000000000000e+01 2.118107032775878906e+01 -1.165351986885070801e+00 3.411298036575317383e+00 1.245502591133117676e+00 1.397040247917175293e+00 1.679589033126831055e+00
1.300000000000000000e+01 2.171086311340332031e+01 -8.719099760055541992e-01 8.583740234375000000e+00 7.299589157104492188e+00 4.764998912811279297e+00 8.309019088745117188e+00
1.400000000000000000e+01 2.157188796997070312e+01 -1.014398694038391113e+00 5.679503917694091797e+00 4.196678161621093750e+00 2.962854623794555664e+00 4.991888046264648438e+00
1.500000000000000000e+01 2.143291091918945312e+01 -1.156887412071228027e+00 4.870760440826416016e+00 3.299110412597656250e+00 2.450961112976074219e+00 3.629588842391967773e+00
1.600000000000000000e+01 2.129393577575683594e+01 -1.299376249313354492e+00 4.131941795349121094e+00 2.780922889709472656e+00 2.073859453201293945e+00 2.796094655990600586e+00
1.700000000000000000e+01 2.175646209716796875e+01 -9.084053635597229004e-01 7.127656459808349609e+00 1.359372901916503906e+01 6.216415405273437500e+00 9.906715393066406250e+00
1.800000000000000000e+01 2.164788627624511719e+01 -1.075224280357360840e+00 5.484125614166259766e+00 8.532938003540039062e+00 4.205119132995605469e+00 6.454246044158935547e+00
1.900000000000000000e+01 2.153931045532226562e+01 -1.242043256759643555e+00 4.575829982757568359e+00 6.368855476379394531e+00 3.283405542373657227e+00 4.791017532348632812e+00
2.000000000000000000e+01 2.143073463439941406e+01 -1.408862352371215820e+00 4.150648593902587891e+00 5.406258106231689453e+00 2.867071866989135742e+00 3.908670425415039062e+00
2.100000000000000000e+01 2.180829620361328125e+01 -9.353247284889221191e-01 5.204839706420898438e+00 2.002391052246093750e+01 7.568624973297119141e+00 9.513428688049316406e+00
2.200000000000000000e+01 2.173427391052246094e+01 -1.120090007781982422e+00 4.188543319702148438e+00 1.312188720703125000e+01 5.193129062652587891e+00 6.492347240447998047e+00
2.300000000000000000e+01 2.166025352478027344e+01 -1.304855227470397949e+00 3.793315172195434570e+00 1.011117553710937500e+01 4.171347141265869141e+00 5.035295009613037109e+00
2.400000000000000000e+01 2.158623313903808594e+01 -1.489620566368103027e+00 3.357762336730957031e+00 8.239270210266113281e+00 3.479109764099121094e+00 4.066316127777099609e+00
2.500000000000000000e+01 2.186437606811523438e+01 -9.516379833221435547e-01 3.239227056503295898e+00 2.556157112121582031e+01 8.640239715576171875e+00 7.215194225311279297e+00
2.600000000000000000e+01 2.182774353027343750e+01 -1.147278785705566406e+00 3.055231332778930664e+00 1.749634552001953125e+01 6.165473461151123047e+00 5.209276676177978516e+00
2.700000000000000000e+01 2.179110908508300781e+01 -1.342919468879699707e+00 2.651270866394042969e+00 1.358372211456298828e+01 4.870497703552246094e+00 4.065887451171875000e+00
2.800000000000000000e+01 2.175447654724121094e+01 -1.538560271263122559e+00 2.490937948226928711e+00 1.131213092803955078e+01 4.140920639038085938e+00 3.279781818389892578e+00
2.900000000000000000e+01 2.192256164550781250e+01 -9.567208290100097656e-01 2.559694528579711914e+00 2.969237136840820312e+01 9.675620079040527344e+00 3.513283491134643555e+00
3.000000000000000000e+01 2.192471694946289062e+01 -1.155750155448913574e+00 2.210562467575073242e+00 2.082234764099121094e+01 6.909873008728027344e+00 2.843340158462524414e+00
3.100000000000000000e+01 2.192687416076660156e+01 -1.354779481887817383e+00 2.022189617156982422e+00 1.660004043579101562e+01 5.586669445037841797e+00 2.118740081787109375e+00
3.200000000000000000e+01 2.192902946472167969e+01 -1.553808689117431641e+00 1.809036970138549805e+00 1.376930522918701172e+01 4.673502445220947266e+00 1.620359420776367188e+00
3.300000000000000000e+01 2.198062133789062500e+01 -9.503786563873291016e-01 3.076743602752685547e+00 3.175867462158203125e+01 1.045062541961669922e+01 -7.259950041770935059e-01
3.400000000000000000e+01 2.202148437500000000e+01 -1.145179867744445801e+00 2.514172792434692383e+00 2.304786872863769531e+01 7.668612480163574219e+00 -2.233295142650604248e-01
3.500000000000000000e+01 2.206234931945800781e+01 -1.339981079101562500e+00 1.912452340126037598e+00 1.840396499633789062e+01 6.094925403594970703e+00 -3.817918598651885986e-01
3.600000000000000000e+01 2.210321044921875000e+01 -1.534782171249389648e+00 1.887194514274597168e+00 1.556982803344726562e+01 5.237106800079345703e+00 -6.249410510063171387e-01
3.700000000000000000e+01 2.203633689880371094e+01 -9.328542351722717285e-01 5.425879955291748047e+00 3.203655624389648438e+01 1.123873138427734375e+01 -4.744571208953857422e+00
3.800000000000000000e+01 2.211434173583984375e+01 -1.115972518920898438e+00 3.522034645080566406e+00 2.377368354797363281e+01 8.188714981079101562e+00 -3.337579727172851562e+00
3.900000000000000000e+01 2.219234848022460938e+01 -1.299090743064880371e+00 2.997520685195922852e+00 1.917240524291992188e+01 6.650978088378906250e+00 -3.128070354461669922e+00
4.000000000000000000e+01 2.227035522460937500e+01 -1.482208967208862305e+00 2.520401239395141602e+00 1.598038959503173828e+01 5.550237178802490234e+00 -2.926923274993896484e+00
4.100000000000000000e+01 2.208757209777832031e+01 -9.048181772232055664e-01 8.549478530883789062e+00 3.075612258911132812e+01 1.179168033599853516e+01 -7.803214550018310547e+00
4.200000000000000000e+01 2.219973754882812500e+01 -1.069245815277099609e+00 5.811324119567871094e+00 2.327931404113769531e+01 8.727190971374511719e+00 -6.060911178588867188e+00
4.300000000000000000e+01 2.231190299987792969e+01 -1.233673334121704102e+00 4.555244922637939453e+00 1.874270820617675781e+01 6.989386081695556641e+00 -5.464654445648193359e+00
4.400000000000000000e+01 2.242406654357910156e+01 -1.398100972175598145e+00 4.196419715881347656e+00 1.558737087249755859e+01 5.935137271881103516e+00 -5.232310295104980469e+00
4.500000000000000000e+01 2.213237190246582031e+01 -8.673434853553771973e-01 1.238465023040771484e+01 2.857532119750976562e+01 1.228799152374267578e+01 -9.538281440734863281e+00
4.600000000000000000e+01 2.227440071105957031e+01 -1.006787896156311035e+00 8.481753349304199219e+00 2.190316390991210938e+01 9.115474700927734375e+00 -7.903415679931640625e+00
4.700000000000000000e+01 2.241643142700195312e+01 -1.146232366561889648e+00 6.986150264739990234e+00 1.738468933105468750e+01 7.311252117156982422e+00 -7.204521656036376953e+00
4.800000000000000000e+01 2.255846214294433594e+01 -1.285676717758178711e+00 5.952359676361083984e+00 1.449387741088867188e+01 6.133871078491210938e+00 -6.652973651885986328e+00
4.900000000000000000e+01 2.216901588439941406e+01 -8.218641877174377441e-01 1.607668876647949219e+01 2.641147422790527344e+01 1.274644947052001953e+01 -9.848304748535156250e+00
5.000000000000000000e+01 2.233547782897949219e+01 -9.309890270233154297e-01 1.141607284545898438e+01 1.978813362121582031e+01 9.361262321472167969e+00 -8.711637496948242188e+00
5.100000000000000000e+01 2.250193786621093750e+01 -1.040113925933837891e+00 9.371358871459960938e+00 1.588830947875976562e+01 7.577900409698486328e+00 -7.909088611602783203e+00
5.200000000000000000e+01 2.266839790344238281e+01 -1.149238824844360352e+00 8.273757934570312500e+00 1.261442565917968750e+01 6.266454696655273438e+00 -7.448503971099853516e+00
5.300000000000000000e+01 2.219610595703125000e+01 -7.701206803321838379e-01 1.894557952880859375e+01 2.399743461608886719e+01 1.288290405273437500e+01 -9.084669113159179688e+00
5.400000000000000000e+01 2.238062667846679688e+01 -8.447499275207519531e-01 1.409536266326904297e+01 1.832689857482910156e+01 9.726678848266601562e+00 -8.292477607727050781e+00
5.500000000000000000e+01 2.256514739990234375e+01 -9.193791747093200684e-01 1.155379009246826172e+01 1.378711795806884766e+01 7.602272510528564453e+00 -7.783703804016113281e+00
5.600000000000000000e+01 2.274966812133789062e+01 -9.940084218978881836e-01 1.005427360534667969e+01 1.136997509002685547e+01 6.427274703979492188e+00 -7.220785140991210938e+00
5.700000000000000000e+01 2.221260452270507812e+01 -7.140932679176330566e-01 2.108674240112304688e+01 2.328132629394531250e+01 1.331042003631591797e+01 -7.449810504913330078e+00
5.800000000000000000e+01 2.240812301635742188e+01 -7.513709068298339844e-01 1.589819717407226562e+01 1.633914184570312500e+01 9.671201705932617188e+00 -7.042876243591308594e+00
5.900000000000000000e+01 2.260364151000976562e+01 -7.886485457420349121e-01 1.304506397247314453e+01 1.321225929260253906e+01 7.877196788787841797e+00 -6.711348056793212891e+00
6.000000000000000000e+01 2.279916191101074219e+01 -8.259261846542358398e-01 1.134371280670166016e+01 9.404542922973632812e+00 6.224476814270019531e+00 -6.409938812255859375e+00
6.100000000000000000e+01 2.221788024902343750e+01 -6.559259891510009766e-01 2.182071685791015625e+01 2.223226356506347656e+01 1.321589374542236328e+01 -5.197483062744140625e+00
6.200000000000000000e+01 2.241691398620605469e+01 -6.544254422187805176e-01 1.672132492065429688e+01 1.645979499816894531e+01 9.954336166381835938e+00 -5.409731388092041016e+00
6.300000000000000000e+01 2.261594963073730469e+01 -6.529248356819152832e-01 1.362635993957519531e+01 1.199540710449218750e+01 7.686530113220214844e+00 -4.968437671661376953e+00
6.400000000000000000e+01 2.281498527526855469e+01 -6.514242887496948242e-01 1.165856647491455078e+01 9.873229980468750000e+00 6.459538936614990234e+00 -5.338386535644531250e+00
6.500000000000000000e+01 2.221172904968261719e+01 -5.978449583053588867e-01 2.168856048583984375e+01 2.295817375183105469e+01 1.339402008056640625e+01 -3.408150434494018555e+00
6.600000000000000000e+01 2.240666389465332031e+01 -5.576236844062805176e-01 1.620135307312011719e+01 1.664323997497558594e+01 9.853377342224121094e+00 -3.159420013427734375e+00
6.700000000000000000e+01 2.260159873962402344e+01 -5.174024105072021484e-01 1.322699069976806641e+01 1.270736503601074219e+01 7.780306816101074219e+00 -3.705188751220703125e+00
6.800000000000000000e+01 2.279653358459472656e+01 -4.771811664104461670e-01 1.070998287200927734e+01 9.927165031433105469e+00 6.191144466400146484e+00 -3.307347059249877930e+00
6.900000000000000000e+01 2.219438743591308594e+01 -5.420728325843811035e-01 2.016567420959472656e+01 2.451161193847656250e+01 1.340318584442138672e+01 -1.403348922729492188e+00
7.000000000000000000e+01 2.237776184082031250e+01 -4.646702110767364502e-01 1.489717864990234375e+01 1.774855613708496094e+01 9.793720245361328125e+00 -1.791563153266906738e+00
7.100000000000000000e+01 2.256113624572753906e+01 -3.872675299644470215e-01 1.144361400604248047e+01 1.431487083435058594e+01 7.727545261383056641e+00 -2.118554830551147461e+00
7.200000000000000000e+01 2.274451065063476562e+01 -3.098648786544799805e-01 9.524084091186523438e+00 1.057664299011230469e+01 6.030218124389648438e+00 -2.329109191894531250e+00
7.300000000000000000e+01 2.216652107238769531e+01 -4.907439053058624268e-01 1.789924049377441406e+01 2.589481163024902344e+01 1.313821601867675781e+01 -2.984628677368164062e-01
7.400000000000000000e+01 2.233131790161132812e+01 -3.791219294071197510e-01 1.254496288299560547e+01 2.033283233642578125e+01 9.863338470458984375e+00 -9.899683594703674316e-01
7.500000000000000000e+01 2.249611473083496094e+01 -2.674999833106994629e-01 9.327206611633300781e+00 1.560245895385742188e+01 7.478899478912353516e+00 -1.230343818664550781e+00
7.600000000000000000e+01 2.266090965270996094e+01 -1.558780223131179810e-01 7.115589618682861328e+00 1.316833400726318359e+01 6.085176944732666016e+00 -1.984958410263061523e+00
7.700000000000000000e+01 2.212919425964355469e+01 -4.458223879337310791e-01 1.530892753601074219e+01 2.887630271911621094e+01 1.325556850433349609e+01 -3.658520281314849854e-01
7.800000000000000000e+01 2.226910591125488281e+01 -3.042527437210083008e-01 9.610912322998046875e+00 2.193741798400878906e+01 9.464498519897460938e+00 -8.022171854972839355e-01
7.900000000000000000e+01 2.240901947021484375e+01 -1.626830846071243286e-01 7.012325286865234375e+00 1.833395195007324219e+01 7.603883266448974609e+00 -1.707607865333557129e+00
8.000000000000000000e+01 2.254893112182617188e+01 -2.111344225704669952e-02 4.384739398956298828e+00 1.481076431274414062e+01 5.758651256561279297e+00 -1.568868041038513184e+00
8.100000000000000000e+01 2.208383560180664062e+01 -4.090273976325988770e-01 1.179181766510009766e+01 3.062920951843261719e+01 1.272630786895751953e+01 -1.125242710113525391e+00
8.200000000000000000e+01 2.219351005554199219e+01 -2.429277300834655762e-01 7.425264358520507812e+00 2.432018089294433594e+01 9.523633003234863281e+00 -2.234721899032592773e+00
8.300000000000000000e+01 2.230318260192871094e+01 -7.682806253433227539e-02 4.176535129547119141e+00 1.985426139831542969e+01 7.209239006042480469e+00 -2.335549116134643555e+00
8.400000000000000000e+01 2.241285514831542969e+01 8.927159011363983154e-02 2.855370998382568359e+00 1.711845588684082031e+01 5.992147922515869141e+00 -2.749504566192626953e+00
8.500000000000000000e+01 2.203218269348144531e+01 -3.817669749259948730e-01 9.629281044006347656e+00 3.260337448120117188e+01 1.266979694366455078e+01 -3.463906764984130859e+00
8.600000000000000000e+01 2.210741996765136719e+01 -1.974937170743942261e-01 4.778931617736816406e+00 2.520587921142578125e+01 8.995443344116210938e+00 -4.063919067382812500e+00
8.700000000000000000e+01 2.218265724182128906e+01 -1.322045456618070602e-02 2.889268398284912109e+00 2.121203994750976562e+01 7.230392456054687500e+00 -4.305051803588867188e+00
8.800000000000000000e+01 2.225789642333984375e+01 1.710527986288070679e-01 9.909755587577819824e-01 1.820533180236816406e+01 5.758892059326171875e+00 -4.044374465942382812e+00
8.900000000000000000e+01 2.197621154785156250e+01 -3.650843799114227295e-01 7.266875267028808594e+00 3.284535598754882812e+01 1.203366947174072266e+01 -6.477792263031005859e+00
9.000000000000000000e+01 2.201413345336914062e+01 -1.696894168853759766e-01 4.006455421447753906e+00 2.539687728881835938e+01 8.821000099182128906e+00 -6.770918846130371094e+00
9.100000000000000000e+01 2.205205535888671875e+01 2.570555545389652252e-02 1.523447275161743164e+00 2.110037994384765625e+01 6.787147998809814453e+00 -6.395632266998291016e+00
9.200000000000000000e+01 2.208997726440429688e+01 2.211005240678787231e-01 6.834751367568969727e-01 1.842814636230468750e+01 5.733486175537109375e+00 -6.190311431884765625e+00
9.300000000000000000e+01 2.191806030273437500e+01 -3.596180677413940430e-01 7.035815715789794922e+00 3.185697555541992188e+01 1.166783714294433594e+01 -1.004487514495849609e+01
9.400000000000000000e+01 2.191721725463867188e+01 -1.605788767337799072e-01 3.439761161804199219e+00 2.386290550231933594e+01 8.190800666809082031e+00 -9.440521240234375000e+00
9.500000000000000000e+01 2.191637229919433594e+01 3.846032917499542236e-02 1.911304950714111328e+00 1.992476081848144531e+01 6.550819873809814453e+00 -8.720602989196777344e+00
9.600000000000000000e+01 2.191552925109863281e+01 2.374995201826095581e-01 3.934321701526641846e-01 1.740478897094726562e+01 5.339466094970703125e+00 -8.061344146728515625e+00
9.700000000000000000e+01 2.185996055603027344e+01 -3.655771613121032715e-01 7.508305072784423828e+00 2.879051017761230469e+01 1.088964462280273438e+01 -1.344841670989990234e+01
9.800000000000000000e+01 2.182038307189941406e+01 -1.705107092857360840e-01 4.588736534118652344e+00 2.108628654479980469e+01 7.702507019042968750e+00 -1.167152118682861328e+01
9.900000000000000000e+01 2.178080368041992188e+01 2.455575019121170044e-02 2.439490795135498047e+00 1.742610168457031250e+01 5.959677696228027344e+00 -1.051697540283203125e+01
1.000000000000000000e+02 2.174122810363769531e+01 2.196222096681594849e-01 1.537501931190490723e+00 1.529204654693603516e+01 5.048864841461181641e+00 -9.563171386718750000e+00
1.010000000000000000e+02 2.180413055419921875e+01 -3.827336430549621582e-01 9.542875289916992188e+00 2.419257545471191406e+01 1.012063503265380859e+01 -1.577843570709228516e+01
1.020000000000000000e+02 2.172733306884765625e+01 -1.991048604249954224e-01 6.093317985534667969e+00 1.705151939392089844e+01 6.943450927734375000e+00 -1.306398677825927734e+01
1.030000000000000000e+02 2.165053558349609375e+01 -1.547607034444808960e-02 3.962063789367675781e+00 1.394199466705322266e+01 5.371217727661132812e+00 -1.134634113311767578e+01
1.040000000000000000e+02 2.157374000549316406e+01 1.681527197360992432e-01 2.600167751312255859e+00 1.230534839630126953e+01 4.471654891967773438e+00 -1.022216701507568359e+01
1.050000000000000000e+02 2.175271034240722656e+01 -4.104309976100921631e-01 1.235924053192138672e+01 1.823863220214843750e+01 9.179362297058105469e+00 -1.665640449523925781e+01
1.060000000000000000e+02 2.164163208007812500e+01 -2.452670782804489136e-01 7.771800994873046875e+00 1.234459686279296875e+01 6.034919261932373047e+00 -1.299060344696044922e+01
1.070000000000000000e+02 2.153055572509765625e+01 -8.010315895080566406e-02 5.521275043487548828e+00 1.005885219573974609e+01 4.674037933349609375e+00 -1.115575218200683594e+01
1.080000000000000000e+02 2.141947746276855469e+01 8.506074547767639160e-02 3.857937812805175781e+00 8.591464996337890625e+00 3.734820842742919922e+00 -9.838464736938476562e+00
1.090000000000000000e+02 2.170766639709472656e+01 -4.476092159748077393e-01 1.454786491394042969e+01 1.175061607360839844e+01 7.889544486999511719e+00 -1.555596923828125000e+01
1.100000000000000000e+02 2.156655883789062500e+01 -3.072307705879211426e-01 9.452140808105468750e+00 7.648657321929931641e+00 5.130239486694335938e+00 -1.146678638458251953e+01
1.110000000000000000e+02 2.142545127868652344e+01 -1.668523401021957397e-01 6.160461902618408203e+00 6.114841938018798828e+00 3.682591199874877930e+00 -9.678835868835449219e+00
1.120000000000000000e+02 2.128434562683105469e+01 -2.647391334176063538e-02 4.781480312347412109e+00 5.549081802368164062e+00 3.099168539047241211e+00 -8.717714309692382812e+00
1.130000000000000000e+02 2.167072105407714844e+01 -4.928455650806427002e-01 1.630825424194335938e+01 5.771470546722412109e+00 6.623917579650878906e+00 -1.228362751007080078e+01
1.140000000000000000e+02 2.150498390197753906e+01 -3.826247155666351318e-01 9.208740234375000000e+00 3.468476533889770508e+00 3.803165197372436523e+00 -8.752058029174804688e+00
1.150000000000000000e+02 2.133924865722656250e+01 -2.724038362503051758e-01 6.416721343994140625e+00 3.130244731903076172e+00 2.864089727401733398e+00 -7.286871910095214844e+00
1.160000000000000000e+02 2.117351150512695312e+01 -1.621829718351364136e-01 4.005895137786865234e+00 2.810821533203125000e+00 2.045015096664428711e+00 -6.555622100830078125e+00
1.170000000000000000e+02 2.164329147338867188e+01 -5.444089174270629883e-01 1.499692058563232422e+01 8.540866971015930176e-01 4.755301952362060547e+00 -7.691152572631835938e+00
1.180000000000000000e+02 2.145926666259765625e+01 -4.685636460781097412e-01 7.944787502288818359e+00 8.265458345413208008e-01 2.631400108337402344e+00 -5.074260711669921875e+00
1.190000000000000000e+02 2.127524375915527344e+01 -3.927183449268341064e-01 4.287383556365966797e+00 1.150997638702392578e+00 1.631514310836791992e+00 -4.638131618499755859e+00
1.200000000000000000e+02 2.109121894836425781e+01 -3.168730437755584717e-01 3.132201910018920898e+00 1.201175928115844727e+00 1.300013422966003418e+00 -4.356742382049560547e+00
1.210000000000000000e+02 2.162642288208007812e+01 -6.003260016441345215e-01 1.102382278442382812e+01 -2.116791486740112305e+00 2.672109603881835938e+00 -1.805581808090209961e+00
1.220000000000000000e+02 2.143115425109863281e+01 -5.617588162422180176e-01 3.382572174072265625e+00 2.461579889059066772e-01 1.088618993759155273e+00 -2.083750963211059570e+00
1.230000000000000000e+02 2.123588562011718750e+01 -5.231915712356567383e-01 2.154296636581420898e+00 2.921227812767028809e-01 7.339258193969726562e-01 -2.629323244094848633e+00
1.240000000000000000e+02 2.104061698913574219e+01 -4.846243560314178467e-01 1.918469220399856567e-01 7.617889344692230225e-02 8.040774613618850708e-02 -2.127978086471557617e+00
1.250000000000000000e+02 2.162076568603515625e+01 -6.584570407867431641e-01 -1.023112237453460693e-01 -1.495963096618652344e+00 -4.794822931289672852e-01 1.506951928138732910e+00
1.260000000000000000e+02 2.142172431945800781e+01 -6.586437225341796875e-01 6.451563239097595215e-01 4.686706066131591797e-01 3.341480791568756104e-01 -1.117023468017578125e+00
1.270000000000000000e+02 2.122268295288085938e+01 -6.588305234909057617e-01 -2.030772686004638672e+00 -2.757073044776916504e-01 -6.919440031051635742e-01 -5.765892267227172852e-01
1.280000000000000000e+02 2.102364158630371094e+01 -6.590172648429870605e-01 -3.216979503631591797e+00 -3.498514648526906967e-03 -9.661433696746826172e-01 -7.817625403404235840e-01
1.290000000000000000e+02 1.627274894714355469e+01 -1.250305533409118652e+00 7.939457893371582031e-01 2.984875347465276718e-03 2.390792071819305420e-01 -1.838277326896786690e-03
1.300000000000000000e+02 1.747619438171386719e+01 -2.135244846343994141e+00 1.333602428436279297e+00 -2.073616720736026764e-02 3.938598930835723877e-01 1.108013316988945007e-01
1.310000000000000000e+02 1.884177970886230469e+01 -2.125064611434936523e+00 1.788100719451904297e+00 2.170080319046974182e-02 5.429404973983764648e-01 2.216431647539138794e-01
1.320000000000000000e+02 1.618229866027832031e+01 -1.987193822860717773e+00 9.802467226982116699e-01 -1.633826084434986115e-02 2.891725301742553711e-01 9.839157015085220337e-02
1.330000000000000000e+02 1.873838424682617188e+01 -2.338333129882812500e+00 1.899178266525268555e+00 7.156860083341598511e-02 5.912240743637084961e-01 3.110359311103820801e-01
1.340000000000000000e+02 1.879883003234863281e+01 -1.561884045600891113e+00 1.237692236900329590e+00 5.153407901525497437e-02 3.867678940296173096e-01 -9.877369739115238190e-03
1.350000000000000000e+02 1.782833099365234375e+01 -1.797330379486083984e+00 1.228112697601318359e+00 -1.207880303263664246e-02 3.648101687431335449e-01 4.700644686818122864e-02
1.360000000000000000e+02 1.701794624328613281e+01 -1.283176541328430176e+00 8.451364040374755859e-01 -9.617121890187263489e-03 2.506558001041412354e-01 -1.067354809492826462e-02
1.370000000000000000e+02 1.866456604003906250e+01 -1.976759195327758789e+00 1.594318151473999023e+00 7.666785735636949539e-03 4.805954694747924805e-01 1.540774255990982056e-01
1.380000000000000000e+02 1.863180923461914062e+01 -1.731464028358459473e+00 1.354196190834045410e+00 2.137652970850467682e-02 4.126718342304229736e-01 5.642120540142059326e-02
1.390000000000000000e+02 1.874450683593750000e+01 -1.351032137870788574e+00 1.030780911445617676e+00 6.196121498942375183e-02 3.278226256370544434e-01 -4.690239205956459045e-02
1.400000000000000000e+02 1.831299972534179688e+01 -1.718632340431213379e+00 1.230754733085632324e+00 6.934347766218706965e-05 3.692472279071807861e-01 4.155352339148521423e-02
1.410000000000000000e+02 1.885070419311523438e+01 -1.748622536659240723e+00 1.513404488563537598e+00 3.101183474063873291e-02 4.633248746395111084e-01 3.884626924991607666e-02
1.420000000000000000e+02 1.886257743835449219e+01 -1.941727876663208008e+00 1.638262510299682617e+00 2.351306192576885223e-02 4.985326528549194336e-01 1.217990890145301819e-01
1.430000000000000000e+02 1.865163612365722656e+01 -1.104164838790893555e+00 7.765414714813232422e-01 2.461170405149459839e-02 2.403459548950195312e-01 -3.628071770071983337e-02
1.440000000000000000e+02 1.799302101135253906e+01 -2.219201564788818359e+00 1.564198374748229980e+00 1.978304795920848846e-02 4.751944541931152344e-01 1.719536334276199341e-01
1.450000000000000000e+02 1.841203308105468750e+01 -2.111779212951660156e+00 1.633493781089782715e+00 3.485808521509170532e-02 5.005055665969848633e-01 1.756821572780609131e-01
1.460000000000000000e+02 1.833055496215820312e+01 -1.313686728477478027e+00 9.348134398460388184e-01 -1.415047608315944672e-02 2.761988937854766846e-01 -4.356996715068817139e-02
1.470000000000000000e+02 1.775775337219238281e+01 -1.270916342735290527e+00 8.664242625236511230e-01 -9.255170822143554688e-03 2.571507394313812256e-01 -3.138099238276481628e-02
1.480000000000000000e+02 1.686955642700195312e+01 -2.017665147781372070e+00 1.145588994026184082e+00 -1.822112686932086945e-02 3.382103741168975830e-01 8.579760789871215820e-02
1.490000000000000000e+02 1.985350418090820312e+01 -1.050562500953674316e+00 3.353632986545562744e-01 -1.582315377891063690e-02 9.586204588413238525e-02 -2.414166741073131561e-02
1.500000000000000000e+02 2.156370544433593750e+01 -2.092760324478149414e+00 2.364340066909790039e+00 7.106056690216064453e+00 2.841119050979614258e+00 2.233467102050781250e+00
1.510000000000000000e+02 2.215373611450195312e+01 -2.036420583724975586e+00 1.806041359901428223e+00 1.078017616271972656e+01 3.775865077972412109e+00 -4.214885532855987549e-01
1.520000000000000000e+02 1.921400833129882812e+01 -6.294282078742980957e-01 -5.495428562164306641e+00 3.127787411212921143e-01 -1.554794907569885254e+00 -3.004224598407745361e-01
1.530000000000000000e+02 2.003459358215332031e+01 -6.777232885360717773e-01 -5.812476634979248047e+00 -2.363521307706832886e-01 -1.814648628234863281e+00 -6.880136728286743164e-01
1.540000000000000000e+02 1.908076286315917969e+01 -2.359043121337890625e+00 2.122325420379638672e+00 2.242901474237442017e-01 7.039846181869506836e-01 4.485236108303070068e-01
1.550000000000000000e+02 1.947172355651855469e+01 -2.324176311492919922e+00 2.345462322235107422e+00 3.790578544139862061e-01 8.173560500144958496e-01 5.885241627693176270e-01
1.560000000000000000e+02 1.907622146606445312e+01 -1.930684208869934082e+00 1.752373695373535156e+00 5.695140361785888672e-02 5.427975654602050781e-01 1.327971220016479492e-01
1.570000000000000000e+02 2.176465415954589844e+01 -2.079160690307617188e+00 1.977072954177856445e+00 8.645726203918457031e+00 3.186839818954467773e+00 1.726156949996948242e+00
1.580000000000000000e+02 2.173124122619628906e+01 -1.885310769081115723e+00 2.200154066085815430e+00 9.296599388122558594e+00 3.449025869369506836e+00 2.264977455139160156e+00
1.590000000000000000e+02 2.110360717773437500e+01 -1.956968665122985840e+00 3.283256769180297852e+00 3.617553234100341797e+00 2.070242881774902344e+00 2.523832559585571289e+00
1.600000000000000000e+02 2.077075004577636719e+01 -2.013367176055908203e+00 3.171165466308593750e+00 2.058773994445800781e+00 1.568981766700744629e+00 1.795010805130004883e+00
1.610000000000000000e+02 1.927896881103515625e+01 -2.337680339813232422e+00 2.185117006301879883e+00 2.624004185199737549e-01 7.342552542686462402e-01 4.976877272129058838e-01
1.620000000000000000e+02 2.240008544921875000e+01 6.200328469276428223e-01 -3.883835971355438232e-01 1.379163265228271484e+01 4.020974636077880859e+00 -4.153943538665771484e+00
1.630000000000000000e+02 2.250039291381835938e+01 2.963107228279113770e-01 9.677389264106750488e-01 1.510960292816162109e+01 4.823202610015869141e+00 -2.636923789978027344e+00
1.640000000000000000e+02 2.293257904052734375e+01 -2.060809135437011719e-01 7.223438262939453125e+00 9.092823982238769531e+00 4.894878864288330078e+00 -2.675667047500610352e+00
1.650000000000000000e+02 2.303973770141601562e+01 -6.957259774208068848e-01 1.029869079589843750e+01 6.379095554351806641e+00 5.003335952758789062e+00 -4.868373394012451172e+00
1.660000000000000000e+02 2.295059394836425781e+01 -1.064267396926879883e+00 9.233154296875000000e+00 8.508296966552734375e+00 5.322435379028320312e+00 -6.876419067382812500e+00
1.670000000000000000e+02 2.239923286437988281e+01 -1.659108161926269531e+00 2.716060161590576172e+00 1.363036632537841797e+01 4.903927803039550781e+00 -3.313943862915039062e+00
1.680000000000000000e+02 1.899974822998046875e+01 4.285497367382049561e-01 -1.248302459716796875e+00 1.121766209602355957e+00 -3.796088695526123047e-02 -1.213110089302062988e+00
1.690000000000000000e+02 1.921517562866210938e+01 4.411869943141937256e-01 -9.499883055686950684e-01 1.273712992668151855e+00 9.711741656064987183e-02 -1.470781922340393066e+00
1.700000000000000000e+02 1.902276229858398438e+01 -6.328890323638916016e-01 -5.703721046447753906e+00 2.954515218734741211e-01 -1.622480869293212891e+00 -9.945896267890930176e-02
1.710000000000000000e+02 1.941834259033203125e+01 -8.076131343841552734e-01 -6.413855075836181641e+00 -6.586302071809768677e-02 -1.943915486335754395e+00 -5.947103500366210938e-01
1.720000000000000000e+02 2.004328918457031250e+01 5.295087695121765137e-01 7.780655622482299805e-01 2.392986059188842773e+00 9.513154625892639160e-01 -3.456693410873413086e+00
1.730000000000000000e+02 2.126747322082519531e+01 6.501833200454711914e-01 1.241124033927917480e+00 8.768733024597167969e+00 3.002957105636596680e+00 -8.344193458557128906e+00
1.740000000000000000e+02 1.902993011474609375e+01 -8.405848145484924316e-01 -5.898976325988769531e+00 6.239076144993305206e-03 -1.767821192741394043e+00 -2.164442688226699829e-01
1.750000000000000000e+02 1.980670356750488281e+01 -7.133390307426452637e-01 -6.036037921905517578e+00 2.737814188003540039e-02 -1.802597880363464355e+00 -7.599204182624816895e-01
1.760000000000000000e+02 2.042591094970703125e+01 -7.099079489707946777e-01 -5.369642734527587891e+00 -1.141182258725166321e-01 -1.645128369331359863e+00 -6.122465133666992188e-01
1.770000000000000000e+02 1.963154602050781250e+01 4.814268052577972412e-01 -3.493759930133819580e-01 1.718081474304199219e+00 4.106116592884063721e-01 -2.248715877532958984e+00
1.780000000000000000e+02 2.082178878784179688e+01 -6.647706031799316406e-01 -4.199029922485351562e+00 -1.517489403486251831e-01 -1.305233716964721680e+00 -8.092753887176513672e-01
1.790000000000000000e+02 2.300501632690429688e+01 -3.857341408729553223e-01 9.261765480041503906e+00 6.881634712219238281e+00 4.843019962310791016e+00 -3.776651620864868164e+00
1.800000000000000000e+02 2.270477294921875000e+01 7.419866323471069336e-02 3.725423812866210938e+00 1.325630092620849609e+01 5.094517230987548828e+00 -2.102323055267333984e+00
1.810000000000000000e+02 2.232970046997070312e+01 3.783751130104064941e-01 3.747604787349700928e-01 1.593231391906738281e+01 4.892122268676757812e+00 -4.104665756225585938e+00
1.820000000000000000e+02 2.215063476562500000e+01 4.380893111228942871e-01 -3.864787220954895020e-01 1.628227615356445312e+01 4.768739223480224609e+00 -5.641002178192138672e+00
1.830000000000000000e+02 2.167201042175292969e+01 7.237130403518676758e-01 -1.242225021123886108e-01 1.282790660858154297e+01 3.811105012893676758e+00 -7.723116397857666016e+00
1.840000000000000000e+02 2.145542716979980469e+01 3.447566330432891846e-01 1.832427144050598145e+00 1.068544101715087891e+01 3.755360364913940430e+00 -9.309559822082519531e+00
1.850000000000000000e+02 2.084994697570800781e+01 -2.587957382202148438e-01 1.243956804275512695e+00 7.619099617004394531e-01 6.017600297927856445e-01 -3.582779407501220703e+00
1.860000000000000000e+02 2.082574272155761719e+01 -4.614105820655822754e-01 -9.615621566772460938e-01 8.777613937854766846e-02 -2.621358036994934082e-01 -1.905175805091857910e+00
1.870000000000000000e+02 2.085400009155273438e+01 -8.764806389808654785e-01 -6.457116007804870605e-01 -1.285552084445953369e-01 -2.322800457477569580e-01 -1.895718276500701904e-01
1.880000000000000000e+02 2.151653289794921875e+01 -1.672954916954040527e+00 3.177957773208618164e+00 7.183465957641601562e+00 3.108427047729492188e+00 3.423859596252441406e+00
1.890000000000000000e+02 2.234117889404296875e+01 -1.979494690895080566e+00 2.062307596206665039e+00 1.164430522918701172e+01 4.111983776092529297e+00 -2.021730661392211914e+00
1.900000000000000000e+02 1.924150085449218750e+01 -1.077981948852539062e+00 5.882128477096557617e-01 3.570276778191328049e-03 1.775349378585815430e-01 3.062805859372019768e-03
1.910000000000000000e+02 1.904661560058593750e+01 -1.308266639709472656e+00 9.663240909576416016e-01 -3.143615275621414185e-02 2.804663777351379395e-01 -3.207841515541076660e-02
1.920000000000000000e+02 1.904054450988769531e+01 -1.092176318168640137e+00 6.950416564941406250e-01 -2.255791239440441132e-02 2.017451226711273193e-01 2.319085039198398590e-02
1.930000000000000000e+02 1.929213905334472656e+01 -2.116483926773071289e+00 2.101198434829711914e+00 1.755641102790832520e-01 6.830287575721740723e-01 3.581370711326599121e-01
1.940000000000000000e+02 2.196189498901367188e+01 -2.064269542694091797e+00 1.797254443168640137e+00 9.842359542846679688e+00 3.491884231567382812e+00 7.241010665893554688e-01
1.950000000000000000e+02 2.100048637390136719e+01 -1.243408799171447754e+00 2.839057683944702148e+00 6.959635615348815918e-01 1.060506343841552734e+00 1.110187768936157227e+00
1.960000000000000000e+02 2.117760086059570312e+01 -2.145498037338256836e+00 2.980285882949829102e+00 4.338393688201904297e+00 2.195603847503662109e+00 2.422348499298095703e+00
1.970000000000000000e+02 2.116018676757812500e+01 -1.696254849433898926e+00 3.627228498458862305e+00 3.601517915725708008e+00 2.168623924255371094e+00 2.735638380050659180e+00
1.980000000000000000e+02 2.080066108703613281e+01 -2.193453073501586914e+00 3.113713741302490234e+00 2.440400600433349609e+00 1.666234254837036133e+00 1.871811747550964355e+00
1.990000000000000000e+02 2.312286949157714844e+01 -5.308168530464172363e-01 9.119166374206542969e+00 6.266116619110107422e+00 4.615584850311279297e+00 -4.076261997222900391e+00
2.000000000000000000e+02 2.147755432128906250e+01 6.812556982040405273e-01 9.658198952674865723e-01 1.082881832122802734e+01 3.538391590118408203e+00 -8.209921836853027344e+00
2.010000000000000000e+02 2.185899162292480469e+01 5.598757863044738770e-01 -4.044769108295440674e-01 1.432427120208740234e+01 4.175938129425048828e+00 -7.626121997833251953e+00
2.020000000000000000e+02 2.045401763916015625e+01 5.689095258712768555e-01 1.609817147254943848e+00 3.493577241897583008e+00 1.531018257141113281e+00 -4.944433689117431641e+00
2.030000000000000000e+02 2.083819389343261719e+01 -1.085613667964935303e-02 2.258672237396240234e+00 2.287892103195190430e+00 1.363969326019287109e+00 -5.057788848876953125e+00
2.040000000000000000e+02 2.037379264831542969e+01 -5.327796339988708496e-01 -4.003505706787109375e+00 1.207278370857238770e-01 -1.164833426475524902e+00 -1.174415946006774902e+00
2.050000000000000000e+02 2.056520843505859375e+01 -2.467768043279647827e-01 -4.435067176818847656e-01 7.352103590965270996e-01 8.751108497381210327e-02 -2.531293630599975586e+00
2.060000000000000000e+02 2.285889816284179688e+01 2.324900478124618530e-01 1.497072696685791016e+00 1.062213325500488281e+01 3.635761737823486328e+00 -2.499533176422119141e+00
2.070000000000000000e+02 2.126942062377929688e+01 4.167228341102600098e-01 2.255740165710449219e+00 8.399880409240722656e+00 3.196686267852783203e+00 -8.438497543334960938e+00
2.080000000000000000e+02 2.116489028930664062e+01 1.203716024756431580e-01 3.394922971725463867e+00 5.476777076721191406e+00 2.661509990692138672e+00 -7.947452545166015625e+00
2.090000000000000000e+02 2.257415008544921875e+01 5.436556935310363770e-01 4.138267338275909424e-01 1.223433208465576172e+01 3.794447660446166992e+00 -2.825001716613769531e+00
2.100000000000000000e+02 2.192613792419433594e+01 -1.725974082946777344e+00 1.844413876533508301e+00 1.220374393463134766e+01 4.214447498321533203e+00 1.348877668380737305e+00
2.110000000000000000e+02 2.092094612121582031e+01 -1.062111139297485352e+00 1.382513403892517090e+00 9.431104362010955811e-02 4.430473446846008301e-01 2.040562480688095093e-01
2.120000000000000000e+02 2.274492835998535156e+01 -1.401473999023437500e+00 6.029468059539794922e+00 1.166481399536132812e+01 5.308284759521484375e+00 -6.459270954132080078e+00
2.130000000000000000e+02 2.258109092712402344e+01 -1.539491534233093262e+00 4.102726936340332031e+00 1.305490016937255859e+01 5.147287845611572266e+00 -5.278124332427978516e+00
2.140000000000000000e+02 2.310912132263183594e+01 -1.314315795898437500e+00 7.694498062133789062e+00 7.621829986572265625e+00 4.594898223876953125e+00 -6.648493766784667969e+00
2.150000000000000000e+02 2.131229209899902344e+01 -1.570757865905761719e+00 3.736196517944335938e+00 4.455554008483886719e+00 2.457525253295898438e+00 3.198011636734008789e+00
2.160000000000000000e+02 2.048116493225097656e+01 -9.407734870910644531e-01 -6.904689222574234009e-02 -6.466224789619445801e-02 -4.011274129152297974e-02 -1.632572114467620850e-01
2.170000000000000000e+02 2.172832489013671875e+01 -1.714612603187561035e+00 2.315980911254882812e+00 9.982351303100585938e+00 3.689499855041503906e+00 2.692437887191772461e+00
2.180000000000000000e+02 2.193266105651855469e+01 -1.883545994758605957e+00 1.804246544837951660e+00 1.091242027282714844e+01 3.815000057220458984e+00 1.017079114913940430e+00
2.190000000000000000e+02 2.186075019836425781e+01 7.386145591735839844e-01 -1.589400470256805420e-01 1.370700263977050781e+01 4.064418792724609375e+00 -7.253819465637207031e+00
2.200000000000000000e+02 2.256146430969238281e+01 -1.778415441513061523e+00 3.012812852859497070e+00 1.189235305786132812e+01 4.471549510955810547e+00 -3.928303718566894531e+00
2.210000000000000000e+02 2.281365585327148438e+01 -1.763319492340087891e+00 4.064086437225341797e+00 9.944272994995117188e+00 4.202507972717285156e+00 -4.886516094207763672e+00
2.220000000000000000e+02 2.199648666381835938e+01 5.111265182495117188e-01 -2.862636744976043701e-01 1.564019680023193359e+01 4.606180191040039062e+00 -6.921899795532226562e+00
2.230000000000000000e+02 2.300136184692382812e+01 -1.484313130378723145e+00 6.107206344604492188e+00 8.868917465209960938e+00 4.492836952209472656e+00 -6.268674850463867188e+00
2.240000000000000000e+02 2.274064445495605469e+01 4.603486955165863037e-01 4.363725483417510986e-01 1.177527809143066406e+01 3.663495302200317383e+00 -1.920632243156433105e+00
2.250000000000000000e+02 2.287882232666015625e+01 7.551829516887664795e-02 4.405222892761230469e+00 8.582001686096191406e+00 3.896167278289794922e+00 -2.058312892913818359e+00
2.260000000000000000e+02 2.300306129455566406e+01 2.597455680370330811e-01 4.301662147045135498e-01 6.799797058105468750e+00 2.168988943099975586e+00 -1.421321749687194824e+00
2.270000000000000000e+02 2.325034332275390625e+01 -9.512223005294799805e-01 8.802638053894042969e+00 5.228617668151855469e+00 4.209376811981201172e+00 -5.521535873413085938e+00
2.280000000000000000e+02 2.329575157165527344e+01 -4.298488199710845947e-01 8.327279090881347656e+00 3.896139383316040039e+00 3.667025566101074219e+00 -3.430064201354980469e+00
2.290000000000000000e+02 2.281691360473632812e+01 -5.275576561689376831e-02 5.200348854064941406e+00 1.005232143402099609e+01 4.575800895690917969e+00 -1.734406709671020508e+00
2.300000000000000000e+02 2.323223495483398438e+01 -2.637940049171447754e-01 6.486281871795654297e+00 4.332537174224853516e+00 3.245645761489868164e+00 -2.584427833557128906e+00
2.310000000000000000e+02 2.319163513183593750e+01 -1.136172771453857422e+00 8.177206039428710938e+00 7.069018840789794922e+00 4.573867321014404297e+00 -6.352781295776367188e+00
2.320000000000000000e+02 2.300907135009765625e+01 -8.798230886459350586e-01 9.993797302246093750e+00 8.099272727966308594e+00 5.427921295166015625e+00 -6.131489276885986328e+00
2.330000000000000000e+02 2.331381988525390625e+01 -5.932378172874450684e-01 8.686889648437500000e+00 3.921667337417602539e+00 3.782567024230957031e+00 -4.002765178680419922e+00
2.340000000000000000e+02 2.291194915771484375e+01 -1.638207077980041504e+00 5.254572868347167969e+00 9.531044960021972656e+00 4.435685157775878906e+00 -5.777822971343994141e+00
2.350000000000000000e+02 2.204195213317871094e+01 7.217366099357604980e-01 -8.056984543800354004e-01 1.440091133117675781e+01 4.078563690185546875e+00 -6.234688282012939453e+00
2.360000000000000000e+02 1.942567825317382812e+01 4.588167369365692139e-01 -7.024888396263122559e-01 1.243281126022338867e+00 1.622376739978790283e-01 -1.836539268493652344e+00
2.370000000000000000e+02 1.922303390502929688e+01 -4.354377090930938721e-01 -4.485126495361328125e+00 2.652220726013183594e-01 -1.265971302986145020e+00 -3.688557446002960205e-01
2.380000000000000000e+02 1.960885429382324219e+01 -7.719539403915405273e-01 -6.295621871948242188e+00 -6.631043739616870880e-03 -1.890675902366638184e+00 -6.425632238388061523e-01
2.390000000000000000e+02 2.061868095397949219e+01 -6.815069317817687988e-01 -4.921918392181396484e+00 1.121994778513908386e-01 -1.442915678024291992e+00 -7.334151268005371094e-01
2.400000000000000000e+02 2.029499053955078125e+01 -1.004854083061218262e+00 1.452699452638626099e-01 -3.465454652905464172e-02 3.318461775779724121e-02 -1.283548772335052490e-01
2.410000000000000000e+02 1.964439010620117188e+01 -1.059779047966003418e+00 4.119638204574584961e-01 -1.278650667518377304e-02 1.197531893849372864e-01 -7.618499919772148132e-03
2.420000000000000000e+02 2.007994842529296875e+01 -1.044297099113464355e+00 2.490316778421401978e-01 -7.762263715267181396e-02 5.142271518707275391e-02 -6.268104910850524902e-02
2.430000000000000000e+02 2.048693847656250000e+01 -1.248034119606018066e+00 1.480648517608642578e+00 6.241396535187959671e-03 4.460669755935668945e-01 1.924917995929718018e-01
2.440000000000000000e+02 2.105315017700195312e+01 6.402463316917419434e-01 1.490246057510375977e+00 7.563025474548339844e+00 2.715981483459472656e+00 -7.399231910705566406e+00
2.450000000000000000e+02 2.070783233642578125e+01 3.641411364078521729e-01 2.039278268814086914e+00 3.881958723068237305e+00 1.776371121406555176e+00 -5.529101848602294922e+00
2.460000000000000000e+02 2.065156173706054688e+01 5.972782969474792480e-01 1.760053157806396484e+00 4.309265136718750000e+00 1.820795536041259766e+00 -5.748614311218261719e+00
2.470000000000000000e+02 1.968473243713378906e+01 2.308500260114669800e-01 -8.685380220413208008e-01 1.072746753692626953e+00 6.126261875033378601e-02 -1.925696969032287598e+00
2.480000000000000000e+02 1.988896942138671875e+01 2.658434212207794189e-01 -4.081859886646270752e-01 1.453743457794189453e+00 3.136672377586364746e-01 -2.414269208908081055e+00
2.490000000000000000e+02 1.924715614318847656e+01 2.036453783512115479e-01 -1.791700839996337891e+00 8.169661760330200195e-01 -2.924204170703887939e-01 -1.194187760353088379e+00
2.500000000000000000e+02 2.051941490173339844e+01 3.096272945404052734e-01 1.552030682563781738e+00 2.671570777893066406e+00 1.267080426216125488e+00 -4.771256923675537109e+00
2.510000000000000000e+02 1.922510147094726562e+01 -8.259175419807434082e-01 -6.309963226318359375e+00 1.513477265834808350e-01 -1.847584605216979980e+00 -4.357461929321289062e-01
2.520000000000000000e+02 1.902138137817382812e+01 -4.254429340362548828e-01 -4.485370159149169922e+00 6.109077930450439453e-01 -1.162338614463806152e+00 -2.884674370288848877e-01
2.530000000000000000e+02 1.906272506713867188e+01 -1.725231647491455078e+00 1.540157198905944824e+00 1.550341956317424774e-02 4.666981995105743408e-01 4.357025399804115295e-02
2.540000000000000000e+02 1.984454917907714844e+01 -2.297571182250976562e+00 2.604905128479003906e+00 5.736525654792785645e-01 9.535673260688781738e-01 8.378998041152954102e-01
2.550000000000000000e+02 2.022180557250976562e+01 -2.246343851089477539e+00 2.839141607284545898e+00 9.800518751144409180e-01 1.145758032798767090e+00 1.133713483810424805e+00
2.560000000000000000e+02 2.003115653991699219e+01 -2.271111249923706055e+00 2.701952934265136719e+00 7.767557501792907715e-01 1.043612599372863770e+00 9.689125418663024902e-01
2.570000000000000000e+02 2.084834098815917969e+01 -1.637894392013549805e+00 3.351459980010986328e+00 1.616098046302795410e+00 1.490267395973205566e+00 1.677233099937438965e+00
2.580000000000000000e+02 2.058047676086425781e+01 -2.006152629852294922e+00 3.091238021850585938e+00 1.444222688674926758e+00 1.360638141632080078e+00 1.483637332916259766e+00
2.590000000000000000e+02 2.112969970703125000e+01 -1.415664434432983398e+00 3.786380767822265625e+00 2.068710565567016602e+00 1.756527423858642578e+00 2.266572713851928711e+00
2.600000000000000000e+02 1.991514396667480469e+01 -1.870532035827636719e+00 2.335522413253784180e+00 2.540002763271331787e-01 7.768568396568298340e-01 5.130068659782409668e-01
2.610000000000000000e+02 2.093855285644531250e+01 -2.010651111602783203e+00 3.258322477340698242e+00 2.778604269027709961e+00 1.811077952384948730e+00 2.123373270034790039e+00
2.620000000000000000e+02 1.949249458312988281e+01 -2.112768173217773438e+00 2.192177534103393555e+00 2.569064497947692871e-01 7.347252368927001953e-01 4.528024494647979736e-01
2.630000000000000000e+02 2.060846138000488281e+01 -1.133998870849609375e+00 1.004573702812194824e+00 9.869168698787689209e-02 3.309796154499053955e-01 1.820410415530204773e-02
2.640000000000000000e+02 1.964973068237304688e+01 -1.340445876121520996e+00 1.089296340942382812e+00 -1.076767034828662872e-02 3.235585987567901611e-01 -2.465039864182472229e-02
2.650000000000000000e+02 1.902313613891601562e+01 -7.969168946146965027e-03 -2.957351446151733398e+00 5.631782412528991699e-01 -7.182519435882568359e-01 -5.843582749366760254e-01
2.660000000000000000e+02 2.002549362182617188e+01 -1.772240847349166870e-01 -1.654384493827819824e+00 5.042482018470764160e-01 -3.450408875942230225e-01 -1.618974685668945312e+00
2.670000000000000000e+02 2.012467193603515625e+01 -1.358881592750549316e+00 1.479913711547851562e+00 -1.838599145412445068e-02 4.384583234786987305e-01 7.005102932453155518e-02
2.680000000000000000e+02 1.908034515380859375e+01 -2.143238306045532227e+00 1.899559140205383301e+00 1.261187493801116943e-01 6.077033281326293945e-01 2.678476572036743164e-01
2.690000000000000000e+02 2.084719848632812500e+01 2.242874950170516968e-01 2.124651193618774414e+00 3.726620197296142578e+00 1.755381464958190918e+00 -6.265060901641845703e+00
2.700000000000000000e+02 2.059558486938476562e+01 -4.727817177772521973e-01 -2.407100677490234375e+00 1.949864625930786133e-01 -6.636342406272888184e-01 -1.595900535583496094e+00
2.710000000000000000e+02 2.079244422912597656e+01 -1.238787651062011719e+00 2.254277706146240234e+00 3.579900562763214111e-01 7.836803197860717773e-01 6.674024462699890137e-01
2.720000000000000000e+02 1.926037216186523438e+01 -2.598489820957183838e-02 -2.693530797958374023e+00 7.093043327331542969e-01 -5.952678918838500977e-01 -8.372139930725097656e-01
2.730000000000000000e+02 1.973634338378906250e+01 -1.970344424247741699e+00 2.254543066024780273e+00 2.377575784921646118e-01 7.476901412010192871e-01 4.642985463142395020e-01
2.740000000000000000e+02 2.011852073669433594e+01 -1.617349028587341309e+00 2.225536823272705078e+00 1.449698060750961304e-01 7.111520171165466309e-01 4.054528474807739258e-01
2.750000000000000000e+02 1.974196052551269531e+01 -3.276235237717628479e-02 -1.857013463973999023e+00 5.967935323715209961e-01 -3.780659437179565430e-01 -1.381441354751586914e+00
2.760000000000000000e+02 1.987452697753906250e+01 -1.349455475807189941e+00 1.171643614768981934e+00 -4.506989568471908569e-02 3.379721045494079590e-01 -2.891660295426845551e-02
2.770000000000000000e+02 1.994678688049316406e+01 3.163177147507667542e-02 -1.029490590095520020e+00 8.095155954360961914e-01 -6.599248945713043213e-02 -2.108988523483276367e+00
2.780000000000000000e+02 1.944453239440917969e+01 -1.319486975669860840e+00 1.024122357368469238e+00 -4.355832934379577637e-04 3.071060478687286377e-01 -3.703004121780395508e-02
2.790000000000000000e+02 1.944213676452636719e+01 -1.067752242088317871e+00 4.907141923904418945e-01 -3.477825783193111420e-03 1.461709141731262207e-01 2.549592638388276100e-03
2.800000000000000000e+02 2.013712692260742188e+01 -1.840349197387695312e+00 2.552289247512817383e+00 4.520996212959289551e-01 9.013167023658752441e-01 7.369271516799926758e-01
2.810000000000000000e+02 2.083545494079589844e+01 -1.877335071563720703e+00 3.218906402587890625e+00 2.071815013885498047e+00 1.587216377258300781e+00 1.841420054435729980e+00
2.820000000000000000e+02 1.950727844238281250e+01 -5.362642183899879456e-02 -2.395378828048706055e+00 6.078092455863952637e-01 -5.362708568572998047e-01 -1.053922295570373535e+00
2.830000000000000000e+02 1.927077865600585938e+01 -1.688805699348449707e+00 1.592433691024780273e+00 2.335624769330024719e-02 4.847369790077209473e-01 5.652934312820434570e-02
2.840000000000000000e+02 1.930616569519042969e+01 -1.888014435768127441e+00 1.819926261901855469e+00 7.362751662731170654e-02 5.680661201477050781e-01 1.702791899442672729e-01
2.850000000000000000e+02 1.965911674499511719e+01 -2.315068483352661133e+00 2.479317903518676758e+00 4.179554879665374756e-01 8.691819906234741211e-01 7.023927569389343262e-01
2.860000000000000000e+02 1.954833793640136719e+01 -1.881892561912536621e+00 2.035384178161621094e+00 1.221642419695854187e-01 6.472645401954650879e-01 2.863602340221405029e-01
2.870000000000000000e+02 1.981904029846191406e+01 -2.124512195587158203e+00 2.507689237594604492e+00 3.991958200931549072e-01 8.720655441284179688e-01 6.867507696151733398e-01
2.880000000000000000e+02 1.998817062377929688e+01 -2.077747821807861328e+00 2.617305040359497070e+00 5.507206916809082031e-01 9.504077434539794922e-01 8.119645118713378906e-01
2.890000000000000000e+02 1.905064010620117188e+01 -1.519781708717346191e+00 1.256983160972595215e+00 -4.438438918441534042e-04 3.769617974758148193e-01 -3.115183673799037933e-02
2.900000000000000000e+02 2.018003082275390625e+01 -2.047161579132080078e+00 2.704998493194580078e+00 7.393347024917602539e-01 1.033299922943115234e+00 9.490266442298889160e-01
2.910000000000000000e+02 2.041612625122070312e+01 -2.225425004959106445e+00 2.962954759597778320e+00 1.352981090545654297e+00 1.294780731201171875e+00 1.390168190002441406e+00
2.920000000000000000e+02 2.034113502502441406e+01 -1.836664199829101562e+00 2.703104734420776367e+00 7.311012148857116699e-01 1.030261754989624023e+00 9.368724822998046875e-01
2.930000000000000000e+02 1.938972473144531250e+01 -6.275128126144409180e-01 -5.515909671783447266e+00 1.165691837668418884e-01 -1.619802117347717285e+00 -4.281516373157501221e-01
2.940000000000000000e+02 1.940686607360839844e+01 -4.689986109733581543e-01 -4.628568172454833984e+00 2.884090542793273926e-01 -1.302047729492187500e+00 -3.201134204864501953e-01
2.950000000000000000e+02 1.924782943725585938e+01 -2.389205992221832275e-01 -3.496958494186401367e+00 5.222222208976745605e-01 -8.924208879470825195e-01 -4.743155241012573242e-01
2.960000000000000000e+02 1.902363204956054688e+01 -2.181973308324813843e-01 -3.594057321548461914e+00 4.488104283809661865e-01 -9.435740709304809570e-01 -4.678564369678497314e-01
2.970000000000000000e+02 1.901518249511718750e+01 2.077733874320983887e-01 -2.149115085601806641e+00 1.016301274299621582e+00 -3.398441672325134277e-01 -8.967537879943847656e-01
2.980000000000000000e+02 2.005659484863281250e+01 -3.905988037586212158e-01 -3.349998474121093750e+00 1.115188822150230408e-01 -9.715439081192016602e-01 -1.121183991432189941e+00
2.990000000000000000e+02 2.024651908874511719e+01 -7.017363309860229492e-01 -5.630913734436035156e+00 3.403866291046142578e-02 -1.679062604904174805e+00 -5.742279887199401855e-01
3.000000000000000000e+02 1.923736572265625000e+01 -1.511101722717285156e+00 1.269149184226989746e+00 -1.863729022443294525e-02 3.751535713672637939e-01 -1.068078354001045227e-02
3.010000000000000000e+02 1.924649238586425781e+01 -1.305971026420593262e+00 9.757442474365234375e-01 -8.743044920265674591e-03 2.901003658771514893e-01 -3.061246871948242188e-02
3.020000000000000000e+02 1.947197341918945312e+01 2.083267122507095337e-01 -1.330366015434265137e+00 1.017707943916320801e+00 -9.379743039608001709e-02 -1.482890486717224121e+00
3.030000000000000000e+02 2.075021743774414062e+01 -1.080167412757873535e+00 1.011220932006835938e+00 2.982821129262447357e-02 3.123147487640380859e-01 7.358349859714508057e-02
3.040000000000000000e+02 2.066685104370117188e+01 -9.010636210441589355e-01 -3.627291023731231689e-01 3.138511627912521362e-02 -9.940319508314132690e-02 -1.979902833700180054e-01
3.050000000000000000e+02 1.983678054809570312e+01 5.062207579612731934e-01 1.990713626146316528e-01 1.913802981376647949e+00 6.338623166084289551e-01 -2.889184474945068359e+00
3.060000000000000000e+02 2.009402847290039062e+01 2.953971922397613525e-01 1.215737611055374146e-01 1.673976063728332520e+00 5.386649370193481445e-01 -3.112884759902954102e+00
3.070000000000000000e+02 2.030245971679687500e+01 3.056887090206146240e-01 9.169516563415527344e-01 1.995885252952575684e+00 8.738510608673095703e-01 -3.739703178405761719e+00
3.080000000000000000e+02 2.025009346008300781e+01 5.488567352294921875e-01 1.251102209091186523e+00 2.788380622863769531e+00 1.211844801902770996e+00 -4.377350330352783203e+00
3.090000000000000000e+02 2.087336921691894531e+01 4.124865829944610596e-01 1.967322111129760742e+00 5.168232917785644531e+00 2.140666484832763672e+00 -6.552258968353271484e+00
3.100000000000000000e+02 2.084961318969726562e+01 6.239371299743652344e-01 2.207390069961547852e+00 6.015182971954345703e+00 2.466771841049194336e+00 -6.503321170806884766e+00
3.110000000000000000e+02 2.106294250488281250e+01 4.078487753868103027e-01 2.356562376022338867e+00 6.180155277252197266e+00 2.561015129089355469e+00 -7.823018550872802734e+00
3.120000000000000000e+02 2.130802917480468750e+01 2.399310022592544556e-01 3.025672674179077148e+00 7.937084197998046875e+00 3.288827180862426758e+00 -9.164747238159179688e+00
3.130000000000000000e+02 2.172842025756835938e+01 3.916232287883758545e-01 5.086954832077026367e-01 1.418510723114013672e+01 4.408140659332275391e+00 -9.031745910644531250e+00
3.140000000000000000e+02 2.157583808898925781e+01 4.695740938186645508e-01 1.136682033538818359e+00 1.221202373504638672e+01 4.004611492156982422e+00 -9.021713256835937500e+00
3.150000000000000000e+02 2.171034622192382812e+01 5.454517006874084473e-01 4.175438582897186279e-01 1.322398376464843750e+01 4.092458248138427734e+00 -7.990598201751708984e+00
3.160000000000000000e+02 2.222042274475097656e+01 6.796723604202270508e-01 -5.323291420936584473e-01 1.423339557647705078e+01 4.110320091247558594e+00 -5.314328193664550781e+00
3.170000000000000000e+02 2.289257621765136719e+01 3.751240372657775879e-01 6.061033010482788086e-01 8.887095451354980469e+00 2.847959518432617188e+00 -1.364866733551025391e+00
3.180000000000000000e+02 2.307577896118164062e+01 9.691966325044631958e-02 3.398642778396606445e+00 7.560469150543212891e+00 3.287733554840087891e+00 -2.656560420989990234e+00
3.190000000000000000e+02 2.315354537963867188e+01 -8.572943508625030518e-02 5.648540973663330078e+00 4.698409080505371094e+00 3.104084968566894531e+00 -2.391049146652221680e+00
3.200000000000000000e+02 2.328745651245117188e+01 -7.673692107200622559e-01 8.900152206420898438e+00 5.103208541870117188e+00 4.201008319854736328e+00 -4.917170524597167969e+00
3.210000000000000000e+02 2.286267852783203125e+01 -1.239186882972717285e+00 7.614531993865966797e+00 1.034165000915527344e+01 5.386854648590087891e+00 -6.966222286224365234e+00
3.220000000000000000e+02 2.267642784118652344e+01 -1.867902517318725586e+00 3.538913965225219727e+00 1.046204090118408203e+01 4.200286388397216797e+00 -4.464055061340332031e+00
3.230000000000000000e+02 2.252130317687988281e+01 -1.929901242256164551e+00 2.553198814392089844e+00 1.109674644470214844e+01 4.094983577728271484e+00 -3.013511657714843750e+00
3.240000000000000000e+02 2.210490989685058594e+01 -1.709984779357910156e+00 1.723306894302368164e+00 1.353930091857910156e+01 4.578782081604003906e+00 -5.552870035171508789e-01
3.250000000000000000e+02 2.225264358520507812e+01 -1.783773660659790039e+00 1.933713436126708984e+00 1.293067646026611328e+01 4.459316730499267578e+00 -1.654174327850341797e+00
3.260000000000000000e+02 2.210984230041503906e+01 -1.863741278648376465e+00 1.794982075691223145e+00 1.177128219604492188e+01 4.069879055023193359e+00 -3.286249041557312012e-01
3.270000000000000000e+02 2.150862693786621094e+01 -1.874205231666564941e+00 2.784879684448242188e+00 6.899099349975585938e+00 2.905193805694580078e+00 2.861571311950683594e+00
3.280000000000000000e+02 2.129116249084472656e+01 -1.896935582160949707e+00 3.156821727752685547e+00 4.978364467620849609e+00 2.440555810928344727e+00 2.818205833435058594e+00
3.290000000000000000e+02 2.136692810058593750e+01 -2.114658832550048828e+00 2.691247701644897461e+00 5.704084873199462891e+00 2.518599748611450195e+00 2.464734792709350586e+00
3.300000000000000000e+02 2.098992729187011719e+01 -2.175133466720581055e+00 3.129968404769897461e+00 3.304401874542236328e+00 1.930311083793640137e+00 2.236906766891479492e+00
3.310000000000000000e+02 2.060969352722167969e+01 -2.207125902175903320e+00 3.044886589050292969e+00 1.845275878906250000e+00 1.467048764228820801e+00 1.636780858039855957e+00
3.320000000000000000e+02 2.055436134338378906e+01 2.457526884973049164e-02 8.711112141609191895e-01 1.456335902214050293e+00 6.982341408729553223e-01 -3.747681140899658203e+00
3.330000000000000000e+02 2.097061920166015625e+01 -1.521303772926330566e+00 3.504696130752563477e+00 1.574947357177734375e+00 1.523892998695373535e+00 1.860754489898681641e+00
3.340000000000000000e+02 2.104673576354980469e+01 -8.671109098941087723e-04 3.619579792022705078e+00 3.059475183486938477e+00 2.003716468811035156e+00 -6.434587955474853516e+00
3.350000000000000000e+02 2.103269195556640625e+01 1.989734321832656860e-01 2.627196311950683594e+00 4.828295230865478516e+00 2.236647605895996094e+00 -7.040801525115966797e+00
3.360000000000000000e+02 2.188548851013183594e+01 4.084761738777160645e-01 2.453038841485977173e-01 1.572686958312988281e+01 4.791652202606201172e+00 -7.689703464508056641e+00
3.370000000000000000e+02 2.271600532531738281e+01 -1.658545851707458496e+00 4.336819171905517578e+00 1.132789039611816406e+01 4.699412822723388672e+00 -5.333328247070312500e+00
3.380000000000000000e+02 2.268145942687988281e+01 2.478384822607040405e-01 1.827869415283203125e+00 1.240536403656005859e+01 4.269969940185546875e+00 -2.110244274139404297e+00
3.390000000000000000e+02 1.940760803222656250e+01 -1.552120089530944824e+00 1.433048129081726074e+00 2.444639988243579865e-02 4.372483789920806885e-01 4.005689918994903564e-02
3.400000000000000000e+02 1.961554145812988281e+01 -1.618644714355468750e+00 1.667479753494262695e+00 2.457360550761222839e-02 5.076159834861755371e-01 9.907896071672439575e-02
3.410000000000000000e+02 1.947970581054687500e+01 -2.915216088294982910e-01 -3.518725872039794922e+00 3.209600746631622314e-01 -9.593297243118286133e-01 -6.927565932273864746e-01
3.420000000000000000e+02 2.074168968200683594e+01 -1.385451436042785645e+00 2.637261390686035156e+00 6.053402423858642578e-01 9.727804660797119141e-01 8.493471145629882812e-01
3.430000000000000000e+02 1.987125968933105469e+01 -1.626979708671569824e+00 1.947574853897094727e+00 6.284651160240173340e-02 6.031264066696166992e-01 2.283629477024078369e-01
3.440000000000000000e+02 2.040390396118164062e+01 -1.441219449043273926e+00 2.100883960723876953e+00 1.799027919769287109e-01 6.842359900474548340e-01 4.259883463382720947e-01
3.450000000000000000e+02 2.099111747741699219e+01 -1.787600398063659668e+00 3.385962963104248047e+00 2.486414432525634766e+00 1.761713266372680664e+00 2.160892963409423828e+00
3.460000000000000000e+02 2.066217994689941406e+01 -1.539966940879821777e+00 2.876395225524902344e+00 7.752280235290527344e-01 1.095486998558044434e+00 1.048386693000793457e+00
3.470000000000000000e+02 2.035396957397460938e+01 -1.655195593833923340e+00 2.581470012664794922e+00 4.716834425926208496e-01 9.159460663795471191e-01 7.403256893157958984e-01
3.480000000000000000e+02 2.051972198486328125e+01 -1.795827865600585938e+00 2.905710697174072266e+00 9.583976268768310547e-01 1.159232497215270996e+00 1.173017621040344238e+00
3.490000000000000000e+02 2.069574165344238281e+01 -1.722988247871398926e+00 3.089715242385864258e+00 1.220038294792175293e+00 1.292926073074340820e+00 1.408606529235839844e+00
3.500000000000000000e+02 2.032135391235351562e+01 6.310667842626571655e-02 8.623579889535903931e-02 1.293949127197265625e+00 4.140554666519165039e-01 -3.097037553787231445e+00
3.510000000000000000e+02 2.037989044189453125e+01 -2.028483629226684570e+00 2.884308099746704102e+00 9.633995294570922852e-01 1.154312252998352051e+00 1.149259924888610840e+00
3.520000000000000000e+02 1.953914642333984375e+01 -5.761855840682983398e-01 -5.287703990936279297e+00 3.220503404736518860e-02 -1.576649665832519531e+00 -5.543864369392395020e-01
3.530000000000000000e+02 1.969124412536621094e+01 -4.451784491539001465e-01 -4.220072746276855469e+00 1.945950686931610107e-01 -1.207643389701843262e+00 -6.499083042144775391e-01
3.540000000000000000e+02 1.966507339477539062e+01 -2.135478973388671875e+00 2.335667610168457031e+00 3.145008087158203125e-01 7.950505018234252930e-01 5.586284995079040527e-01
3.550000000000000000e+02 2.013483047485351562e+01 7.908280193805694580e-02 -3.879032135009765625e-01 1.301515102386474609e+00 2.740835547447204590e-01 -2.589986562728881836e+00
3.560000000000000000e+02 2.030254936218261719e+01 -3.204334080219268799e-01 -2.058621168136596680e+00 2.413301765918731689e-01 -5.451872944831848145e-01 -1.738049983978271484e+00
3.570000000000000000e+02 1.985458755493164062e+01 -2.824307382106781006e-01 -3.084820747375488281e+00 1.394084990024566650e-01 -8.836236596107482910e-01 -1.023023724555969238e+00
3.580000000000000000e+02 2.021690940856933594e+01 -1.055970042943954468e-01 -9.024862647056579590e-01 7.345688939094543457e-01 -5.037521570920944214e-02 -2.283829689025878906e+00
3.590000000000000000e+02 1.866853523254394531e+01 -2.801089286804199219e-01 -4.205284595489501953e+00 3.794288933277130127e-01 -1.147756695747375488e+00 -2.945342361927032471e-01
3.600000000000000000e+02 1.666704750061035156e+01 -1.828777417540550232e-02 -4.159901142120361328e+00 1.543920189142227173e-01 -1.201652765274047852e+00 4.852806031703948975e-01
3.610000000000000000e+02 1.814574241638183594e+01 -1.002838388085365295e-01 -3.798571109771728516e+00 4.142054021358489990e-01 -1.015309691429138184e+00 -1.804683953523635864e-01
3.620000000000000000e+02 1.809632682800292969e+01 -7.179520130157470703e-01 -6.262115001678466797e+00 2.828840725123882294e-02 -1.870147943496704102e+00 2.763056457042694092e-01
3.630000000000000000e+02 1.695945358276367188e+01 -6.336388587951660156e-01 -5.949918270111083984e+00 2.708832547068595886e-02 -1.776849031448364258e+00 4.260774552822113037e-01
3.640000000000000000e+02 1.860057449340820312e+01 4.248376190662384033e-01 -1.826008677482604980e+00 7.326084971427917480e-01 -3.280200660228729248e-01 -8.066799044609069824e-01
3.650000000000000000e+02 1.865244865417480469e+01 -3.785650804638862610e-02 -3.174327850341796875e+00 4.406246244907379150e-01 -8.201109766960144043e-01 -4.361039400100708008e-01
3.660000000000000000e+02 1.865485954284667969e+01 1.916474550962448120e-01 -2.591874361038208008e+00 4.410919845104217529e-01 -6.452347636222839355e-01 -5.176124572753906250e-01
3.670000000000000000e+02 1.638316345214843750e+01 3.551232516765594482e-01 -3.417044878005981445e+00 2.128857970237731934e-01 -9.612476825714111328e-01 4.621329307556152344e-01
3.680000000000000000e+02 1.631675910949707031e+01 -5.301941037178039551e-01 -5.389413356781005859e+00 2.584632672369480133e-02 -1.609070062637329102e+00 5.416300892829895020e-01
3.690000000000000000e+02 1.753143501281738281e+01 -6.956235766410827637e-01 -6.241768360137939453e+00 -1.335166860371828079e-02 -1.876536011695861816e+00 3.333962261676788330e-01
3.700000000000000000e+02 1.870842170715332031e+01 -8.432390093803405762e-01 -6.143318176269531250e+00 1.070708483457565308e-01 -1.810874223709106445e+00 1.206373274326324463e-01
3.710000000000000000e+02 1.877931976318359375e+01 -6.550016999244689941e-01 -5.497268676757812500e+00 2.694402337074279785e-01 -1.568348646163940430e+00 4.940576851367950439e-02
3.720000000000000000e+02 1.819966506958007812e+01 2.257830947637557983e-01 -2.713393211364746094e+00 5.799753665924072266e-01 -6.400253772735595703e-01 -3.051984012126922607e-01
3.730000000000000000e+02 1.872656059265136719e+01 -4.861421287059783936e-01 -5.211345195770263672e+00 2.218244373798370361e-01 -1.496856331825256348e+00 -1.385611891746520996e-01
3.740000000000000000e+02 1.765824127197265625e+01 3.150670528411865234e-01 -2.850402832031250000e+00 3.857884407043457031e-01 -7.393842935562133789e-01 -9.180132299661636353e-02
3.750000000000000000e+02 1.850980949401855469e+01 -6.931478977203369141e-01 -5.894548416137695312e+00 1.335299108177423477e-03 -1.767964005470275879e+00 1.361455470323562622e-01
3.760000000000000000e+02 1.728401947021484375e+01 -1.714720577001571655e-01 -4.556778907775878906e+00 3.639502450823783875e-02 -1.356115102767944336e+00 3.348656892776489258e-01
3.770000000000000000e+02 1.775822067260742188e+01 -3.123072981834411621e-01 -4.856023311614990234e+00 6.395456194877624512e-02 -1.437620639801025391e+00 3.483926653861999512e-01
3.780000000000000000e+02 1.817896461486816406e+01 -3.723648488521575928e-01 -4.899700641632080078e+00 1.227376312017440796e-01 -1.433089017868041992e+00 1.218409165740013123e-01
3.790000000000000000e+02 1.703137588500976562e+01 3.918342888355255127e-01 -2.892741918563842773e+00 3.056159317493438721e-01 -7.761378288269042969e-01 2.433062791824340820e-01
3.800000000000000000e+02 1.486307811737060547e+01 -3.233321905136108398e-01 -5.010828971862792969e+00 -1.062836870551109314e-01 -1.535133838653564453e+00 7.638941407203674316e-01
3.810000000000000000e+02 1.494082546234130859e+01 4.127148389816284180e-01 -3.420848131179809570e+00 -9.193609468638896942e-03 -1.029012441635131836e+00 6.599899530410766602e-01
3.820000000000000000e+02 1.566855812072753906e+01 3.223553001880645752e-01 -3.519492387771606445e+00 1.173620671033859253e-01 -1.020639061927795410e+00 5.893240571022033691e-01
3.830000000000000000e+02 1.348571777343750000e+01 5.956525206565856934e-01 -3.304899930953979492e+00 -8.163816481828689575e-02 -1.015961408615112305e+00 7.962769269943237305e-01
3.840000000000000000e+02 1.421319389343261719e+01 5.034325718879699707e-01 -3.372211217880249023e+00 -8.727829158306121826e-02 -1.037846803665161133e+00 7.568188905715942383e-01
3.850000000000000000e+02 1.338628005981445312e+01 -1.376729756593704224e-01 -4.448968410491943359e+00 -9.806161373853683472e-02 -1.364109039306640625e+00 7.523294091224670410e-01
3.860000000000000000e+02 1.560165596008300781e+01 -4.150524735450744629e-01 -5.138782024383544922e+00 1.036009378731250763e-02 -1.538526654243469238e+00 6.820283532142639160e-01
3.870000000000000000e+02 1.412460136413574219e+01 -2.312536984682083130e-01 -4.765261173248291016e+00 -1.007497161626815796e-01 -1.459803342819213867e+00 7.550976276397705078e-01
3.880000000000000000e+02 1.115022563934326172e+01 2.165033817291259766e-01 -3.802945375442504883e+00 -1.351982802152633667e-01 -1.181443095207214355e+00 7.248605489730834961e-01
3.890000000000000000e+02 1.122651290893554688e+01 9.537453055381774902e-01 -2.860559701919555664e+00 -2.110448926687240601e-01 -9.214813709259033203e-01 7.350181341171264648e-01
3.900000000000000000e+02 1.040434932708740234e+01 3.321511745452880859e-01 -3.708405971527099609e+00 -1.919135898351669312e-01 -1.170095801353454590e+00 6.130364537239074707e-01
3.910000000000000000e+02 1.189680099487304688e+01 9.631319344043731689e-02 -3.999428510665893555e+00 -1.504687368869781494e-01 -1.244969129562377930e+00 7.636453509330749512e-01
3.920000000000000000e+02 1.274307727813720703e+01 7.053368687629699707e-01 -3.180751085281372070e+00 -1.208900809288024902e-01 -9.904923439025878906e-01 7.769720554351806641e-01
3.930000000000000000e+02 1.264393043518066406e+01 -2.822761237621307373e-02 -4.186489582061767578e+00 -1.055403053760528564e-01 -1.287608981132507324e+00 7.724460959434509277e-01
3.940000000000000000e+02 1.046920776367187500e+01 1.071231842041015625e+00 -2.558134078979492188e+00 -2.728789150714874268e-01 -8.493039608001708984e-01 6.897800564765930176e-01
3.950000000000000000e+02 1.198451900482177734e+01 8.317164182662963867e-01 -2.999826431274414062e+00 -1.438252925872802734e-01 -9.430955648422241211e-01 7.696891427040100098e-01
3.960000000000000000e+02 8.874713897705078125e+00 3.907073438167572021e-01 -2.695674419403076172e+00 -1.197809167206287384e-02 -8.122957944869995117e-01 2.477162480354309082e-01
3.970000000000000000e+02 9.645540237426757812e+00 3.903963863849639893e-01 -3.328734397888183594e+00 -1.341967135667800903e-01 -1.038879394531250000e+00 3.879012167453765869e-01
3.980000000000000000e+02 7.374577522277832031e+00 1.131132245063781738e+00 -1.563439130783081055e+00 -5.005439370870590210e-02 -4.840480685234069824e-01 5.062205791473388672e-01
3.990000000000000000e+02 7.331357002258300781e+00 3.911322057247161865e-01 -1.834333539009094238e+00 -3.217614954337477684e-03 -5.512653589248657227e-01 1.858142018318176270e-01
4.000000000000000000e+02 5.045433998107910156e+00 1.131745219230651855e+00 -7.988785505294799805e-01 -3.336446359753608704e-02 -2.496728897094726562e-01 3.764070570468902588e-01
4.010000000000000000e+02 2.715631723403930664e+00 1.131616950035095215e+00 -2.592042386531829834e-01 -6.213584914803504944e-02 -9.640202671289443970e-02 2.111662030220031738e-01
4.020000000000000000e+02 2.699708461761474609e+00 3.916168808937072754e-01 -1.943976134061813354e-01 -1.257997751235961914e-02 -6.209327653050422668e-02 7.285317033529281616e-02
4.030000000000000000e+02 1.939137935638427734e+00 1.131583452224731445e+00 -1.386906355619430542e-01 -6.801261752843856812e-02 -6.201097741723060608e-02 1.349193453788757324e-01
4.040000000000000000e+02 1.927764058113098145e+00 3.915834426879882812e-01 -7.578235119581222534e-02 -1.611604727804660797e-02 -2.756951935589313507e-02 4.322067275643348694e-02
4.050000000000000000e+02 1.156864285469055176e+00 3.912966847419738770e-01 -1.629499159753322601e-02 -1.206864975392818451e-02 -8.509092032909393311e-03 1.431177556514739990e-02
4.060000000000000000e+02 3.880036771297454834e-01 1.130522727966308594e+00 -1.061329059302806854e-02 -1.369417645037174225e-02 -7.292239926755428314e-03 1.256618741899728775e-02
4.070000000000000000e+02 3.857289254665374756e-01 3.905227184295654297e-01 -1.130766468122601509e-03 -8.997932309284806252e-04 -6.091679097153246403e-04 8.692984119988977909e-04
4.080000000000000000e+02 4.243989944458007812e+00 3.916435539722442627e-01 -5.928487181663513184e-01 -6.794429849833250046e-03 -1.798929423093795776e-01 1.190441101789474487e-01
4.090000000000000000e+02 3.472155570983886719e+00 3.916060328483581543e-01 -3.706146180629730225e-01 -1.292161922901868820e-02 -1.150608733296394348e-01 9.876635670661926270e-02
4.100000000000000000e+02 4.269012451171875000e+00 1.131643533706665039e+00 -5.915422439575195312e-01 -4.530130699276924133e-02 -1.910530626773834229e-01 3.318911790847778320e-01
4.110000000000000000e+02 5.015861988067626953e+00 3.917452692985534668e-01 -8.547953367233276367e-01 -1.167894527316093445e-02 -2.599422931671142578e-01 1.373094171285629272e-01
4.120000000000000000e+02 5.788088321685791016e+00 3.919011354446411133e-01 -1.149446129798889160e+00 -3.443694906309247017e-03 -3.458669483661651611e-01 1.528736948966979980e-01
4.130000000000000000e+02 6.598729610443115234e+00 1.131563067436218262e+00 -1.286023855209350586e+00 -3.089709952473640442e-02 -3.950762748718261719e-01 4.586174786090850830e-01
4.140000000000000000e+02 6.560058593750000000e+00 3.915631175041198730e-01 -1.475877285003662109e+00 -1.323227956891059875e-02 -4.467328488826751709e-01 1.687501370906829834e-01
4.150000000000000000e+02 8.103197097778320312e+00 3.908808529376983643e-01 -2.234935998916625977e+00 -2.340175770223140717e-02 -6.775013208389282227e-01 2.109994888305664062e-01
4.160000000000000000e+02 8.150966644287109375e+00 1.130880832672119141e+00 -1.853934764862060547e+00 -5.044010654091835022e-02 -5.713124275207519531e-01 5.553827881813049316e-01
4.170000000000000000e+02 8.927033424377441406e+00 1.130707383155822754e+00 -2.177617788314819336e+00 -1.275685131549835205e-01 -6.915559172630310059e-01 6.607487797737121582e-01
4.180000000000000000e+02 9.702409744262695312e+00 1.130396366119384766e+00 -2.326277256011962891e+00 -2.458724826574325562e-01 -7.716448903083801270e-01 7.369666695594787598e-01
4.190000000000000000e+02 5.822209835052490234e+00 1.131901144981384277e+00 -1.032711505889892578e+00 -3.914300352334976196e-02 -3.215563595294952393e-01 4.200845062732696533e-01
4.200000000000000000e+02 3.492628335952758789e+00 1.131605982780456543e+00 -4.087055623531341553e-01 -4.881409183144569397e-02 -1.372558921575546265e-01 2.748668789863586426e-01
4.210000000000000000e+02 1.163688659667968750e+00 1.131296634674072266e+00 -5.656085535883903503e-02 -5.892255157232284546e-02 -3.464502096176147461e-02 6.077515333890914917e-02
4.220000000000000000e+02 1.328147125244140625e+01 -9.107246994972229004e-01 2.922092676162719727e-01 -5.170900374650955200e-03 8.611150830984115601e-02 2.046631649136543274e-02
4.230000000000000000e+02 1.470345211029052734e+01 -1.836183547973632812e+00 7.024364471435546875e-01 -2.494002133607864380e-02 2.032489180564880371e-01 1.204575672745704651e-01
4.240000000000000000e+02 1.318203258514404297e+01 -1.644050240516662598e+00 4.317568838596343994e-01 -2.229416556656360626e-02 1.228388175368309021e-01 1.182056143879890442e-01
4.250000000000000000e+02 1.478120040893554688e+01 -1.100136518478393555e+00 5.383536815643310547e-01 -5.183748900890350342e-03 1.599509716033935547e-01 6.581591442227363586e-04
4.260000000000000000e+02 1.546425342559814453e+01 -1.930399060249328613e+00 8.451071381568908691e-01 -1.622454077005386353e-02 2.486647814512252808e-01 1.192482188344001770e-01
4.270000000000000000e+02 1.553115558624267578e+01 -1.192991256713867188e+00 6.845162510871887207e-01 -5.247870376479113474e-06 2.053533047437667847e-01 -4.331662785261869431e-03
4.280000000000000000e+02 1.403127861022949219e+01 -1.006039500236511230e+00 4.102604091167449951e-01 -7.370789069682359695e-03 1.208668872714042664e-01 1.168964896351099014e-02
4.290000000000000000e+02 1.394268608093261719e+01 -1.740725755691528320e+00 5.599008798599243164e-01 -2.399740554392337799e-02 1.607710421085357666e-01 1.178219914436340332e-01
4.300000000000000000e+02 1.097923088073730469e+01 -2.026462554931640625e+00 2.347357720136642456e-01 3.801734419539570808e-03 7.156125456094741821e-02 1.562335193157196045e-01
4.310000000000000000e+02 4.268694400787353516e+00 -1.965149760246276855e+00 -5.433463305234909058e-02 1.650143414735794067e-02 -1.134995929896831512e-02 -4.747064411640167236e-02
4.320000000000000000e+02 5.888164043426513672e-01 -1.071926212310791016e+01 -2.744843065738677979e-02 -6.982395052909851074e-01 -2.177063673734664917e-01 -1.002959460020065308e-01
4.330000000000000000e+02 9.885460853576660156e+00 -1.650644683837890625e+01 2.715410470962524414e+00 9.210007786750793457e-01 1.090923428535461426e+00 1.615474104881286621e+00
4.340000000000000000e+02 1.131208133697509766e+01 -1.619554710388183594e+01 1.262149810791015625e+00 4.774385988712310791e-01 5.218765139579772949e-01 8.161577582359313965e-01
4.350000000000000000e+02 1.272798156738281250e+01 -1.616171264648437500e+01 -3.012555539608001709e-01 -1.438789963722229004e-01 -1.335403621196746826e-01 5.779459476470947266e-01
4.360000000000000000e+02 1.597409343719482422e+01 -1.569347953796386719e+01 -9.907594323158264160e-01 -3.036751747131347656e-01 -3.883303999900817871e-01 8.295702934265136719e-01
4.370000000000000000e+02 1.809289550781250000e+01 -1.423781013488769531e+01 -5.747914910316467285e-01 6.160787865519523621e-02 -1.539550870656967163e-01 8.844425678253173828e-01
4.380000000000000000e+02 1.911581611633300781e+01 -3.012214899063110352e+00 2.321077108383178711e+00 4.674918353557586670e-01 8.365706801414489746e-01 7.939279675483703613e-01
4.390000000000000000e+02 1.739732170104980469e+01 -2.676714420318603516e+00 1.508457183837890625e+00 5.345221143215894699e-03 4.541407227516174316e-01 2.776798307895660400e-01
4.400000000000000000e+02 1.465963554382324219e+01 -2.481485128402709961e+00 8.269877433776855469e-01 -3.486850857734680176e-02 2.376357764005661011e-01 2.279820740222930908e-01
4.410000000000000000e+02 1.390301132202148438e+01 -2.399335384368896484e+00 6.830880641937255859e-01 -3.359163925051689148e-02 1.948489248752593994e-01 2.232284843921661377e-01
4.420000000000000000e+02 1.103458881378173828e+01 -2.728121995925903320e+00 3.255116045475006104e-01 1.979288458824157715e-02 1.035913452506065369e-01 2.333733290433883667e-01
4.430000000000000000e+02 9.996047973632812500e+00 -1.360649776458740234e+01 3.258413970470428467e-01 1.703013658523559570e+00 6.086565256118774414e-01 1.748264789581298828e+00
4.440000000000000000e+02 1.117452621459960938e+01 -1.401249885559082031e+01 5.385448932647705078e-01 9.304613471031188965e-01 4.407018721103668213e-01 1.830675125122070312e+00
4.450000000000000000e+02 1.771036267280578613e+00 -1.076683044433593750e+01 -5.355509743094444275e-02 -2.840064764022827148e-01 -1.012684777379035950e-01 -2.422303855419158936e-01
4.460000000000000000e+02 7.432681560516357422e+00 -1.819828796386718750e+01 2.573376417160034180e+00 5.860517978668212891e+00 2.530168294906616211e+00 3.066725492477416992e+00
4.470000000000000000e+02 6.105367541313171387e-01 -1.774013900756835938e+01 2.942861616611480713e-02 -2.283075809478759766e+00 -6.760941743850708008e-01 -6.590641289949417114e-02
4.480000000000000000e+02 8.472024917602539062e+00 -1.710710525512695312e+01 3.539598464965820312e+00 3.814426183700561523e+00 2.206207275390625000e+00 2.758608818054199219e+00
4.490000000000000000e+02 6.024145603179931641e+00 -2.205296325683593750e+01 5.917868614196777344e-01 6.848615169525146484e+00 2.232120513916015625e+00 1.500028491020202637e+00
4.500000000000000000e+02 6.425845623016357422e+00 -2.082759666442871094e+01 9.363621473312377930e-01 7.293293476104736328e+00 2.468896627426147461e+00 2.237950086593627930e+00
4.510000000000000000e+02 5.569328665733337402e-01 -2.468346786499023438e+01 2.196446806192398071e-02 4.877124726772308350e-01 1.529030799865722656e-01 4.445285499095916748e-01
4.520000000000000000e+02 5.025265693664550781e+00 -2.325180435180664062e+01 5.955328345298767090e-01 4.744308471679687500e+00 1.601952433586120605e+00 1.376743197441101074e+00
4.530000000000000000e+02 7.598261237144470215e-01 -2.888647270202636719e+01 -2.304518781602382660e-02 3.561847448348999023e+00 1.061640620231628418e+00 3.572918176651000977e-01
4.540000000000000000e+02 7.121755123138427734e+00 -2.792846298217773438e+01 -1.224681138992309570e+00 -4.043824970722198486e-01 -4.887191057205200195e-01 8.349612355232238770e-01
4.550000000000000000e+02 6.399374485015869141e+00 -2.678535079956054688e+01 -4.410557746887207031e-01 1.561152219772338867e+00 3.360289335250854492e-01 4.610876142978668213e-01
4.560000000000000000e+02 3.704054355621337891e+00 -2.766005516052246094e+01 -6.857150197029113770e-01 2.507254123687744141e+00 5.464617609977722168e-01 1.407917022705078125e+00
4.570000000000000000e+02 9.048522949218750000e+00 -3.007148742675781250e+01 -2.441667318344116211e+00 -1.262565374374389648e+00 -1.111269831657409668e+00 1.343577861785888672e+00
4.580000000000000000e+02 8.058815002441406250e+00 -2.897645187377929688e+01 -1.481942176818847656e+00 -9.409787654876708984e-01 -7.268762588500976562e-01 1.320285320281982422e+00
4.590000000000000000e+02 7.253979206085205078e+00 -2.984138870239257812e+01 -1.757922291755676270e+00 1.081251800060272217e-01 -4.949391186237335205e-01 7.420990467071533203e-01
4.600000000000000000e+02 3.051285266876220703e+00 -3.767291641235351562e+01 -4.313784092664718628e-02 2.872548818588256836e+00 8.488233089447021484e-01 -3.134916722774505615e-01
4.610000000000000000e+02 8.599372506141662598e-01 -3.727426528930664062e+01 -1.399305462837219238e-02 3.869781732559204102e+00 1.156736612319946289e+00 -1.450651586055755615e-01
4.620000000000000000e+02 7.265179753303527832e-01 -3.183532333374023438e+01 -7.133932411670684814e-02 4.329118251800537109e+00 1.277333736419677734e+00 9.058751910924911499e-02
4.630000000000000000e+02 8.131800651550292969e+00 -3.631630325317382812e+01 -6.563904136419296265e-02 4.233657121658325195e-01 1.073179990053176880e-01 -5.092238541692495346e-03
4.640000000000000000e+02 1.184090137481689453e+01 -3.684136962890625000e+01 -2.126510888338088989e-01 -3.436137735843658447e-01 -1.668794602155685425e-01 2.554202079772949219e-01
4.650000000000000000e+02 1.582303714752197266e+01 -3.205476760864257812e+01 -1.901856899261474609e+00 -1.409896761178970337e-01 -6.128539443016052246e-01 3.409906327724456787e-01
4.660000000000000000e+02 8.137060165405273438e+00 -3.094224929809570312e+01 -1.764176964759826660e+00 -1.348436325788497925e-01 -5.697062015533447266e-01 4.987668693065643311e-01
4.670000000000000000e+02 1.703893661499023438e+01 -3.583451843261718750e+01 -6.621417999267578125e-01 -3.731758296489715576e-01 -3.105953037738800049e-01 2.739857733249664307e-01
4.680000000000000000e+02 1.877712440490722656e+01 -3.220310592651367188e+01 -1.614772319793701172e+00 -1.343582421541213989e-01 -5.247391462326049805e-01 4.524925351142883301e-02
4.690000000000000000e+02 1.729401779174804688e+01 -3.225904464721679688e+01 -1.774946928024291992e+00 -1.196008101105690002e-01 -5.683643221855163574e-01 1.975279897451400757e-01
4.700000000000000000e+02 2.396409797668457031e+01 -3.853337097167968750e+01 -3.898414969444274902e-01 3.556084334850311279e-01 -1.026992313563823700e-02 2.245773524045944214e-01
4.710000000000000000e+02 2.995506477355957031e+01 -3.112693595886230469e+01 2.773579061031341553e-01 9.728214144706726074e-01 3.750537931919097900e-01 9.296413660049438477e-01
4.720000000000000000e+02 2.423232841491699219e+01 -3.174213600158691406e+01 -1.376047372817993164e+00 1.488559041172266006e-02 -4.083485305309295654e-01 -6.550808995962142944e-02
4.730000000000000000e+02 2.753403663635253906e+01 -4.131947326660156250e+01 -6.751176714897155762e-01 1.575731515884399414e+00 2.701841592788696289e-01 1.319573074579238892e-01
4.740000000000000000e+02 3.117065429687500000e+01 -3.045908927917480469e+01 1.250596165657043457e+00 2.319524526596069336e+00 1.071036219596862793e+00 1.684682250022888184e+00
4.750000000000000000e+02 2.766038513183593750e+01 -3.624267196655273438e+01 -5.369581580162048340e-01 1.191652059555053711e+00 1.964081674814224243e-01 7.089159488677978516e-01
4.760000000000000000e+02 3.522699737548828125e+01 -3.818796920776367188e+01 -1.625433444976806641e+00 4.408756256103515625e+00 8.349968194961547852e-01 2.776293456554412842e-01
4.770000000000000000e+02 3.762345886230468750e+01 -3.657224273681640625e+01 -1.657759666442871094e+00 4.934396743774414062e+00 9.829911589622497559e-01 -4.455856233835220337e-02
4.780000000000000000e+02 4.412743377685546875e+01 -3.038129806518554688e+01 -1.346584856510162354e-01 3.691752195358276367e+00 1.067128062248229980e+00 -1.267469882965087891e+00
4.790000000000000000e+02 4.343701934814453125e+01 -2.054793548583984375e+01 5.674328804016113281e-01 4.506165027618408203e+00 1.522079348564147949e+00 -1.571810245513916016e+00
4.800000000000000000e+02 4.436311340332031250e+01 -1.995345306396484375e+01 9.540030360221862793e-01 2.352609157562255859e+00 9.919836521148681641e-01 -1.378236055374145508e+00
4.810000000000000000e+02 4.245495223999023438e+01 -1.772292137145996094e+01 1.648076057434082031e+00 9.969731330871582031e+00 3.485342264175415039e+00 -2.815159797668457031e+00
4.820000000000000000e+02 4.188878250122070312e+01 -1.632394599914550781e+01 1.106654167175292969e+00 1.327755641937255859e+01 4.315263271331787109e+00 -2.472344398498535156e+00
4.830000000000000000e+02 3.558338546752929688e+01 -2.200792694091796875e+01 6.126240491867065430e-01 1.408387374877929688e+01 4.408949375152587891e+00 2.205875217914581299e-01
4.840000000000000000e+02 3.517593765258789062e+01 -1.986227989196777344e+01 9.900878071784973145e-01 1.134513854980468750e+01 3.700567722320556641e+00 -1.286201715469360352e+00
4.850000000000000000e+02 3.623725128173828125e+01 -2.093309402465820312e+01 1.196813344955444336e+00 1.227940368652343750e+01 4.042865276336669922e+00 1.374187469482421875e-01
4.860000000000000000e+02 3.540530776977539062e+01 -2.323986434936523438e+01 3.905660212039947510e-01 1.501673984527587891e+01 4.622191905975341797e+00 1.210357308387756348e+00
4.870000000000000000e+02 3.518181610107421875e+01 -2.450534057617187500e+01 1.807846426963806152e+00 1.632345199584960938e+01 5.439389705657958984e+00 2.724654436111450195e+00
4.880000000000000000e+02 3.482257080078125000e+01 -2.574805259704589844e+01 2.012536287307739258e+00 1.311438751220703125e+01 4.538077354431152344e+00 4.254658699035644531e+00
4.890000000000000000e+02 3.444241714477539062e+01 -2.695241928100585938e+01 2.139408111572265625e+00 9.559545516967773438e+00 3.509685993194580078e+00 3.907710313796997070e+00
4.900000000000000000e+02 3.229775619506835938e+01 -2.968938255310058594e+01 1.855671167373657227e+00 3.776486873626708984e+00 1.689647436141967773e+00 2.549378395080566406e+00
4.910000000000000000e+02 3.475551605224609375e+01 -2.852044677734375000e+01 1.469377279281616211e+00 7.982266426086425781e+00 2.835493087768554688e+00 2.386136770248413086e+00
4.920000000000000000e+02 3.643600082397460938e+01 -3.194206428527832031e+01 -8.945121765136718750e-01 6.184751510620117188e+00 1.587071895599365234e+00 3.137017190456390381e-01
4.930000000000000000e+02 4.106808471679687500e+01 -3.768971252441406250e+01 -1.481395840644836426e+00 4.417321681976318359e+00 8.807777166366577148e-01 -4.060461819171905518e-01
4.940000000000000000e+02 4.113484573364257812e+01 -3.480393218994140625e+01 -1.216266036033630371e+00 4.763245582580566406e+00 1.064093828201293945e+00 -7.644726634025573730e-01
4.950000000000000000e+02 5.159732437133789062e+01 -2.975720787048339844e+01 -1.713735163211822510e-01 4.932267367839813232e-01 9.655596315860748291e-02 -1.893306970596313477e-01
4.960000000000000000e+02 5.298452758789062500e+01 -2.891940116882324219e+01 -1.685839891433715820e-01 1.426781434565782547e-02 -4.629485309123992920e-02 6.329070776700973511e-02
4.970000000000000000e+02 5.318031692504882812e+01 -3.184674453735351562e+01 -7.319693565368652344e-01 5.350826382637023926e-01 -5.906601995229721069e-02 -1.554354429244995117e-01
4.980000000000000000e+02 4.622006225585937500e+01 -2.359286880493164062e+01 5.533187985420227051e-01 1.480252623558044434e+00 6.100714206695556641e-01 -8.372630476951599121e-01
4.990000000000000000e+02 4.641028594970703125e+01 -4.075584793090820312e+01 -9.287107586860656738e-01 2.812665700912475586e+00 5.651865005493164062e-01 -2.243443578481674194e-01
5.000000000000000000e+02 4.967503356933593750e+01 -3.942870330810546875e+01 -5.390160679817199707e-01 1.811740040779113770e+00 3.818171918392181396e-01 -3.833852708339691162e-01
5.010000000000000000e+02 5.475776672363281250e+01 -3.099182128906250000e+01 -6.739771962165832520e-01 -1.250292360782623291e-01 -2.397019267082214355e-01 2.598967552185058594e-01
5.020000000000000000e+02 5.729123687744140625e+01 -3.867146682739257812e+01 1.520500034093856812e-01 1.378435939550399780e-01 8.696807920932769775e-02 -2.938617169857025146e-01
5.030000000000000000e+02 5.722732925415039062e+01 -3.661278533935546875e+01 -4.093647301197052002e-01 -1.131566911935806274e-01 -1.567564159631729126e-01 -5.130924582481384277e-01
5.040000000000000000e+02 5.789841079711914062e+01 -3.282582473754882812e+01 -2.432062149047851562e+00 -2.173204272985458374e-01 -7.948148250579833984e-01 1.970625072717666626e-01
5.050000000000000000e+02 5.658132934570312500e+01 -3.231436920166015625e+01 -1.635676264762878418e+00 -3.276686370372772217e-01 -5.890035033226013184e-01 3.562759459018707275e-01
5.060000000000000000e+02 5.944292068481445312e+01 -3.304645156860351562e+01 -2.998142004013061523e+00 -3.079715669155120850e-01 -9.918340444564819336e-01 -1.501025557518005371e-01
5.070000000000000000e+02 5.768885040283203125e+01 -3.470383071899414062e+01 -1.012544274330139160e+00 -2.136626243591308594e-01 -3.678620755672454834e-01 -4.807466566562652588e-01
5.080000000000000000e+02 5.515867614746093750e+01 -3.259328079223632812e+01 -1.062220931053161621e+00 9.239289164543151855e-02 -2.909484207630157471e-01 4.849874228239059448e-02
5.090000000000000000e+02 6.237377166748046875e+01 -4.111608123779296875e+01 4.611271023750305176e-01 1.114820718765258789e+00 4.727843403816223145e-01 8.519216626882553101e-02
5.100000000000000000e+02 6.353363037109375000e+01 -3.153325271606445312e+01 -1.955876946449279785e+00 -2.500755190849304199e-01 -6.617857217788696289e-01 -5.956618785858154297e-01
5.110000000000000000e+02 6.231499862670898438e+01 -3.225843429565429688e+01 -2.647177457809448242e+00 -2.268762439489364624e-01 -8.622161149978637695e-01 -8.066487312316894531e-01
5.120000000000000000e+02 6.094938659667968750e+01 -3.283877563476562500e+01 -3.069415330886840820e+00 -3.890954852104187012e-01 -1.037553310394287109e+00 -5.616096854209899902e-01
5.130000000000000000e+02 7.182927703857421875e+01 -4.100750350952148438e+01 -2.452388852834701538e-01 7.328704833984375000e+00 2.125039815902709961e+00 4.376031924039125443e-03
5.140000000000000000e+02 7.932028961181640625e+01 -3.334408187866210938e+01 -7.813934236764907837e-03 1.102156448364257812e+01 3.304125070571899414e+00 -2.096935510635375977e-01
5.150000000000000000e+02 7.814160919189453125e+01 -3.041049957275390625e+01 -1.190296486020088196e-01 9.742827415466308594e+00 2.887139320373535156e+00 -7.459959387779235840e-01
5.160000000000000000e+02 7.937221527099609375e+01 -2.645672798156738281e+01 -2.935986965894699097e-02 8.007911682128906250e+00 2.393565416336059570e+00 -3.086068332195281982e-01
5.170000000000000000e+02 7.819451141357421875e+01 -2.358738136291503906e+01 1.184620112180709839e-01 7.536815643310546875e+00 2.296583414077758789e+00 -6.403099894523620605e-01
5.180000000000000000e+02 7.939708709716796875e+01 -2.225913619995117188e+01 5.934922397136688232e-02 6.300010204315185547e+00 1.907807826995849609e+00 -2.039937674999237061e-01
5.190000000000000000e+02 6.860502624511718750e+01 -1.488700675964355469e+01 9.619536995887756348e-01 1.775093650817871094e+01 5.613867282867431641e+00 -2.342961311340332031e+00
5.200000000000000000e+02 6.878462219238281250e+01 -1.765937614440917969e+01 6.473876535892486572e-02 1.593296051025390625e+01 4.799309730529785156e+00 -3.861986100673675537e-01
5.210000000000000000e+02 6.888553619384765625e+01 -2.176708412170410156e+01 9.177660942077636719e-02 1.470433712005615234e+01 4.438834190368652344e+00 -3.695635125041007996e-02
5.220000000000000000e+02 7.059697723388671875e+01 -2.398426055908203125e+01 1.127765059471130371e+00 1.164124011993408203e+01 3.830701589584350586e+00 -4.450504854321479797e-02
5.230000000000000000e+02 6.843689727783203125e+01 -2.680098915100097656e+01 1.090886950492858887e+00 1.074098014831542969e+01 3.549560070037841797e+00 2.288040637969970703e+00
5.240000000000000000e+02 6.682798004150390625e+01 -2.903767776489257812e+01 8.155025243759155273e-01 4.486107349395751953e+00 1.590483069419860840e+00 1.834974169731140137e+00
5.250000000000000000e+02 6.686845397949218750e+01 -3.288725280761718750e+01 -1.227973937988281250e+00 4.256639480590820312e+00 9.085996150970458984e-01 8.348854184150695801e-01
5.260000000000000000e+02 6.467607116699218750e+01 -3.076976394653320312e+01 -8.984712958335876465e-01 5.360818505287170410e-01 -1.087168455123901367e-01 -1.523708403110504150e-01
5.270000000000000000e+02 7.797827911376953125e+01 -4.165127182006835938e+01 1.773199588060379028e-01 1.122866153717041016e+01 3.421794414520263672e+00 5.006648227572441101e-02
5.280000000000000000e+02 7.776618957519531250e+01 -3.707631301879882812e+01 -1.030019372701644897e-01 1.083688735961914062e+01 3.220165729522705078e+00 -1.712649911642074585e-01
5.290000000000000000e+02 7.817939758300781250e+01 -1.648830986022949219e+01 1.100275889039039612e-01 6.437606334686279297e+00 1.964290142059326172e+00 -1.626037620007991791e-02
5.300000000000000000e+02 7.938642120361328125e+01 -1.245929622650146484e+01 1.650495082139968872e-02 5.761232376098632812e+00 1.733321189880371094e+00 1.449239104986190796e-01
5.310000000000000000e+02 6.744160461425781250e+01 -1.086240196228027344e+01 1.337826251983642578e+00 1.024937534332275391e+01 3.476160526275634766e+00 -3.551309823989868164e+00
5.320000000000000000e+02 7.822743988037109375e+01 -9.552537918090820312e+00 1.524550560861825943e-02 7.076014041900634766e+00 2.127377986907958984e+00 4.838376343250274658e-01
5.330000000000000000e+02 7.936870574951171875e+01 -5.530245780944824219e+00 -1.905725896358489990e-02 7.723868370056152344e+00 2.311443328857421875e+00 1.795819550752639771e-01
5.340000000000000000e+02 5.339275741577148438e+01 1.702586936950683594e+01 1.614440441131591797e+00 3.222021579742431641e+00 1.450938582420349121e+00 9.938209652900695801e-01
5.350000000000000000e+02 4.927167129516601562e+01 2.230459022521972656e+01 8.383268713951110840e-01 4.392095565795898438e+00 1.569126725196838379e+00 1.200084567070007324e+00
5.360000000000000000e+02 4.152895355224609375e+01 2.830955505371093750e+01 3.284726142883300781e-01 5.058088779449462891e+00 1.615968346595764160e+00 -4.789201915264129639e-01
5.370000000000000000e+02 4.300259780883789062e+01 2.709625053405761719e+01 3.000235259532928467e-01 4.708041667938232422e+00 1.502419471740722656e+00 2.367680147290229797e-02
5.380000000000000000e+02 4.170658493041992188e+01 2.546582031250000000e+01 3.252300247550010681e-02 5.163153171539306641e+00 1.558702826499938965e+00 4.827139526605606079e-02
5.390000000000000000e+02 4.276451110839843750e+01 1.709653091430664062e+01 4.695588946342468262e-01 7.356709003448486328e+00 2.347880363464355469e+00 1.260028123855590820e+00
5.400000000000000000e+02 5.875231933593750000e+01 8.847097754478454590e-01 -1.912467598915100098e+00 4.832234084606170654e-01 -4.287732541561126709e-01 -4.392154812812805176e-01
5.410000000000000000e+02 6.053715515136718750e+01 -2.148725509643554688e+00 -2.471698045730590820e+00 -3.775599226355552673e-02 -7.528362274169921875e-01 5.329290628433227539e-01
5.420000000000000000e+02 6.413227844238281250e+01 -4.392340183258056641e+00 1.075582861900329590e+00 3.368318080902099609e+00 1.333170294761657715e+00 -1.903853893280029297e+00
5.430000000000000000e+02 6.518414306640625000e+01 -5.453074455261230469e+00 1.401812553405761719e+00 6.032190322875976562e+00 2.230201005935668945e+00 -2.338365793228149414e+00
5.440000000000000000e+02 6.594374084472656250e+01 -6.790662288665771484e+00 1.066104054450988770e+00 7.112565040588378906e+00 2.453600645065307617e+00 -2.375754833221435547e+00
5.450000000000000000e+02 6.693862152099609375e+01 -9.560758590698242188e+00 1.080629825592041016e+00 8.571867942810058594e+00 2.895749330520629883e+00 -3.071442365646362305e+00
5.460000000000000000e+02 6.606220245361328125e+01 -4.163362503051757812e+00 -4.594277590513229370e-02 6.038246631622314453e+00 1.797691226005554199e+00 -1.214902281761169434e+00
5.470000000000000000e+02 6.747108459472656250e+01 -4.633413314819335938e+00 -1.595717389136552811e-03 6.787670612335205078e+00 2.035822391510009766e+00 -1.048679232597351074e+00
5.480000000000000000e+02 7.803545379638671875e+01 -2.603428363800048828e+00 -6.028633564710617065e-02 8.167353630065917969e+00 2.432120084762573242e+00 2.911995053291320801e-01
5.490000000000000000e+02 7.939099121093750000e+01 2.885037660598754883e+00 -1.995444297790527344e-02 8.731842041015625000e+00 2.613566398620605469e+00 -1.017083413898944855e-04
5.500000000000000000e+02 7.242901611328125000e+01 1.012441158294677734e+01 -3.104134835302829742e-02 6.293623447418212891e+00 1.878774642944335938e+00 -7.714813351631164551e-01
5.510000000000000000e+02 6.644174957275390625e+01 1.864730262756347656e+01 6.157690882682800293e-01 4.711502075195312500e+00 1.598181247711181641e+00 -3.756713867187500000e-01
5.520000000000000000e+02 5.311334609985351562e+01 3.325199508666992188e+01 -3.353249728679656982e-01 4.397222042083740234e+00 1.218569159507751465e+00 6.875802278518676758e-01
5.530000000000000000e+02 4.061909484863281250e+01 3.103722953796386719e+01 1.559491157531738281e-01 2.636906623840332031e+00 8.378567099571228027e-01 -6.459641456604003906e-01
5.540000000000000000e+02 3.553158187866210938e+01 3.600672912597656250e+01 -2.219491958618164062e+00 -2.595417797565460205e-01 -7.437101602554321289e-01 7.031432986259460449e-01
5.550000000000000000e+02 3.907140350341796875e+01 3.334923171997070312e+01 -6.009254455566406250e-01 3.862848579883575439e-01 -6.439217925071716309e-02 1.521350741386413574e-01
5.560000000000000000e+02 7.816874694824218750e+01 4.445066452026367188e+00 -4.745195060968399048e-02 8.269725799560546875e+00 2.466682195663452148e+00 -1.067183017730712891e-01
5.570000000000000000e+02 7.935457611083984375e+01 8.445096015930175781e+00 -9.010965935885906219e-03 8.243684768676757812e+00 2.470402240753173828e+00 -7.327775657176971436e-02
5.580000000000000000e+02 7.231239318847656250e+01 1.788445091247558594e+01 2.259724885225296021e-01 5.899817943572998047e+00 1.837737083435058594e+00 -4.681812822818756104e-01
5.590000000000000000e+02 6.463790130615234375e+01 2.341726684570312500e+01 5.995757579803466797e-01 4.659971714019775391e+00 1.577864170074462891e+00 2.819062583148479462e-02
5.600000000000000000e+02 5.308413314819335938e+01 2.985486221313476562e+01 1.090461909770965576e-01 4.315690040588378906e+00 1.327420830726623535e+00 8.383391499519348145e-01
5.610000000000000000e+02 4.840227890014648438e+01 3.759373474121093750e+01 -1.095010638236999512e+00 3.971889972686767578e+00 8.630637526512145996e-01 3.998452723026275635e-01
5.620000000000000000e+02 4.038158416748046875e+01 4.006074523925781250e+01 -1.578124523162841797e+00 1.739990115165710449e+00 4.855967685580253601e-02 8.785748854279518127e-03
5.630000000000000000e+02 4.165147399902343750e+01 3.779890441894531250e+01 -1.509735584259033203e+00 2.354776620864868164e+00 2.535122931003570557e-01 8.655205368995666504e-02
5.640000000000000000e+02 3.687755584716796875e+01 3.907634353637695312e+01 -1.645069837570190430e+00 3.171309530735015869e-01 -3.983816504478454590e-01 3.268498182296752930e-02
5.650000000000000000e+02 3.838106536865234375e+01 3.663698196411132812e+01 -1.571816802024841309e+00 6.883799433708190918e-01 -2.650310695171356201e-01 7.260022312402725220e-02
5.660000000000000000e+02 3.410927200317382812e+01 3.657160568237304688e+01 -2.351584911346435547e+00 -2.485962361097335815e-01 -7.800543308258056641e-01 6.685043573379516602e-01
5.670000000000000000e+02 3.078413009643554688e+01 3.858807373046875000e+01 -2.331117153167724609e+00 -3.812909722328186035e-01 -8.137224316596984863e-01 2.252767980098724365e-01
5.680000000000000000e+02 2.975066184997558594e+01 3.738886642456054688e+01 -2.796280145645141602e+00 -2.790667712688446045e-01 -9.226040840148925781e-01 2.080502659082412720e-01
5.690000000000000000e+02 2.163529205322265625e+01 3.946128463745117188e+01 -1.578636527061462402e+00 -3.235601484775543213e-01 -5.706589818000793457e-01 -2.469804286956787109e-01
5.700000000000000000e+02 2.253524398803710938e+01 3.604225158691406250e+01 -2.027175903320312500e+00 -4.866872429847717285e-01 -7.541589736938476562e-01 -8.828571438789367676e-01
5.710000000000000000e+02 1.666912841796875000e+01 3.277240753173828125e+01 -8.616665601730346680e-01 7.784153223037719727e-01 -2.497536316514015198e-02 -4.729936420917510986e-01
5.720000000000000000e+02 1.607026290893554688e+01 3.129111099243164062e+01 -6.607834100723266602e-01 1.133268713951110840e+00 1.417455971240997314e-01 -3.776433765888214111e-01
5.730000000000000000e+02 1.586748981475830078e+01 2.670805549621582031e+01 1.196885332465171814e-01 2.754149198532104492e+00 8.621513247489929199e-01 4.830856025218963623e-01
5.740000000000000000e+02 1.687971687316894531e+01 2.937642860412597656e+01 -1.106147691607475281e-01 1.009353995323181152e+00 2.696217596530914307e-01 9.580148011445999146e-02
5.750000000000000000e+02 7.802171325683593750e+01 1.140114974975585938e+01 5.041061434894800186e-03 7.539440155029296875e+00 2.263344287872314453e+00 -2.515830993652343750e-01
5.760000000000000000e+02 7.935603332519531250e+01 1.679714012145996094e+01 7.605853170389309525e-05 7.155900478363037109e+00 2.146792888641357422e+00 -6.521090865135192871e-02
5.770000000000000000e+02 7.200138854980468750e+01 2.300944900512695312e+01 2.284791767597198486e-01 5.746807575225830078e+00 1.792585968971252441e+00 -2.319409400224685669e-01
5.780000000000000000e+02 6.158866500854492188e+01 2.843915748596191406e+01 3.364193141460418701e-01 4.659820079803466797e+00 1.498871803283691406e+00 3.855152726173400879e-01
5.790000000000000000e+02 5.280868530273437500e+01 3.709260940551757812e+01 -7.227012515068054199e-01 4.463711261749267578e+00 1.122303009033203125e+00 4.368419647216796875e-01
5.800000000000000000e+02 4.789092254638671875e+01 4.089089584350585938e+01 -1.291479349136352539e+00 3.884480714797973633e+00 7.779003977775573730e-01 1.172632128000259399e-01
5.810000000000000000e+02 7.806677246093750000e+01 1.972008514404296875e+01 2.411796525120735168e-02 6.731178283691406250e+00 2.026588916778564453e+00 -1.454589664936065674e-01
5.820000000000000000e+02 7.931039428710937500e+01 2.378052139282226562e+01 9.164179675281047821e-03 6.625618457794189453e+00 1.990434765815734863e+00 -2.579285763204097748e-02
5.830000000000000000e+02 7.171823120117187500e+01 3.321516799926757812e+01 3.040777333080768585e-02 5.798120021820068359e+00 1.748558282852172852e+00 5.769117921590805054e-02
5.840000000000000000e+02 6.269347381591796875e+01 4.068826675415039062e+01 -2.687401771545410156e-01 5.175399303436279297e+00 1.471997737884521484e+00 7.445549219846725464e-02
5.850000000000000000e+02 5.768210601806640625e+01 4.051617813110351562e+01 -5.244932174682617188e-01 4.869660377502441406e+00 1.303550124168395996e+00 1.377835720777511597e-01
5.860000000000000000e+02 7.666755676269531250e+01 2.267221069335937500e+01 4.912785068154335022e-02 6.406377792358398438e+00 1.936651587486267090e+00 -1.469666808843612671e-01
5.870000000000000000e+02 7.925806427001953125e+01 2.931015968322753906e+01 3.293866058811545372e-03 6.508266448974609375e+00 1.953468084335327148e+00 -2.701362594962120056e-03
5.880000000000000000e+02 7.088478088378906250e+01 3.830643463134765625e+01 -3.661771118640899658e-02 5.824481487274169922e+00 1.736359119415283203e+00 4.359876736998558044e-02
5.890000000000000000e+02 7.899169158935546875e+01 3.225900268554687500e+01 1.055043004453182220e-02 6.493984699249267578e+00 1.951360583305358887e+00 6.024875910952687263e-04
5.900000000000000000e+02 7.942328643798828125e+01 3.751802825927734375e+01 -7.227280642837285995e-03 6.523762702941894531e+00 1.954960584640502930e+00 -7.795243058353662491e-03
5.910000000000000000e+02 1.847416305541992188e+01 3.897595977783203125e+01 -1.399001598358154297e+00 3.367188274860382080e-01 -3.186848461627960205e-01 -1.547834277153015137e-01
5.920000000000000000e+02 1.628548622131347656e+01 3.733118057250976562e+01 -1.230329751968383789e+00 7.846404910087585449e-01 -1.337067931890487671e-01 -3.050164580345153809e-01
5.930000000000000000e+02 8.050953865051269531e+00 4.105438995361328125e+01 -5.399286150932312012e-01 2.032933712005615234e+00 4.479015469551086426e-01 -1.633379906415939331e-01
5.940000000000000000e+02 2.476508140563964844e+00 3.711537170410156250e+01 -1.025977879762649536e-01 2.700725793838500977e+00 7.794383764266967773e-01 -2.560845613479614258e-01
5.950000000000000000e+02 7.301130294799804688e-01 3.321492004394531250e+01 -1.378738973289728165e-02 2.318908452987670898e+00 6.915363073348999023e-01 -1.624003350734710693e-01
5.960000000000000000e+02 2.090387344360351562e+00 3.021737480163574219e+01 -3.134255856275558472e-02 1.583254218101501465e+00 4.655734896659851074e-01 -5.349069237709045410e-01
5.970000000000000000e+02 6.777740716934204102e-01 2.755289649963378906e+01 -3.081980161368846893e-03 7.911667227745056152e-01 2.364254295825958252e-01 -2.108880281448364258e-01
5.980000000000000000e+02 1.982794880867004395e+00 2.591577339172363281e+01 1.381039619445800781e-03 5.683555603027343750e-01 1.709209829568862915e-01 -5.826267600059509277e-01
5.990000000000000000e+02 1.328929138183593750e+01 1.635935211181640625e+01 9.011042118072509766e-01 4.740840911865234375e+00 1.692583560943603516e+00 -1.278147816658020020e+00
6.000000000000000000e+02 1.634361267089843750e+01 1.413719844818115234e+01 6.676180362701416016e-01 6.897390842437744141e+00 2.269502639770507812e+00 -2.089724302291870117e+00
6.010000000000000000e+02 1.537162590026855469e+01 1.825626754760742188e+01 3.584515452384948730e-01 7.095088005065917969e+00 2.236061811447143555e+00 -1.022767066955566406e+00
6.020000000000000000e+02 1.403470897674560547e+01 2.105948448181152344e+01 2.583070397377014160e-01 4.991534709930419922e+00 1.574952602386474609e+00 -7.224389910697937012e-01
6.030000000000000000e+02 1.530908966064453125e+01 2.391741180419921875e+01 1.388865411281585693e-01 4.848667144775390625e+00 1.496266007423400879e+00 1.070302203297615051e-01
6.040000000000000000e+02 1.251519107818603516e+01 2.888292121887207031e+01 -4.387015402317047119e-01 2.318240165710449219e+00 5.638616085052490234e-01 -9.544612169265747070e-01
6.050000000000000000e+02 1.348900032043457031e+01 2.716069030761718750e+01 -1.792996227741241455e-01 2.717133283615112305e+00 7.613500952720642090e-01 -7.379499673843383789e-01
6.060000000000000000e+02 1.439320755004882812e+01 2.549075126647949219e+01 1.381847560405731201e-01 3.454154491424560547e+00 1.077701807022094727e+00 -3.449049890041351318e-01
6.070000000000000000e+02 1.989296555519104004e+00 4.166611862182617188e+01 1.728908345103263855e-02 3.036955356597900391e+00 9.162733554840087891e-01 4.834894090890884399e-03
6.080000000000000000e+02 6.457657814025878906e-01 2.045472908020019531e+01 1.019164267927408218e-02 -1.315084934234619141e+00 -3.914679884910583496e-01 -1.591059416532516479e-01
6.090000000000000000e+02 1.813081264495849609e+00 1.599078941345214844e+01 7.241401076316833496e-02 -1.454205870628356934e+00 -4.145375788211822510e-01 -1.953419595956802368e-01
6.100000000000000000e+02 6.744514465332031250e+00 9.486537933349609375e+00 7.386138439178466797e-01 8.262436091899871826e-02 2.463714629411697388e-01 3.025265634059906006e-01
6.110000000000000000e+02 1.728330612182617188e+01 8.570464134216308594e+00 2.030711174011230469e+00 6.522226333618164062e+00 2.565881252288818359e+00 -3.294125080108642578e+00
6.120000000000000000e+02 1.676137542724609375e+01 1.280175971984863281e+01 9.242026805877685547e-01 7.228733539581298828e+00 2.445880889892578125e+00 -2.367573976516723633e+00
6.130000000000000000e+02 5.910112857818603516e-01 1.481624984741210938e+01 1.862794719636440277e-02 -2.267689466476440430e+00 -6.747184395790100098e-01 -3.820246830582618713e-02
6.140000000000000000e+02 1.729791760444641113e+00 8.989167213439941406e+00 5.618417263031005859e-02 -1.375563621520996094e+00 -3.958138525485992432e-01 3.178178369998931885e-01
6.150000000000000000e+02 9.756985664367675781e+00 1.845848321914672852e+00 -1.663244366645812988e+00 -2.397003471851348877e-01 -5.708834528923034668e-01 8.191909790039062500e-01
6.160000000000000000e+02 1.131028938293457031e+01 1.669707536697387695e+00 -1.935116410255432129e+00 -2.211248725652694702e-01 -6.468724012374877930e-01 7.455393075942993164e-01
6.170000000000000000e+02 1.427945041656494141e+01 1.215518236160278320e+00 -2.182524204254150391e+00 3.848272189497947693e-02 -6.432124376296997070e-01 6.124122142791748047e-01
6.180000000000000000e+02 1.711400032043457031e+01 9.966760277748107910e-01 -1.606700658798217773e+00 5.647759437561035156e-01 -3.125773966312408447e-01 -1.323692649602890015e-01
6.190000000000000000e+02 2.246251869201660156e+01 7.902197837829589844e-01 -1.405063122510910034e-01 1.165151119232177734e+01 3.453301429748535156e+00 -4.158698081970214844e+00
6.200000000000000000e+02 2.360024261474609375e+01 2.144955992698669434e-01 -4.991139173507690430e-01 3.918313086032867432e-01 -3.218477964401245117e-02 5.074518918991088867e-01
6.210000000000000000e+02 2.357584762573242188e+01 -1.264346480369567871e+00 7.702850341796875000e+00 3.549315690994262695e+00 3.375649929046630859e+00 -5.170635223388671875e+00
6.220000000000000000e+02 2.315082550048828125e+01 -1.820976853370666504e+00 5.076875209808349609e+00 7.666839599609375000e+00 3.823114395141601562e+00 -5.261138439178466797e+00
6.230000000000000000e+02 2.283241462707519531e+01 -2.417737007141113281e+00 2.773958683013916016e+00 8.301753997802734375e+00 3.322713851928710938e+00 -3.009184360504150391e+00
6.240000000000000000e+02 2.047607421875000000e+01 -1.387797451019287109e+01 -6.316570043563842773e-01 3.892140686511993408e-01 -7.273287326097488403e-02 7.693671584129333496e-01
6.250000000000000000e+02 2.455369758605957031e+01 -1.858005332946777344e+01 -2.985078334808349609e+00 9.692525118589401245e-02 -8.664458990097045898e-01 -2.326026707887649536e-01
6.260000000000000000e+02 2.580552864074707031e+01 -1.734927940368652344e+01 -2.953589200973510742e+00 1.313271671533584595e-01 -8.466786146163940430e-01 7.715197652578353882e-02
6.270000000000000000e+02 3.023766517639160156e+01 -1.686741447448730469e+01 -4.106067657470703125e+00 -4.605906605720520020e-01 -1.369997501373291016e+00 3.181505948305130005e-02
6.280000000000000000e+02 3.260938644409179688e+01 -1.777701568603515625e+01 -3.724969387054443359e+00 6.657946705818176270e-01 -9.177523851394653320e-01 2.261243462562561035e-01
6.290000000000000000e+02 3.787810516357421875e+01 -1.651107597351074219e+01 -4.620758891105651855e-01 9.979365348815917969e+00 2.855186700820922852e+00 -4.625734686851501465e-02
6.300000000000000000e+02 4.033908843994140625e+01 -1.200724792480468750e+01 4.939094185829162598e-01 1.356797504425048828e+01 4.218565464019775391e+00 -8.293767571449279785e-01
6.310000000000000000e+02 3.104820823669433594e+01 -1.549422264099121094e+00 9.259410500526428223e-01 -1.615558564662933350e-01 2.293155491352081299e-01 -2.054752558469772339e-01
6.320000000000000000e+02 2.695830345153808594e+01 -1.999406814575195312e+00 6.999327659606933594e+00 7.336400747299194336e-01 2.319890260696411133e+00 -1.453452706336975098e+00
6.330000000000000000e+02 2.798650264739990234e+00 3.879334211349487305e+00 -1.372308582067489624e-01 -3.830994665622711182e-01 -1.560990959405899048e-01 5.657420158386230469e-01
6.340000000000000000e+02 5.148250460624694824e-01 6.337419033050537109e+00 6.636900943703949451e-04 -1.178227782249450684e+00 -3.532692492008209229e-01 1.409519016742706299e-01
6.350000000000000000e+02 1.679043388366699219e+01 -1.741539192199707031e+01 -1.802994608879089355e+00 -2.519368827342987061e-01 -6.164794564247131348e-01 8.706355094909667969e-01
6.360000000000000000e+02 5.994456768035888672e+00 -2.553863334655761719e+01 -8.409713208675384521e-02 3.416918039321899414e+00 9.998462796211242676e-01 2.677915692329406738e-01
6.370000000000000000e+02 4.116711425781250000e+01 2.970736503601074219e+01 2.599278688430786133e-01 3.879042148590087891e+00 1.241690993309020996e+00 -7.630146741867065430e-01
6.380000000000000000e+02 3.990258407592773438e+01 3.224336624145507812e+01 -7.260368764400482178e-02 1.449181675910949707e+00 4.129734039306640625e-01 -3.082638084888458252e-01
6.390000000000000000e+02 4.157190704345703125e+01 1.708900451660156250e+01 1.222881898283958435e-01 7.991565704345703125e+00 2.434156179428100586e+00 6.766868233680725098e-01
6.400000000000000000e+02 4.090584564208984375e+01 1.154683685302734375e+01 6.317440271377563477e-01 1.110203838348388672e+01 3.520134687423706055e+00 2.495057821273803711e+00
6.410000000000000000e+02 5.049207687377929688e+01 1.995920538902282715e+00 -3.364899635314941406e+00 7.001080363988876343e-02 -9.884666800498962402e-01 4.849896132946014404e-01
6.420000000000000000e+02 5.115293121337890625e+01 1.083688065409660339e-01 -3.904492139816284180e+00 -2.525366842746734619e-01 -1.247108697891235352e+00 1.214241266250610352e+00
6.430000000000000000e+02 5.244376754760742188e+01 -3.195846974849700928e-01 -3.637618780136108398e+00 2.123641595244407654e-02 -1.084914684295654297e+00 8.708315491676330566e-01
6.440000000000000000e+02 5.649476242065429688e+01 -1.029224991798400879e+00 -4.338525295257568359e+00 -1.643284410238265991e-01 -1.350856184959411621e+00 6.337957382202148438e-01
6.450000000000000000e+02 5.921349716186523438e+01 -1.675337553024291992e+00 -3.475056171417236328e+00 -2.042071074247360229e-01 -1.103778958320617676e+00 7.011541128158569336e-01
6.460000000000000000e+02 6.182170867919921875e+01 -2.738555431365966797e+00 -1.222223043441772461e+00 3.884812891483306885e-01 -2.501225471496582031e-01 -1.784098334610462189e-02
6.470000000000000000e+02 4.112823104858398438e+01 1.293435573577880859e+01 5.324128866195678711e-01 1.021443080902099609e+01 3.224053144454956055e+00 2.117979764938354492e+00
6.480000000000000000e+02 3.983743667602539062e+01 7.371377944946289062e+00 2.086253643035888672e+00 1.347486019134521484e+01 4.668334484100341797e+00 4.759519577026367188e+00
6.490000000000000000e+02 4.252317047119140625e+01 -2.482757806777954102e+00 2.012809038162231445e+00 1.434555721282958984e+01 4.907509803771972656e+00 4.325322151184082031e+00
6.500000000000000000e+02 4.409937667846679688e+01 1.257728934288024902e+00 -9.199950098991394043e-01 5.746060848236083984e+00 1.447819828987121582e+00 2.480012178421020508e+00
6.510000000000000000e+02 4.019946670532226562e+01 5.619539737701416016e+00 1.574031472206115723e+00 1.100678062438964844e+01 3.774243593215942383e+00 3.740477323532104492e+00
6.520000000000000000e+02 3.925112915039062500e+01 6.048382282257080078e+00 2.289437055587768555e+00 1.254999065399169922e+01 4.451828479766845703e+00 5.123938560485839844e+00
6.530000000000000000e+02 3.862440490722656250e+01 4.756029129028320312e+00 2.291150808334350586e+00 1.065759754180908203e+01 3.884624481201171875e+00 4.734504222869873047e+00
6.540000000000000000e+02 3.703379440307617188e+01 2.306537389755249023e+00 1.339369177818298340e+00 5.212231159210205078e+00 1.965480089187622070e+00 2.656795501708984375e+00
6.550000000000000000e+02 3.364707946777343750e+01 -4.290759861469268799e-01 -4.678518176078796387e-01 3.197896853089332581e-02 -1.307618618011474609e-01 -1.906451284885406494e-01
6.560000000000000000e+02 3.534109878540039062e+01 -6.688644289970397949e-01 4.414758980274200439e-01 2.700696468353271484e+00 9.426516890525817871e-01 1.129354357719421387e+00
6.570000000000000000e+02 3.487195587158203125e+01 3.254722654819488525e-01 -5.668314173817634583e-02 1.117133021354675293e+00 3.181349635124206543e-01 4.441774189472198486e-01
6.580000000000000000e+02 3.124054145812988281e+01 -2.460827350616455078e+00 2.322688579559326172e+00 -1.192774474620819092e-01 6.610233187675476074e-01 -6.316270232200622559e-01
6.590000000000000000e+02 1.892354202270507812e+01 8.002607226371765137e-01 -2.812056839466094971e-01 1.330097436904907227e+00 3.146675527095794678e-01 -1.747838377952575684e+00
6.600000000000000000e+02 1.900658798217773438e+01 3.319678115844726562e+01 -8.353573679924011230e-01 -4.029148817062377930e-01 -3.714816570281982422e-01 -6.248391270637512207e-01
6.610000000000000000e+02 1.994644165039062500e+01 3.435896682739257812e+01 -1.384250283241271973e+00 -6.143653392791748047e-01 -5.995846986770629883e-01 -8.082460165023803711e-01
6.620000000000000000e+02 2.114702224731445312e+01 3.529421234130859375e+01 -1.737739086151123047e+00 -5.756213068962097168e-01 -6.940081715583801270e-01 -8.606804609298706055e-01
6.630000000000000000e+02 2.835866737365722656e+01 3.738452529907226562e+01 -2.744323968887329102e+00 -2.208722531795501709e-01 -8.895588517189025879e-01 -1.181206181645393372e-01
6.640000000000000000e+02 4.561042022705078125e+01 1.307968497276306152e+00 -2.506204128265380859e+00 1.980815887451171875e+00 -1.576164811849594116e-01 1.591347336769104004e+00
6.650000000000000000e+02 4.031211471557617188e+01 8.745045661926269531e+00 1.504990458488464355e+00 1.324831485748291016e+01 4.425991535186767578e+00 4.001904010772705078e+00
6.660000000000000000e+02 4.168954467773437500e+01 -1.487491893768310547e+01 3.737792968750000000e-01 1.497925090789794922e+01 4.605909347534179688e+00 -1.854899406433105469e+00
6.670000000000000000e+02 4.137958145141601562e+01 -1.071868324279785156e+01 4.223183691501617432e-01 1.560669898986816406e+01 4.808705329895019531e+00 -6.936354041099548340e-01
6.680000000000000000e+02 4.030071258544921875e+01 -1.063621330261230469e+01 6.074941754341125488e-01 1.335344123840332031e+01 4.188280582427978516e+00 -3.153183162212371826e-01
6.690000000000000000e+02 4.187915802001953125e+01 -5.200442314147949219e+00 7.120463252067565918e-01 1.395758724212646484e+01 4.400890350341796875e+00 3.223033428192138672e+00
6.700000000000000000e+02 4.217636489868164062e+01 -3.841629505157470703e+00 9.375545382499694824e-01 1.413739967346191406e+01 4.522486209869384766e+00 3.372914791107177734e+00
6.710000000000000000e+02 2.149866294860839844e+01 -1.405280113220214844e+01 -7.843464612960815430e-01 4.619715213775634766e-01 -9.671248495578765869e-02 6.603755950927734375e-01
6.720000000000000000e+02 2.998802566528320312e+01 -1.394921875000000000e+01 2.788641452789306641e-01 3.318884968757629395e-01 1.832257956266403198e-01 -4.721927940845489502e-01
6.730000000000000000e+02 1.395893859863281250e+01 -1.426845455169677734e+01 1.716313064098358154e-01 -1.798048913478851318e-01 -2.452073618769645691e-03 1.369011163711547852e+00
6.740000000000000000e+02 2.949896240234375000e+01 -1.770164108276367188e+01 -5.079233169555664062e+00 -2.527549862861633301e-01 -1.599596500396728516e+00 -4.256638586521148682e-01
6.750000000000000000e+02 4.277016448974609375e+01 -2.874032783508300781e+01 1.663646996021270752e-01 4.507341384887695312e+00 1.402111768722534180e+00 -1.301304221153259277e+00
6.760000000000000000e+02 6.865463256835937500e+01 -2.934991264343261719e+01 -6.201277971267700195e-01 8.120594024658203125e+00 2.250139713287353516e+00 7.059729099273681641e-01
6.770000000000000000e+02 6.201729202270507812e+01 1.165268301963806152e+00 -1.241372823715209961e+00 2.247698545455932617e+00 3.018977344036102295e-01 -1.372883558273315430e+00
6.780000000000000000e+02 6.012868881225585938e+01 4.565654695034027100e-01 -1.742664933204650879e+00 8.799564242362976074e-01 -2.588125467300415039e-01 -7.573506832122802734e-01
6.790000000000000000e+02 5.828259658813476562e+01 -2.432601600885391235e-01 -2.821787357330322266e+00 3.547959029674530029e-02 -8.358923196792602539e-01 8.494478464126586914e-02
6.800000000000000000e+02 7.350373840332031250e+01 4.568225860595703125e+00 -3.433036208152770996e-01 7.096197128295898438e+00 2.025867938995361328e+00 -5.057464838027954102e-01
6.810000000000000000e+02 5.378570175170898438e+01 1.001081752777099609e+01 1.511296987533569336e+00 1.720828890800476074e+00 9.696377515792846680e-01 3.953123092651367188e-01
6.820000000000000000e+02 5.958285903930664062e+01 7.793560981750488281e+00 4.591419100761413574e-01 2.155123472213745117e+00 7.842796444892883301e-01 -9.390671253204345703e-01
6.830000000000000000e+02 4.909918594360351562e+01 9.955030441284179688e+00 1.973951578140258789e+00 2.593374490737915039e+00 1.370197772979736328e+00 1.731991529464721680e+00
6.840000000000000000e+02 4.550560760498046875e+01 2.799844264984130859e+00 -1.694062590599060059e+00 3.189388275146484375e+00 4.485976994037628174e-01 3.291923046112060547e+00
6.850000000000000000e+02 7.203221893310546875e+01 1.180082225799560547e+01 8.172743022441864014e-02 6.068105220794677734e+00 1.844949841499328613e+00 -7.610498666763305664e-01
6.860000000000000000e+02 6.570848846435546875e+01 1.049588871002197266e+01 3.200933039188385010e-01 4.298727989196777344e+00 1.385646343231201172e+00 -1.058408617973327637e+00
6.870000000000000000e+02 4.676113510131835938e+01 1.788784027099609375e+01 1.130827903747558594e+00 5.080385208129882812e+00 1.863363981246948242e+00 1.702166795730590820e+00
6.880000000000000000e+02 4.620434570312500000e+01 1.557658672332763672e+01 1.404477238655090332e+00 5.403075218200683594e+00 2.042265892028808594e+00 2.056446790695190430e+00
6.890000000000000000e+02 7.287697601318359375e+01 1.979728507995605469e+01 2.003494650125503540e-01 5.951951503753662109e+00 1.845690369606018066e+00 -3.800918161869049072e-01
6.900000000000000000e+02 6.477248382568359375e+01 1.875843811035156250e+01 7.544264793395996094e-01 4.386174678802490234e+00 1.542180418968200684e+00 -3.002477884292602539e-01
6.910000000000000000e+02 5.378059005737304688e+01 1.966038131713867188e+01 1.333114385604858398e+00 3.604268550872802734e+00 1.481214880943298340e+00 9.951560497283935547e-01
6.920000000000000000e+02 7.207415771484375000e+01 2.482717323303222656e+01 1.982218772172927856e-01 5.760371685028076172e+00 1.787578105926513672e+00 -1.473136991262435913e-01
6.930000000000000000e+02 6.485962677001953125e+01 2.897057914733886719e+01 2.631688117980957031e-01 5.025661945343017578e+00 1.586649298667907715e+00 1.963425278663635254e-01
6.940000000000000000e+02 5.590171432495117188e+01 2.448765945434570312e+01 7.815697789192199707e-01 4.032046318054199219e+00 1.444084763526916504e+00 7.778467535972595215e-01
6.950000000000000000e+02 4.768254470825195312e+01 2.440108680725097656e+01 5.274655818939208984e-01 4.539213180541992188e+00 1.520003557205200195e+00 9.720802903175354004e-01
6.960000000000000000e+02 7.223933410644531250e+01 2.969565963745117188e+01 1.001922860741615295e-01 5.806345462799072266e+00 1.771961212158203125e+00 1.246832078322768211e-03
6.970000000000000000e+02 5.718404769897460938e+01 2.994723129272460938e+01 1.676066815853118896e-01 4.449589252471923828e+00 1.385158777236938477e+00 6.559465527534484863e-01
6.980000000000000000e+02 4.885097503662109375e+01 2.980665016174316406e+01 -8.468285202980041504e-02 4.143064498901367188e+00 1.217514514923095703e+00 8.686943650245666504e-01
6.990000000000000000e+02 1.138139343261718750e+01 3.483995437622070312e+01 -8.931266665458679199e-01 1.731307506561279297e+00 2.514542341232299805e-01 -7.088381648063659668e-01
7.000000000000000000e+02 1.446562576293945312e+01 1.662234687805175781e+01 8.118946552276611328e-01 5.808829307556152344e+00 1.986217260360717773e+00 -1.324543356895446777e+00
7.010000000000000000e+02 1.343922805786132812e+01 1.002644252777099609e+01 1.658979773521423340e+00 3.300291299819946289e+00 1.487781286239624023e+00 -1.523295164108276367e+00
7.020000000000000000e+02 4.532961654663085938e+01 -2.094817352294921875e+01 5.530845522880554199e-01 1.238271355628967285e+00 5.374068021774291992e-01 -8.539344072341918945e-01
7.030000000000000000e+02 9.540240287780761719e+00 -1.876409411430358887e+00 8.951233327388763428e-02 2.520980127155780792e-02 3.441663831472396851e-02 1.106704771518707275e-01
7.040000000000000000e+02 8.794935226440429688e+00 -1.865108609199523926e+00 3.975626453757286072e-02 3.290427848696708679e-02 2.179816365242004395e-02 8.619139343500137329e-02
7.050000000000000000e+02 8.044089317321777344e+00 -1.864124655723571777e+00 2.313826931640505791e-03 3.456366807222366333e-02 1.106324791908264160e-02 6.269656866788864136e-02
7.060000000000000000e+02 6.538326740264892578e+00 -1.884235143661499023e+00 -4.346566274762153625e-02 3.237293660640716553e-02 -3.327817423269152641e-03 8.401946164667606354e-03
7.070000000000000000e+02 5.027575016021728516e+00 -1.930109500885009766e+00 -5.657282844185829163e-02 2.349562756717205048e-02 -9.923160076141357422e-03 -3.459042310714721680e-02
7.080000000000000000e+02 3.504271745681762695e+00 -2.013452053070068359e+00 -4.436315968632698059e-02 5.012732930481433868e-03 -1.180512830615043640e-02 -5.767157673835754395e-02
7.090000000000000000e+02 3.714200973510742188e+00 -3.001751422882080078e+00 -2.533460780978202820e-02 2.148086577653884888e-02 -1.156122772954404354e-03 -6.070550903677940369e-02
7.100000000000000000e+02 1.962355136871337891e+00 -2.134238243103027344e+00 -1.930979266762733459e-02 -2.378604747354984283e-02 -1.292875129729509354e-02 -5.016969889402389526e-02
7.110000000000000000e+02 1.185333371162414551e+00 -2.180942058563232422e+00 -7.470102980732917786e-03 -3.383379429578781128e-02 -1.239116862416267395e-02 -3.377135470509529114e-02
7.120000000000000000e+02 3.973613679409027100e-01 -2.202787160873413086e+00 -8.401371538639068604e-03 -3.897777199745178223e-02 -1.421374361962080002e-02 -1.200874615460634232e-02
7.130000000000000000e+02 2.096748352050781250e+00 -4.161388015747070312e+01 2.469525933265686035e-01 3.291872262954711914e+00 1.061647415161132812e+00 -6.997466087341308594e-02
7.140000000000000000e+02 1.112695336341857910e+00 -3.860441589355468750e+01 -2.526777610182762146e-02 3.619580745697021484e+00 1.078293919563293457e+00 -1.770315617322921753e-01
7.150000000000000000e+02 6.268953084945678711e-01 -3.462379455566406250e+01 -1.941067725419998169e-02 4.325171470642089844e+00 1.291728138923645020e+00 -4.919447004795074463e-02
7.160000000000000000e+02 6.632307767868041992e-01 -3.325665283203125000e+01 -2.250117622315883636e-02 4.400221824645996094e+00 1.313316226005554199e+00 -2.318155718967318535e-03
7.170000000000000000e+02 4.823351383209228516e+00 -3.082911491394042969e+01 -9.308365583419799805e-01 2.055634498596191406e+00 3.374393284320831299e-01 3.740883767604827881e-01
7.180000000000000000e+02 1.991111516952514648e+00 -2.701840019226074219e+01 -2.286559045314788818e-01 2.413831233978271484e+00 6.555525660514831543e-01 1.251975893974304199e+00
7.190000000000000000e+02 5.977629423141479492e-01 -2.606648254394531250e+01 5.114495381712913513e-02 1.732609748840332031e+00 5.351264476776123047e-01 5.406315326690673828e-01
7.200000000000000000e+02 5.728967189788818359e+00 -2.429868698120117188e+01 2.812974452972412109e-01 5.094068527221679688e+00 1.612609863281250000e+00 7.646899819374084473e-01
7.210000000000000000e+02 1.608535647392272949e+00 -2.176707839965820312e+01 2.525299489498138428e-01 -4.280726984143257141e-02 6.291680037975311279e-02 7.494432330131530762e-01
7.220000000000000000e+02 6.853488445281982422e+00 -1.954572296142578125e+01 1.309409022331237793e+00 6.894989013671875000e+00 2.461319446563720703e+00 2.681928396224975586e+00
7.230000000000000000e+02 5.320482254028320312e-01 -2.192082977294921875e+01 1.035280227661132812e-01 -1.583068490028381348e+00 -4.438621699810028076e-01 2.888695299625396729e-01
7.240000000000000000e+02 6.233992576599121094e-01 -1.633842658996582031e+01 2.919897064566612244e-02 -2.055887222290039062e+00 -6.080064773559570312e-01 -1.319480091333389282e-01
7.250000000000000000e+02 6.261390447616577148e-01 -1.493594741821289062e+01 7.327717728912830353e-03 -1.706302165985107422e+00 -5.096923112869262695e-01 -1.732067167758941650e-01
7.260000000000000000e+02 6.202469468116760254e-01 -1.353120994567871094e+01 -1.823461055755615234e-02 -1.325623631477355957e+00 -4.031574726104736328e-01 -1.592787057161331177e-01
7.270000000000000000e+02 1.876295924186706543e+00 -1.355227470397949219e+01 -1.563238538801670074e-02 -4.536398947238922119e-01 -1.407816857099533081e-01 -3.936261534690856934e-01
7.280000000000000000e+02 5.712838768959045410e-01 -9.312775611877441406e+00 -6.144578801468014717e-04 -4.916781485080718994e-01 -1.476877778768539429e-01 -6.755259633064270020e-02
7.290000000000000000e+02 5.618247389793395996e-01 -7.897610187530517578e+00 -1.411979272961616516e-02 -3.467381298542022705e-01 -1.082573756575584412e-01 -4.728465154767036438e-02
7.300000000000000000e+02 5.581209063529968262e-01 -6.466071605682373047e+00 3.096777712926268578e-03 -2.422416657209396362e-01 -7.174346596002578735e-02 -3.449624776840209961e-02
7.310000000000000000e+02 7.390614318847656250e+01 -3.842927169799804688e+01 -4.061495363712310791e-01 8.474013328552246094e+00 2.420359373092651367e+00 -3.584234118461608887e-01
7.320000000000000000e+02 5.311654663085937500e+01 -4.102924728393554688e+01 -1.194756254553794861e-01 9.269996285438537598e-01 2.422571927309036255e-01 -1.743354499340057373e-01
7.330000000000000000e+02 9.315381050109863281e+00 -3.896731567382812500e+01 2.119429558515548706e-01 3.051441609859466553e-01 1.551261395215988159e-01 -6.402880884706974030e-03
7.340000000000000000e+02 7.876334381103515625e+01 3.990672302246093750e+01 -1.462133787572383881e-02 6.464093685150146484e+00 1.934841632843017578e+00 -2.593205869197845459e-02
7.350000000000000000e+02 7.926947784423828125e+01 3.868215560913085938e+01 4.453720524907112122e-03 6.500092029571533203e+00 1.951363801956176758e+00 -7.896097376942634583e-03
7.360000000000000000e+02 7.824275970458984375e+01 3.754989624023437500e+01 -6.418421864509582520e-03 6.436674594879150391e+00 1.929076790809631348e+00 -3.470969619229435921e-03
7.370000000000000000e+02 7.937088775634765625e+01 3.507508468627929688e+01 -1.079525239765644073e-02 6.516433715820312500e+00 1.951691508293151855e+00 1.507638487964868546e-02
7.380000000000000000e+02 7.904750823974609375e+01 3.380341339111328125e+01 5.228926893323659897e-03 6.496118068695068359e+00 1.950404047966003418e+00 1.208060234785079956e-02
7.390000000000000000e+02 7.916177368164062500e+01 3.072258377075195312e+01 -4.089469090104103088e-03 6.499188899993896484e+00 1.948529839515686035e+00 -2.919236430898308754e-03
7.400000000000000000e+02 7.669287872314453125e+01 2.810257720947265625e+01 2.463249862194061279e-02 6.294219970703125000e+00 1.895655632019042969e+00 -3.235320001840591431e-02
7.410000000000000000e+02 7.931120300292968750e+01 2.654466629028320312e+01 7.276000455021858215e-03 6.541948318481445312e+00 1.964767336845397949e+00 -1.127218082547187805e-02
7.420000000000000000e+02 7.643381500244140625e+01 2.556484031677246094e+01 3.998319059610366821e-02 6.314934253692626953e+00 1.906475186347961426e+00 -7.637932151556015015e-02
7.430000000000000000e+02 7.930603790283203125e+01 2.516862678527832031e+01 -1.216978416778147221e-03 6.575983524322509766e+00 1.972429871559143066e+00 -1.638559810817241669e-02
7.440000000000000000e+02 7.934158325195312500e+01 2.098086929321289062e+01 8.869732730090618134e-03 6.778071403503417969e+00 2.036082267761230469e+00 -4.147255793213844299e-02
7.450000000000000000e+02 7.935363769531250000e+01 1.958114814758300781e+01 -3.817470860667526722e-04 6.884713649749755859e+00 2.065299510955810547e+00 -4.962391406297683716e-02
7.460000000000000000e+02 7.803591918945312500e+01 2.112749481201171875e+01 1.726068556308746338e-02 6.637413978576660156e+00 1.996402382850646973e+00 -1.211816519498825073e-01
7.470000000000000000e+02 7.935816955566406250e+01 1.818669891357421875e+01 7.215613033622503281e-03 7.011442661285400391e+00 2.105597496032714844e+00 -5.791204422712326050e-02
7.480000000000000000e+02 7.934797668457031250e+01 1.401785659790039062e+01 -1.430979464203119278e-03 7.490664958953857422e+00 2.246770143508911133e+00 -7.739812135696411133e-02
7.490000000000000000e+02 7.934536743164062500e+01 1.262596035003662109e+01 5.191512405872344971e-03 7.675206661224365234e+00 2.304119348526000977e+00 -8.230958133935928345e-02
7.500000000000000000e+02 7.934529113769531250e+01 1.123290157318115234e+01 -4.001110792160034180e-03 7.866091728210449219e+00 2.358627319335937500e+00 -8.267762511968612671e-02
7.510000000000000000e+02 7.936420440673828125e+01 7.052049636840820312e+00 -8.995306561700999737e-04 8.414287567138671875e+00 2.524016380310058594e+00 -6.355588138103485107e-02
7.520000000000000000e+02 7.937540435791015625e+01 5.661478996276855469e+00 -1.399261318147182465e-02 8.558795928955078125e+00 2.563441038131713867e+00 -4.564455896615982056e-02
7.530000000000000000e+02 7.813062286376953125e+01 5.821146488189697266e+00 -2.958577685058116913e-02 8.159446716308593750e+00 2.438958168029785156e+00 -1.609554141759872437e-01
7.540000000000000000e+02 7.938623809814453125e+01 4.273463726043701172e+00 -2.622487489134073257e-03 8.669971466064453125e+00 2.600204706192016602e+00 -2.844745293259620667e-02
7.550000000000000000e+02 7.936706542968750000e+01 8.796441555023193359e-02 -2.297266200184822083e-02 8.660001754760742188e+00 2.591108798980712891e+00 6.459714472293853760e-02
7.560000000000000000e+02 7.935082244873046875e+01 -1.318327784538269043e+00 -7.151774130761623383e-03 8.521351814270019531e+00 2.554260015487670898e+00 9.606823325157165527e-02
7.570000000000000000e+02 7.935060882568359375e+01 -4.129466056823730469e+00 -1.185905653983354568e-03 8.050168037414550781e+00 2.414694547653198242e+00 1.559145450592041016e-01
7.580000000000000000e+02 7.940386962890625000e+01 -8.302243232727050781e+00 -9.253446012735366821e-03 6.920178890228271484e+00 2.073277473449707031e+00 2.005816400051116943e-01
7.590000000000000000e+02 7.939754486083984375e+01 -1.107314777374267578e+01 5.468788091093301773e-03 6.096141338348388672e+00 1.830483078956604004e+00 1.702973991632461548e-01
7.600000000000000000e+02 7.938153076171875000e+01 -1.523921108245849609e+01 1.883527450263500214e-02 5.346622467041015625e+00 1.609637379646301270e+00 5.705488100647926331e-02
7.610000000000000000e+02 7.938603210449218750e+01 -1.805000877380371094e+01 1.595708169043064117e-02 5.393164157867431641e+00 1.622736334800720215e+00 -6.305736303329467773e-02
7.620000000000000000e+02 7.938923645019531250e+01 -2.365971946716308594e+01 -1.260512042790651321e-02 6.812698364257812500e+00 2.040028095245361328e+00 -2.533079981803894043e-01
7.630000000000000000e+02 7.936375427246093750e+01 -2.506142234802246094e+01 4.681979119777679443e-02 7.395196914672851562e+00 2.232604980468750000e+00 -2.931507527828216553e-01
7.640000000000000000e+02 7.941911315917968750e+01 -2.922038459777832031e+01 -5.476560071110725403e-02 9.408384323120117188e+00 2.806085824966430664e+00 -3.022274971008300781e-01
7.650000000000000000e+02 7.934992218017578125e+01 -3.195916366577148438e+01 -4.239817336201667786e-02 1.058428382873535156e+01 3.162565708160400391e+00 -2.588329911231994629e-01
7.660000000000000000e+02 7.926860809326171875e+01 -3.609571456909179688e+01 2.300017885863780975e-02 1.149345111846923828e+01 3.454935312271118164e+00 -9.909463673830032349e-02
7.670000000000000000e+02 7.921554565429687500e+01 -3.744506454467773438e+01 -1.024790480732917786e-01 1.154209423065185547e+01 3.431884527206420898e+00 3.357434179633855820e-04
7.680000000000000000e+02 7.904758453369140625e+01 -3.876849365234375000e+01 9.441461414098739624e-03 1.146228694915771484e+01 3.441518306732177734e+00 5.269842222332954407e-02
7.690000000000000000e+02 7.868718719482421875e+01 -4.011176681518554688e+01 -9.909574687480926514e-02 1.130633258819580078e+01 3.362171173095703125e+00 1.389268487691879272e-01
7.700000000000000000e+02 7.502459049224853516e+00 3.640249252319335938e+01 -5.083733201026916504e-01 2.025401830673217773e+00 4.551085531711578369e-01 -6.293835639953613281e-01
7.710000000000000000e+02 2.699419593811035156e+01 3.717078781127929688e+01 -2.514973878860473633e+00 -1.130799278616905212e-01 -7.884161472320556641e-01 -4.024106562137603760e-01
7.720000000000000000e+02 3.815439343452453613e-01 2.177866220474243164e+00 -1.259843725711107254e-02 -1.087125465273857117e-01 -3.639329597353935242e-02 4.534385353326797485e-02
7.730000000000000000e+02 3.497412443161010742e+00 2.879549741744995117e+00 -2.983123660087585449e-01 -2.231481075286865234e-01 -1.564381420612335205e-01 5.649932622909545898e-01
7.740000000000000000e+02 2.918560028076171875e+00 8.836895942687988281e+00 1.563073098659515381e-01 -9.684261679649353027e-01 -2.436356544494628906e-01 4.627330005168914795e-01
7.750000000000000000e+02 1.671362161636352539e+00 7.559975147247314453e+00 4.549720883369445801e-02 -1.179127812385559082e+00 -3.400891721248626709e-01 3.868082761764526367e-01
7.760000000000000000e+02 5.749274492263793945e-01 9.177010536193847656e+00 1.492493133991956711e-02 -1.865429759025573730e+00 -5.551514625549316406e-01 1.150670796632766724e-01
7.770000000000000000e+02 5.743268728256225586e-01 1.199843788146972656e+01 1.785774901509284973e-02 -2.259110689163208008e+00 -6.723758578300476074e-01 4.144231230020523071e-02
7.780000000000000000e+02 1.707399606704711914e+00 1.180623149871826172e+01 7.128302007913589478e-02 -1.632341146469116211e+00 -4.683174192905426025e-01 1.167724505066871643e-01
7.790000000000000000e+02 6.078718900680541992e-01 1.622685813903808594e+01 1.373486686497926712e-02 -2.130216836929321289e+00 -6.349446177482604980e-01 -7.578606158494949341e-02
7.800000000000000000e+02 1.870034217834472656e+00 1.738657379150390625e+01 5.959635600447654724e-02 -1.258472084999084473e+00 -3.596627116203308105e-01 -2.915144562721252441e-01
7.810000000000000000e+02 6.233270764350891113e-01 1.763575744628906250e+01 1.291105803102254868e-02 -1.918240070343017578e+00 -5.715987086296081543e-01 -1.059699580073356628e-01
7.820000000000000000e+02 6.523337364196777344e-01 2.186964607238769531e+01 8.010992780327796936e-03 -9.436257481575012207e-01 -2.806844413280487061e-01 -1.786606460809707642e-01
7.830000000000000000e+02 6.572878360748291016e-01 2.328586959838867188e+01 9.063110686838626862e-03 -5.340318083763122559e-01 -1.574905961751937866e-01 -1.968407630920410156e-01
7.840000000000000000e+02 1.955023884773254395e+00 2.304277992248535156e+01 2.768764272332191467e-02 -1.347543597221374512e-01 -3.212001547217369080e-02 -5.361905694007873535e-01
7.850000000000000000e+02 6.628690958023071289e-01 2.470487785339355469e+01 2.157318172976374626e-03 -9.869544208049774170e-02 -2.896143682301044464e-02 -2.075767666101455688e-01
7.860000000000000000e+02 6.883828639984130859e-01 2.897373580932617188e+01 -3.068258520215749741e-03 1.217789411544799805e+00 3.644163310527801514e-01 -2.038570493459701538e-01
7.870000000000000000e+02 6.995547413825988770e-01 3.039183998107910156e+01 -7.550649810582399368e-03 1.617633581161499023e+00 4.830248951911926270e-01 -1.924018859863281250e-01
7.880000000000000000e+02 3.465403079986572266e+00 3.005734443664550781e+01 -8.050321787595748901e-02 1.612759828567504883e+00 4.596769809722900391e-01 -8.004992604255676270e-01
7.890000000000000000e+02 7.127259373664855957e-01 3.180449867248535156e+01 -3.774190554395318031e-03 1.987533569335937500e+00 5.951278209686279297e-01 -1.809016019105911255e-01
7.900000000000000000e+02 7.936443686485290527e-01 3.602107238769531250e+01 -2.574480883777141571e-02 2.810460329055786133e+00 8.354147076606750488e-01 -1.015529558062553406e-01
7.910000000000000000e+02 8.488418459892272949e-01 3.740777969360351562e+01 -2.186399511992931366e-02 2.942323207855224609e+00 8.761377930641174316e-01 -6.041104346513748169e-02
7.920000000000000000e+02 9.613191485404968262e-01 3.878126907348632812e+01 -1.979035092517733574e-03 3.021786928176879883e+00 9.059423804283142090e-01 -4.524438828229904175e-02
7.930000000000000000e+02 1.259646773338317871e+00 4.014906692504882812e+01 -5.086462199687957764e-02 3.042296648025512695e+00 8.974295854568481445e-01 6.737837684340775013e-04
7.940000000000000000e+02 1.053822898864746094e+01 1.780507802963256836e+00 -1.793756365776062012e+00 -2.544031739234924316e-01 -6.144478917121887207e-01 8.155936002731323242e-01
7.950000000000000000e+02 8.190092086791992188e+00 1.881345391273498535e+00 -1.416771292686462402e+00 -1.275167465209960938e-01 -4.632864296436309814e-01 8.005900979042053223e-01
7.960000000000000000e+02 8.972481727600097656e+00 1.866434097290039062e+00 -1.531659126281738281e+00 -1.981157511472702026e-01 -5.189324617385864258e-01 8.406626582145690918e-01
7.970000000000000000e+02 5.910573959350585938e+00 3.597576618194580078e+00 -3.916059136390686035e-01 -2.031201124191284180e-01 -1.784178018569946289e-01 8.666598796844482422e-01
7.980000000000000000e+02 6.625263214111328125e+00 1.904394626617431641e+00 -1.038936853408813477e+00 -8.662773668766021729e-02 -3.376693725585937500e-01 6.862671375274658203e-01
7.990000000000000000e+02 5.059034347534179688e+00 1.924675464630126953e+00 -6.827998757362365723e-01 -9.376902133226394653e-02 -2.329706698656082153e-01 5.736005902290344238e-01
8.000000000000000000e+02 4.275896549224853516e+00 1.939720869064331055e+00 -5.238113999366760254e-01 -1.013773083686828613e-01 -1.875566244125366211e-01 5.069637894630432129e-01
8.010000000000000000e+02 3.493441104888916016e+00 1.961574196815490723e+00 -3.823440074920654297e-01 -1.279220879077911377e-01 -1.530798375606536865e-01 4.372350573539733887e-01
8.020000000000000000e+02 2.709336757659912109e+00 1.997304320335388184e+00 -2.520538270473480225e-01 -1.538591682910919189e-01 -1.217738986015319824e-01 3.475319445133209229e-01
8.030000000000000000e+02 1.926878809928894043e+00 2.052607536315917969e+00 -1.464520096778869629e-01 -1.772916615009307861e-01 -9.712310135364532471e-02 2.520617842674255371e-01
8.040000000000000000e+02 1.283316516876220703e+01 1.430693149566650391e+00 -2.172647714614868164e+00 -8.616685867309570312e-02 -6.776443719863891602e-01 7.283617854118347168e-01
8.050000000000000000e+02 1.356737804412841797e+01 1.317598462104797363e+00 -2.199161767959594727e+00 -5.929749459028244019e-02 -6.775377988815307617e-01 6.818618178367614746e-01
8.060000000000000000e+02 1.499103450775146484e+01 1.127124309539794922e+00 -2.156099319458007812e+00 1.284254938364028931e-01 -6.083021759986877441e-01 4.949480593204498291e-01
8.070000000000000000e+02 1.570300292968750000e+01 1.059577465057373047e+00 -2.004396438598632812e+00 2.866580188274383545e-01 -5.153215527534484863e-01 3.293235898017883301e-01
8.080000000000000000e+02 1.641037750244140625e+01 1.022077322006225586e+00 -1.834155678749084473e+00 4.260191619396209717e-01 -4.224409461021423340e-01 1.498031020164489746e-01
8.090000000000000000e+02 1.780953407287597656e+01 9.353935122489929199e-01 -1.155073523521423340e+00 8.516451716423034668e-01 -9.102850407361984253e-02 -5.220360755920410156e-01
8.100000000000000000e+02 1.847490882873535156e+01 8.541106581687927246e-01 -8.413362503051757812e-01 1.272043585777282715e+00 1.292122006416320801e-01 -1.145017623901367188e+00
8.110000000000000000e+02 1.916427040100097656e+01 8.450506329536437988e-01 1.770347654819488525e-01 1.670316338539123535e+00 5.542052984237670898e-01 -1.998332977294921875e+00
8.120000000000000000e+02 1.939713287353515625e+01 8.607776165008544922e-01 5.109058022499084473e-01 2.160421848297119141e+00 8.013982772827148438e-01 -2.319743156433105469e+00
8.130000000000000000e+02 2.072528266906738281e+01 9.206095337867736816e-01 1.464706897735595703e+00 5.972106456756591797e+00 2.231044054031372070e+00 -6.337589740753173828e+00
8.140000000000000000e+02 2.168537139892578125e+01 9.611094594001770020e-01 1.641544513404369354e-02 1.240400600433349609e+01 3.726126432418823242e+00 -7.203041553497314453e+00
8.150000000000000000e+02 2.167663383483886719e+01 1.226543307304382324e+00 -6.636127829551696777e-02 1.157800769805908203e+01 3.453493833541870117e+00 -6.804306507110595703e+00
8.160000000000000000e+02 2.210083961486816406e+01 9.101001620292663574e-01 -4.908093512058258057e-01 1.340691184997558594e+01 3.874830961227416992e+00 -5.954367160797119141e+00
8.170000000000000000e+02 2.228343200683593750e+01 8.562855720520019531e-01 -8.479400277137756348e-01 1.346909332275390625e+01 3.786345958709716797e+00 -5.114178180694580078e+00
8.180000000000000000e+02 2.263500785827636719e+01 7.112683653831481934e-01 4.171207919716835022e-02 1.150740146636962891e+01 3.464733839035034180e+00 -3.138578653335571289e+00
8.190000000000000000e+02 2.310558319091796875e+01 4.335769414901733398e-01 9.436017274856567383e-01 5.036118984222412109e+00 1.793916225433349609e+00 -1.748897552490234375e+00
8.200000000000000000e+02 2.326500701904296875e+01 2.455848306417465210e-01 7.079524397850036621e-01 1.333533883094787598e+00 6.124458909034729004e-01 -8.603815436363220215e-01
8.210000000000000000e+02 2.349104881286621094e+01 -1.885519325733184814e-01 6.160882472991943359e+00 2.361727714538574219e+00 2.556783199310302734e+00 -2.206599473953247070e+00
8.220000000000000000e+02 2.180922889709472656e+01 -2.294929504394531250e+00 1.888400316238403320e+00 8.084606170654296875e+00 2.991902112960815430e+00 1.181996226310729980e+00
8.230000000000000000e+02 2.104454803466796875e+01 -2.431613206863403320e+00 2.806610584259033203e+00 3.804838180541992188e+00 1.983434557914733887e+00 2.048746585845947266e+00
8.240000000000000000e+02 1.863586425781250000e+01 -2.694131851196289062e+00 2.008789777755737305e+00 1.632384359836578369e-01 6.516084671020507812e-01 4.522323012351989746e-01
8.250000000000000000e+02 1.608819007873535156e+01 -3.151504039764404297e+00 1.267656445503234863e+00 -2.273296564817428589e-02 3.734770417213439941e-01 3.709491491317749023e-01
8.260000000000000000e+02 1.611467742919921875e+01 -2.620604276657104492e+00 1.170178771018981934e+00 -3.345397859811782837e-02 3.410174250602722168e-01 2.401938885450363159e-01
8.270000000000000000e+02 1.541334342956542969e+01 -2.562842369079589844e+00 9.895826578140258789e-01 -3.350087627768516541e-02 2.868245244026184082e-01 2.307155281305313110e-01
8.280000000000000000e+02 1.240946483612060547e+01 -2.224470138549804688e+00 4.313955605030059814e-01 -1.856205798685550690e-02 1.238500475883483887e-01 1.984197497367858887e-01
8.290000000000000000e+02 1.314644813537597656e+01 -2.315283298492431641e+00 5.494909882545471191e-01 -2.752142213284969330e-02 1.565908789634704590e-01 2.103972882032394409e-01
8.300000000000000000e+02 1.169323062896728516e+01 -2.125843763351440430e+00 3.287483751773834229e-01 -7.667262107133865356e-03 9.632433950901031494e-02 1.764389425516128540e-01
8.310000000000000000e+02 1.413052654266357422e+01 -1.636485481262207031e+01 -1.447347521781921387e+00 -2.901128828525543213e-01 -5.212381482124328613e-01 7.467503547668457031e-01
8.320000000000000000e+02 1.964275169372558594e+01 -1.707768058776855469e+01 -1.746371626853942871e+00 8.715923875570297241e-02 -4.977637231349945068e-01 5.610340833663940430e-01
8.330000000000000000e+02 1.931270217895507812e+01 -1.830237007141113281e+01 -1.987951397895812988e+00 -2.800445072352886200e-03 -5.972255468368530273e-01 5.627214908599853516e-01
8.340000000000000000e+02 2.191766357421875000e+01 -1.868215179443359375e+01 -2.320086002349853516e+00 1.387014240026473999e-01 -6.544153690338134766e-01 1.574418842792510986e-01
8.350000000000000000e+02 2.459109497070312500e+01 -1.742441558837890625e+01 -2.597288370132446289e+00 2.003664225339889526e-01 -7.190765738487243652e-01 9.413325786590576172e-02
8.360000000000000000e+02 2.110006904602050781e+01 -1.614912986755371094e+01 -1.581982254981994629e+00 2.829498648643493652e-01 -3.897097110748291016e-01 5.556139945983886719e-01
8.370000000000000000e+02 2.837459564208984375e+01 -1.801575469970703125e+01 -4.332614898681640625e+00 3.653837740421295166e-02 -1.288822889328002930e+00 -6.573066115379333496e-01
8.380000000000000000e+02 3.600196456909179688e+01 -2.596653556823730469e+01 1.942895650863647461e+00 1.087166881561279297e+01 3.844369411468505859e+00 1.242439270019531250e+00
8.390000000000000000e+02 2.713383674621582031e+01 -3.172492218017578125e+01 -1.012378692626953125e+00 2.268572598695755005e-01 -2.356564104557037354e-01 2.286798655986785889e-01
8.400000000000000000e+02 2.285115814208984375e+01 -3.177721405029296875e+01 -1.485977172851562500e+00 -1.966010779142379761e-03 -4.463829398155212402e-01 -8.907781541347503662e-02
8.410000000000000000e+02 2.431763267517089844e+01 -3.338479232788085938e+01 -9.805631637573242188e-01 8.829829841852188110e-02 -2.676794528961181641e-01 6.018572300672531128e-02
8.420000000000000000e+02 2.151392745971679688e+01 -3.187348365783691406e+01 -1.538138628005981445e+00 -3.533203899860382080e-02 -4.720412194728851318e-01 -5.843924731016159058e-02
8.430000000000000000e+02 2.055651473999023438e+01 -3.360316467285156250e+01 -1.240079045295715332e+00 -7.700977474451065063e-02 -3.951266407966613770e-01 5.993045866489410400e-02
8.440000000000000000e+02 1.702011489868164062e+01 -3.412600708007812500e+01 -1.143265128135681152e+00 -2.987869381904602051e-01 -4.326156377792358398e-01 2.614219486713409424e-01
8.450000000000000000e+02 1.169179439544677734e+01 -3.119615554809570312e+01 -2.511436939239501953e+00 -2.804932594299316406e-01 -8.375790119171142578e-01 7.732079029083251953e-01
8.460000000000000000e+02 3.111104011535644531e+01 3.715352630615234375e+01 -2.637275218963623047e+00 -1.238191649317741394e-01 -8.283283114433288574e-01 5.413393378257751465e-01
8.470000000000000000e+02 3.814850234985351562e+01 3.439602661132812500e+01 -1.227712035179138184e+00 -6.129996106028556824e-02 -3.867035806179046631e-01 4.836944639682769775e-01
8.480000000000000000e+02 4.166870880126953125e+01 2.688285827636718750e+01 1.179823800921440125e-01 5.223173618316650391e+00 1.602346777915954590e+00 -9.587774425745010376e-02
8.490000000000000000e+02 4.169555282592773438e+01 2.125894165039062500e+01 3.722615540027618408e-02 5.941381931304931641e+00 1.793582439422607422e+00 2.171194702386856079e-01
8.500000000000000000e+02 4.166714859008789062e+01 1.986701583862304688e+01 1.483639702200889587e-02 6.432281017303466797e+00 1.934135198593139648e+00 2.700425982475280762e-01
8.510000000000000000e+02 4.163494873046875000e+01 1.847717285156250000e+01 1.281304359436035156e-01 7.232878684997558594e+00 2.208302736282348633e+00 4.312771558761596680e-01
8.520000000000000000e+02 4.148052597045898438e+01 1.570010280609130859e+01 2.939887642860412598e-01 9.021026611328125000e+00 2.794504642486572266e+00 1.069173574447631836e+00
8.530000000000000000e+02 4.065179061889648438e+01 1.014646720886230469e+01 1.090856313705444336e+00 1.234587478637695312e+01 4.031019687652587891e+00 3.158592700958251953e+00
8.540000000000000000e+02 4.535766601562500000e+01 4.138590812683105469e+00 -1.892452836036682129e-01 3.613268375396728516e+00 1.027206897735595703e+00 2.901034593582153320e+00
8.550000000000000000e+02 3.790568161010742188e+01 3.499173164367675781e+00 2.000594377517700195e+00 8.090496063232421875e+00 3.027327060699462891e+00 3.871374368667602539e+00
8.560000000000000000e+02 3.602105712890625000e+01 1.228073477745056152e+00 6.450886726379394531e-01 3.023169040679931641e+00 1.100477337837219238e+00 1.522663235664367676e+00
8.570000000000000000e+02 3.237938690185546875e+01 -1.069811463356018066e+00 -1.650345176458358765e-01 -1.522549688816070557e-01 -9.518684446811676025e-02 -3.488843142986297607e-01
8.580000000000000000e+02 2.967012596130371094e+01 -1.848950624465942383e+00 2.641859292984008789e+00 5.393167957663536072e-02 8.087373375892639160e-01 -2.214662730693817139e-01
8.590000000000000000e+02 1.847861862182617188e+01 1.473536252975463867e+00 7.909433841705322266e-01 2.074013471603393555e+00 8.594871163368225098e-01 -1.857913017272949219e+00
8.600000000000000000e+02 1.879271888732910156e+01 7.628195762634277344e+00 2.130757808685302734e+00 8.705888748168945312e+00 3.250993967056274414e+00 -4.080495834350585938e+00
8.610000000000000000e+02 1.772683525085449219e+01 1.018526744842529297e+01 1.358221530914306641e+00 7.576426982879638672e+00 2.680394649505615234e+00 -3.087759971618652344e+00
8.620000000000000000e+02 1.722401237487792969e+01 1.148343563079833984e+01 1.155320644378662109e+00 7.446279048919677734e+00 2.580479860305786133e+00 -2.768338203430175781e+00
8.630000000000000000e+02 1.560289192199707031e+01 1.685551452636718750e+01 5.762282013893127441e-01 7.309464454650878906e+00 2.365707635879516602e+00 -1.577390789985656738e+00
8.640000000000000000e+02 1.521829891204833984e+01 2.108615493774414062e+01 9.733254462480545044e-02 5.798838615417480469e+00 1.768851280212402344e+00 -2.916937172412872314e-01
8.650000000000000000e+02 1.523691082000732422e+01 2.250019836425781250e+01 5.002989992499351501e-02 5.238340854644775391e+00 1.586511135101318359e+00 -1.162715256214141846e-01
8.660000000000000000e+02 1.550409412384033203e+01 2.532935333251953125e+01 1.972358077764511108e-01 4.036127090454101562e+00 1.270008802413940430e+00 4.113638103008270264e-01
8.670000000000000000e+02 1.751041603088378906e+01 3.066954803466796875e+01 -3.029077053070068359e-01 4.012971818447113037e-01 2.951684407889842987e-02 -1.453498154878616333e-01
8.680000000000000000e+02 2.398189735412597656e+01 3.669437408447265625e+01 -2.407288312911987305e+00 -4.930790960788726807e-01 -8.701102733612060547e-01 -7.562529444694519043e-01
8.690000000000000000e+02 2.553899574279785156e+01 3.710361099243164062e+01 -2.519499540328979492e+00 -2.584352791309356689e-01 -8.333804011344909668e-01 -5.568248629570007324e-01
8.700000000000000000e+02 4.851344299316406250e+01 1.246631741523742676e+00 -5.283116817474365234e+00 -6.435925960540771484e-01 -1.778012752532958984e+00 1.428026556968688965e+00
8.710000000000000000e+02 5.377550125122070312e+01 -5.929381847381591797e-01 -3.969834804534912109e+00 -2.629311196506023407e-02 -1.198838353157043457e+00 6.057875752449035645e-01
8.720000000000000000e+02 5.513049316406250000e+01 -8.017615079879760742e-01 -4.299022197723388672e+00 -7.883597165346145630e-02 -1.313357472419738770e+00 5.656360387802124023e-01
8.730000000000000000e+02 5.785840225219726562e+01 -1.317050576210021973e+00 -4.014440059661865234e+00 -1.508145034313201904e-01 -1.249576330184936523e+00 7.119073271751403809e-01
8.740000000000000000e+02 6.302851104736328125e+01 -3.477727651596069336e+00 1.045928671956062317e-01 1.550931572914123535e+00 4.966573417186737061e-01 -8.878073096275329590e-01
8.750000000000000000e+02 6.643453979492187500e+01 -8.232864379882812500e+00 7.291233539581298828e-01 7.546613693237304688e+00 2.482721090316772461e+00 -2.606250524520874023e+00
8.760000000000000000e+02 6.791722106933593750e+01 -1.217365360260009766e+01 1.479978322982788086e+00 1.262967967987060547e+01 4.232897281646728516e+00 -3.899828672409057617e+00
8.770000000000000000e+02 6.832604980468750000e+01 -1.351245212554931641e+01 1.421385765075683594e+00 1.571228599548339844e+01 5.140101432800292969e+00 -3.631599187850952148e+00
8.780000000000000000e+02 6.993726348876953125e+01 -1.881398963928222656e+01 1.717460900545120239e-01 1.428817367553710938e+01 4.337975978851318359e+00 -5.616589188575744629e-01
8.790000000000000000e+02 6.884107971191406250e+01 -2.040103340148925781e+01 -2.492027729749679565e-02 1.488150501251220703e+01 4.456975460052490234e+00 -1.394606381654739380e-01
8.800000000000000000e+02 6.896456146240234375e+01 -2.313176345825195312e+01 1.730986386537551880e-01 1.523735237121582031e+01 4.623135566711425781e+00 2.666251063346862793e-01
8.810000000000000000e+02 6.902548217773437500e+01 -2.446401023864746094e+01 1.015041947364807129e+00 1.476661109924316406e+01 4.734495639801025391e+00 1.346589803695678711e+00
8.820000000000000000e+02 6.769523620605468750e+01 -2.794093322753906250e+01 1.052412271499633789e+00 7.255746841430664062e+00 2.492447614669799805e+00 2.411011934280395508e+00
8.830000000000000000e+02 5.108258056640625000e+01 -2.690390014648437500e+01 6.007726304233074188e-03 1.428193747997283936e-01 4.464812949299812317e-02 -7.269566506147384644e-02
8.840000000000000000e+02 5.013413238525390625e+01 -2.588959121704101562e+01 6.937663257122039795e-02 2.135835886001586914e-01 8.488807082176208496e-02 -1.348504126071929932e-01
8.850000000000000000e+02 4.727294158935546875e+01 -2.291561317443847656e+01 2.690972387790679932e-01 5.136768221855163574e-01 2.348322123289108276e-01 -3.902300298213958740e-01
8.860000000000000000e+02 4.606076431274414062e+01 -2.518670272827148438e+01 4.930977523326873779e-01 1.868701338768005371e+00 7.085397243499755859e-01 -9.662582278251647949e-01
8.870000000000000000e+02 4.339557266235351562e+01 -1.891523551940917969e+01 1.343916177749633789e+00 4.949510574340820312e+00 1.888028025627136230e+00 -2.349148035049438477e+00
8.880000000000000000e+02 4.155420303344726562e+01 -1.347943019866943359e+01 4.188267588615417480e-01 1.512935352325439453e+01 4.664453983306884766e+00 -1.352105736732482910e+00
8.890000000000000000e+02 4.040905380249023438e+01 -1.337428092956542969e+01 3.892984986305236816e-01 1.310875511169433594e+01 4.049416065216064453e+00 -1.126720905303955078e+00
8.900000000000000000e+02 4.141148376464843750e+01 -7.939489364624023438e+00 7.018699645996093750e-01 1.687963294982910156e+01 5.274450778961181641e+00 1.140512585639953613e+00
8.910000000000000000e+02 4.158462142944335938e+01 -6.558315277099609375e+00 1.106698155403137207e+00 1.618200302124023438e+01 5.186610698699951172e+00 2.782639265060424805e+00
8.920000000000000000e+02 4.370136642456054688e+01 -4.720953479409217834e-02 1.118802309036254883e+00 6.993325710296630859e+00 2.433638334274291992e+00 3.352084875106811523e+00
8.930000000000000000e+02 2.125139236450195312e+01 -2.410506486892700195e+00 2.624968528747558594e+00 4.855103015899658203e+00 2.244021415710449219e+00 2.128679275512695312e+00
8.940000000000000000e+02 2.155288887023925781e+01 -2.618921518325805664e+00 2.110878705978393555e+00 6.091288089752197266e+00 2.460650205612182617e+00 1.545373201370239258e+00
8.950000000000000000e+02 2.087733268737792969e+01 -3.183736801147460938e+00 2.392151594161987305e+00 3.297527790069580078e+00 1.706903815269470215e+00 1.577623009681701660e+00
8.960000000000000000e+02 2.005393028259277344e+01 -2.543807268142700195e+00 2.754343271255493164e+00 1.024591803550720215e+00 1.133680582046508789e+00 1.129791378974914551e+00
8.970000000000000000e+02 1.905747985839843750e+01 -2.647900342941284180e+00 2.203775882720947266e+00 2.829965651035308838e-01 7.460317015647888184e-01 5.791584253311157227e-01
8.980000000000000000e+02 1.984687614440917969e+01 -2.569618701934814453e+00 2.652997255325317383e+00 7.759093046188354492e-01 1.028671979904174805e+00 9.962293505668640137e-01
8.990000000000000000e+02 2.170144271850585938e+01 -2.544111967086791992e+00 2.055974006652832031e+00 6.690554618835449219e+00 2.623958587646484375e+00 1.233752727508544922e+00
9.000000000000000000e+02 2.051135635375976562e+01 -2.787347555160522461e+00 2.792824029922485352e+00 2.142729997634887695e+00 1.480666160583496094e+00 1.605185866355895996e+00
9.010000000000000000e+02 2.030430603027343750e+01 -2.842942953109741211e+00 2.754621028900146484e+00 1.790020585060119629e+00 1.363392472267150879e+00 1.463792443275451660e+00
9.020000000000000000e+02 1.935912895202636719e+01 -2.786229372024536133e+00 2.435539722442626953e+00 5.446048974990844727e-01 8.940433859825134277e-01 7.985109686851501465e-01
9.030000000000000000e+02 1.945511627197265625e+01 -2.554538488388061523e+00 2.420524597167968750e+00 4.702173173427581787e-01 8.672226071357727051e-01 7.468983530998229980e-01
9.040000000000000000e+02 1.802762794494628906e+01 -2.696478605270385742e+00 1.755312919616699219e+00 6.208758428692817688e-02 5.452201366424560547e-01 3.333369493484497070e-01
9.050000000000000000e+02 2.245851898193359375e+01 1.646161794662475586e+00 2.446599960327148438e+00 8.816167831420898438e+00 3.378830432891845703e+00 -5.487508296966552734e+00
9.060000000000000000e+02 2.408139610290527344e+01 -9.041331410408020020e-01 6.745459556579589844e+00 1.850322246551513672e+00 2.578734636306762695e+00 -3.870008707046508789e+00
9.070000000000000000e+02 2.359337997436523438e+01 -1.980629324913024902e+00 5.571754932403564453e+00 5.157867431640625000e+00 3.218886613845825195e+00 -4.612900733947753906e+00
9.080000000000000000e+02 2.267704772949218750e+01 8.092536330223083496e-01 6.661860942840576172e-01 8.793921470642089844e+00 2.838032484054565430e+00 -3.039147138595581055e+00
9.090000000000000000e+02 2.361902236938476562e+01 -8.315516710281372070e-01 7.929783821105957031e+00 2.241349697113037109e+00 3.051340103149414062e+00 -4.645413398742675781e+00
9.100000000000000000e+02 2.201670646667480469e+01 -2.516114950180053711e+00 1.715567708015441895e+00 8.189060211181640625e+00 2.971388578414916992e+00 3.615692555904388428e-01
9.110000000000000000e+02 2.391114044189453125e+01 -5.634486079216003418e-01 5.128520965576171875e+00 3.231737911701202393e-01 1.635508537292480469e+00 -2.353785753250122070e+00
9.120000000000000000e+02 2.327890396118164062e+01 7.728956937789916992e-01 -5.573145151138305664e-01 5.579561591148376465e-01 1.924895914271473885e-04 6.268650293350219727e-01
9.130000000000000000e+02 2.352145385742187500e+01 -3.853294849395751953e-01 6.074633598327636719e+00 2.684898614883422852e+00 2.627859592437744141e+00 -2.686017036437988281e+00
9.140000000000000000e+02 2.350207519531250000e+01 -1.489357948303222656e+00 6.864997863769531250e+00 4.910606861114501953e+00 3.532681226730346680e+00 -5.341973781585693359e+00
9.150000000000000000e+02 2.298457717895507812e+01 -1.981292128562927246e+00 4.106941223144531250e+00 8.659666061401367188e+00 3.829982042312622070e+00 -4.674108982086181641e+00
9.160000000000000000e+02 2.242013168334960938e+01 -2.285305023193359375e+00 2.115467548370361328e+00 9.388270378112792969e+00 3.451121330261230469e+00 -1.802687168121337891e+00
9.170000000000000000e+02 2.222084045410156250e+01 1.050770401954650879e+00 -5.558282136917114258e-01 1.292105197906494141e+01 3.709567070007324219e+00 -5.608788013458251953e+00
9.180000000000000000e+02 2.261994934082031250e+01 -2.202400445938110352e+00 2.504202127456665039e+00 9.635130882263183594e+00 3.641799926757812500e+00 -2.880068302154541016e+00
9.190000000000000000e+02 2.070998764038085938e+01 3.777370452880859375e+00 3.881969451904296875e+00 1.080995750427246094e+01 4.407577991485595703e+00 -6.583466053009033203e+00
9.200000000000000000e+02 1.986930084228515625e+01 8.226060867309570312e-01 1.208724141120910645e+00 2.645815372467041016e+00 1.156361818313598633e+00 -3.242523670196533203e+00
9.210000000000000000e+02 2.018632888793945312e+01 8.894296288490295410e-01 1.201814889907836914e+00 3.864966392517089844e+00 1.520034313201904297e+00 -4.461903095245361328e+00
9.220000000000000000e+02 2.158881759643554688e+01 2.639804601669311523e+00 5.210472583770751953e+00 1.227073001861572266e+01 5.244360923767089844e+00 -7.584687709808349609e+00
9.230000000000000000e+02 2.037975502014160156e+01 1.508428215980529785e+00 2.092255592346191406e+00 6.942936897277832031e+00 2.710557699203491211e+00 -5.161552429199218750e+00
9.240000000000000000e+02 1.957304763793945312e+01 1.303536772727966309e+00 1.482985019683837891e+00 3.123861551284790039e+00 1.382053971290588379e+00 -3.303646802902221680e+00
9.250000000000000000e+02 2.039626121520996094e+01 9.155203104019165039e-01 1.493848443031311035e+00 4.420341491699218750e+00 1.774256944656372070e+00 -5.200940132141113281e+00
9.260000000000000000e+02 2.148307609558105469e+01 9.948106408119201660e-01 3.416295647621154785e-01 1.078771209716796875e+01 3.338802576065063477e+00 -7.295937061309814453e+00
9.270000000000000000e+02 2.164096069335937500e+01 1.610762596130371094e+00 1.262599825859069824e+00 1.136948871612548828e+01 3.789626598358154297e+00 -6.017639160156250000e+00
9.280000000000000000e+02 2.190087318420410156e+01 9.538090825080871582e-01 -6.762906312942504883e-01 1.313686084747314453e+01 3.738170862197875977e+00 -6.640951633453369141e+00
9.290000000000000000e+02 1.676006126403808594e+01 -2.651000499725341797e+00 1.327854871749877930e+00 -1.235805638134479523e-02 3.946490585803985596e-01 2.596079707145690918e-01
9.300000000000000000e+02 1.672957420349121094e+01 -3.725119829177856445e+00 1.534126639366149902e+00 3.416649624705314636e-02 4.704879224300384521e-01 5.529980659484863281e-01
9.310000000000000000e+02 1.803039741516113281e+01 -3.245258331298828125e+00 1.903143405914306641e+00 1.614913940429687500e-01 6.193904280662536621e-01 5.704172253608703613e-01
9.320000000000000000e+02 1.674821853637695312e+01 -3.184190034866333008e+00 1.452780246734619141e+00 -1.213276642374694347e-03 4.354700744152069092e-01 3.952340185642242432e-01
9.330000000000000000e+02 1.995745468139648438e+01 5.065006732940673828e+00 3.561240911483764648e+00 1.004013156890869141e+01 4.080411434173583984e+00 -5.563682079315185547e+00
9.340000000000000000e+02 1.936637115478515625e+01 6.368833065032958984e+00 2.449866533279418945e+00 9.332395553588867188e+00 3.534678459167480469e+00 -4.743679046630859375e+00
9.350000000000000000e+02 1.838878440856933594e+01 6.100129604339599609e+00 3.008219242095947266e+00 7.066510677337646484e+00 3.022418975830078125e+00 -4.237093925476074219e+00
9.360000000000000000e+02 1.026659965515136719e+01 -1.931215405464172363e+00 1.549803018569946289e-01 1.525379996746778488e-02 5.107022821903228760e-02 1.300644725561141968e-01
9.370000000000000000e+02 1.033148956298828125e+01 -2.662947893142700195e+00 2.404328435659408569e-01 3.585137799382209778e-02 8.288526535034179688e-02 2.056915611028671265e-01
9.380000000000000000e+02 9.716953277587890625e+00 -3.334209680557250977e+00 2.313075512647628784e-01 8.261900395154953003e-02 9.417796880006790161e-02 2.460284978151321411e-01
9.390000000000000000e+02 9.624479293823242188e+00 -2.616460561752319336e+00 1.709452271461486816e-01 4.864317178726196289e-02 6.587652117013931274e-02 1.704789996147155762e-01
9.400000000000000000e+02 1.433107852935791016e+01 1.903268933296203613e+00 -1.200116634368896484e+00 1.751433461904525757e-01 -3.074919581413269043e-01 4.019562304019927979e-01
9.410000000000000000e+02 1.568331909179687500e+01 1.792801618576049805e+00 -7.886511087417602539e-01 4.645799696445465088e-01 -9.722133725881576538e-02 4.923127219080924988e-02
9.420000000000000000e+02 1.500525951385498047e+01 1.812150478363037109e+00 -1.024011492729187012e+00 3.365324139595031738e-01 -2.062437385320663452e-01 2.318648546934127808e-01
9.430000000000000000e+02 1.207535171508789062e+01 1.551774621009826660e+00 -2.094833374023437500e+00 -1.470141857862472534e-01 -6.725542545318603516e-01 7.456555962562561035e-01
9.440000000000000000e+02 8.904301643371582031e+00 -2.595762014389038086e+00 1.101941689848899841e-01 5.910765379667282104e-02 5.079054832458496094e-02 1.399836987257003784e-01
9.450000000000000000e+02 6.705093860626220703e+00 -2.651514053344726562e+00 2.488497993908822536e-04 6.674124300479888916e-02 2.009702846407890320e-02 3.483917564153671265e-02
9.460000000000000000e+02 7.291667938232421875e+00 -1.870838403701782227e+00 -2.622198313474655151e-02 3.665128722786903381e-02 3.128791227936744690e-03 3.438316285610198975e-02
9.470000000000000000e+02 7.440643787384033203e+00 -2.615375041961669922e+00 2.755346149206161499e-02 6.701976805925369263e-02 2.837196737527847290e-02 7.020446658134460449e-02
9.480000000000000000e+02 5.931739330291748047e+00 -5.259851455688476562e+00 1.098565384745597839e-02 2.205762416124343872e-01 6.946857273578643799e-02 7.301314175128936768e-02
9.490000000000000000e+02 5.783618927001953125e+00 -1.904145598411560059e+00 -5.478069558739662170e-02 3.146415948867797852e-02 -6.994960829615592957e-03 -1.360229123383760452e-02
9.500000000000000000e+02 5.965788364410400391e+00 -2.705342531204223633e+00 -1.359225157648324966e-02 5.798202753067016602e-02 1.331693306565284729e-02 3.282531397417187691e-03
9.510000000000000000e+02 4.475006580352783203e+00 -2.869368076324462891e+00 -2.719634398818016052e-02 3.867578878998756409e-02 3.443833673372864723e-03 -4.539889469742774963e-02
9.520000000000000000e+02 2.734591484069824219e+00 -2.073188543319702148e+00 -3.270019590854644775e-02 -9.707017801702022552e-03 -1.272216439247131348e-02 -5.873852223157882690e-02
9.530000000000000000e+02 1.665262818336486816e+00 -7.977078437805175781e+00 -1.878212019801139832e-02 -1.682060211896896362e-01 -5.609644204378128052e-02 -1.145831644535064697e-01
9.540000000000000000e+02 3.266661405563354492e+00 -4.197109699249267578e+00 -1.404134836047887802e-02 2.079266868531703949e-02 2.025396097451448441e-03 -7.048544287681579590e-02
9.550000000000000000e+02 4.466207921504974365e-01 -3.610673904418945312e+00 4.131343681365251541e-03 -9.374026954174041748e-02 -2.688267640769481659e-02 -1.976168155670166016e-02
9.560000000000000000e+02 5.172519087791442871e-01 -5.030911445617675781e+00 -8.747882209718227386e-03 -1.634840518236160278e-01 -5.166958272457122803e-02 -2.659557200968265533e-02
9.570000000000000000e+02 1.465673732757568359e+01 -3.050275802612304688e+00 9.304293990135192871e-01 -3.792979940772056580e-02 2.677498757839202881e-01 3.372447490692138672e-01
9.580000000000000000e+02 1.318002033233642578e+01 -2.934417486190795898e+00 6.489906311035156250e-01 -2.383171766996383667e-02 1.875476688146591187e-01 3.101054430007934570e-01
9.590000000000000000e+02 1.174079704284667969e+01 -2.799929618835449219e+00 4.199898540973663330e-01 4.874486010521650314e-03 1.274593025445938110e-01 2.648400366306304932e-01
9.600000000000000000e+02 1.245284938812255859e+01 -2.869652271270751953e+00 5.282452106475830078e-01 -1.196709088981151581e-02 1.548834443092346191e-01 2.864108383655548096e-01
9.610000000000000000e+02 8.234530448913574219e+00 2.644195795059204102e+00 -9.397647976875305176e-01 -1.722711771726608276e-01 -3.336108028888702393e-01 9.021494984626770020e-01
9.620000000000000000e+02 1.364469337463378906e+01 2.036500692367553711e+00 -1.227968573570251465e+00 6.575625389814376831e-02 -3.486637175083160400e-01 5.056657791137695312e-01
9.630000000000000000e+02 1.139543151855468750e+01 2.383290767669677734e+00 -1.198515772819519043e+00 -1.532132476568222046e-01 -4.055187106132507324e-01 7.507293820381164551e-01
9.640000000000000000e+02 1.292012405395507812e+01 2.159993171691894531e+00 -1.222239851951599121e+00 -9.589235298335552216e-03 -3.695487380027770996e-01 5.926830768585205078e-01
9.650000000000000000e+02 5.842393875122070312e+00 1.914085626602172852e+00 -8.526086807250976562e-01 -8.070567250251770020e-02 -2.799943089485168457e-01 6.293084621429443359e-01
9.660000000000000000e+02 7.407785415649414062e+00 1.893538594245910645e+00 -1.222378015518188477e+00 -8.950778841972351074e-02 -3.935657441616058350e-01 7.333626747131347656e-01
9.670000000000000000e+02 6.654318809509277344e+00 2.716265201568603516e+00 -7.425310015678405762e-01 -1.367518752813339233e-01 -2.637848556041717529e-01 8.315541744232177734e-01
9.680000000000000000e+02 5.111046314239501953e+00 3.651506423950195312e+00 -3.329290747642517090e-01 -2.391385436058044434e-01 -1.716202944517135620e-01 8.140795230865478516e-01
9.690000000000000000e+02 1.172692537307739258e+00 3.361168861389160156e+00 -4.646077379584312439e-02 -3.794529438018798828e-01 -1.277741193771362305e-01 2.482393831014633179e-01
9.700000000000000000e+02 2.718774318695068359e+00 2.971790313720703125e+00 -1.989468485116958618e-01 -2.841967642307281494e-01 -1.449430882930755615e-01 4.830158650875091553e-01
9.710000000000000000e+02 1.946466207504272461e+00 3.146304607391357422e+00 -1.020721048116683960e-01 -3.489564657211303711e-01 -1.353085637092590332e-01 3.682220280170440674e-01
9.720000000000000000e+02 1.150270104408264160e+00 2.117045879364013672e+00 -5.955874919891357422e-02 -1.778309494256973267e-01 -7.121690362691879272e-02 1.475141048431396484e-01
9.730000000000000000e+02 9.816738128662109375e+00 2.549537897109985352e+00 -1.082983851432800293e+00 -2.188275605440139771e-01 -3.905434310436248779e-01 8.756752014160156250e-01
9.740000000000000000e+02 6.709453105926513672e+00 3.540587186813354492e+00 -4.574548602104187012e-01 -1.824174821376800537e-01 -1.919617056846618652e-01 9.087509512901306152e-01
9.750000000000000000e+02 1.061016845703125000e+01 2.477325916290283203e+00 -1.140589118003845215e+00 -2.051698416471481323e-01 -4.037276804447174072e-01 7.986901402473449707e-01
9.760000000000000000e+02 2.136787414550781250e+00 -3.179030990600585938e+01 -2.929130494594573975e-01 3.408695936203002930e+00 9.347348809242248535e-01 1.827320158481597900e-01
9.770000000000000000e+02 3.141168594360351562e+01 -1.748541641235351562e+01 -5.368734359741210938e+00 -4.931806027889251709e-01 -1.758574366569519043e+00 3.233528137207031250e-01
9.780000000000000000e+02 3.392716979980468750e+01 -1.760065460205078125e+01 -2.240991592407226562e+00 3.404466152191162109e+00 3.490423858165740967e-01 -8.862383365631103516e-01
9.790000000000000000e+02 4.133527374267578125e+01 -1.842491340637207031e+01 2.281032800674438477e-01 9.989898681640625000e+00 3.065400600433349609e+00 -4.533976018428802490e-01
9.800000000000000000e+02 3.924805068969726562e+01 -1.452968120574951172e+01 4.845886826515197754e-01 1.108396720886230469e+01 3.470566749572753906e+00 -6.794618964195251465e-01
9.810000000000000000e+02 2.828993606567382812e+01 -1.986353993415832520e+00 4.427108764648437500e+00 -2.246022596955299377e-02 1.321394562721252441e+00 -3.339312672615051270e-01
9.820000000000000000e+02 2.518801307678222656e+01 -1.331181168556213379e+00 6.967492103576660156e+00 1.946676969528198242e+00 2.674250841140747070e+00 -3.432037353515625000e+00
9.830000000000000000e+02 7.872817993164062500e+00 -1.594885921478271484e+01 1.109460473060607910e+00 3.593427658081054688e+00 1.410866498947143555e+00 1.400869846343994141e+00
9.840000000000000000e+02 3.445639801025390625e+01 -1.882751846313476562e+01 -1.385688424110412598e+00 5.106007575988769531e+00 1.116095662117004395e+00 -1.267659783363342285e+00
9.850000000000000000e+02 3.852466201782226562e+01 -2.355144500732421875e+01 1.635660052299499512e+00 8.759076118469238281e+00 3.118420839309692383e+00 6.464588642120361328e-01
9.860000000000000000e+02 9.081314086914062500e+00 -3.453085327148437500e+01 -5.232072472572326660e-01 -3.027739748358726501e-02 -1.660453975200653076e-01 1.677360683679580688e-01
9.870000000000000000e+02 4.500565528869628906e+00 -2.047887229919433594e+01 9.624477028846740723e-01 3.215378761291503906e+00 1.253347873687744141e+00 1.277058720588684082e+00
9.880000000000000000e+02 1.786472082138061523e+00 -1.910376930236816406e+01 1.894251704216003418e-01 -6.324091553688049316e-01 -1.328952014446258545e-01 1.509703397750854492e-01
9.890000000000000000e+02 1.550053119659423828e+01 -1.681405448913574219e+01 -1.756627917289733887e+00 -4.974910318851470947e-01 -6.762356758117675781e-01 8.604871630668640137e-01
9.900000000000000000e+02 1.264118194580078125e+01 -1.516923809051513672e+01 1.457186937332153320e-01 3.146599233150482178e-02 5.315540358424186707e-02 1.278594970703125000e+00
9.910000000000000000e+02 2.861379432678222656e+01 -3.156976890563964844e+01 -5.592864155769348145e-01 3.738890290260314941e-01 -5.561922863125801086e-02 5.275720357894897461e-01
9.920000000000000000e+02 3.103632354736328125e+01 -3.280826950073242188e+01 -3.993866443634033203e-01 2.839767932891845703e+00 7.321143746376037598e-01 1.556923508644104004e+00
9.930000000000000000e+02 1.306846046447753906e+01 -3.147475814819335938e+01 -2.186168432235717773e+00 -2.302106767892837524e-01 -7.249137163162231445e-01 5.706154108047485352e-01
9.940000000000000000e+02 1.027943420410156250e+01 -3.086489105224609375e+01 -2.857726097106933594e+00 -8.024100661277770996e-01 -1.098040819168090820e+00 1.099990010261535645e+00
9.950000000000000000e+02 3.187206029891967773e+00 -1.772539520263671875e+01 5.152588486671447754e-01 8.738063573837280273e-01 4.167195856571197510e-01 2.317024953663349152e-02
9.960000000000000000e+02 3.568487167358398438e+01 -3.031711006164550781e+01 -3.469608426094055176e-01 6.637363433837890625e+00 1.887120723724365234e+00 5.544828772544860840e-01
9.970000000000000000e+02 2.210006332397460938e+01 -1.743431854248046875e+01 -2.108987569808959961e+00 2.173343151807785034e-01 -5.674959421157836914e-01 3.528718948364257812e-01
9.980000000000000000e+02 3.604809951782226562e+01 -2.710625648498535156e+01 1.151782274246215820e+00 9.783847808837890625e+00 3.280689001083374023e+00 1.083380341529846191e+00
9.990000000000000000e+02 1.110805606842041016e+01 -1.513223648071289062e+01 8.739983439445495605e-01 7.121129631996154785e-01 4.758333861827850342e-01 1.521206378936767578e+00
1.000000000000000000e+03 1.722347259521484375e+01 -1.627981567382812500e+01 -1.442001819610595703e+00 -1.711145341396331787e-01 -4.839349091053009033e-01 7.140083312988281250e-01
1.001000000000000000e+03 3.333697128295898438e+01 -2.889612197875976562e+01 2.231179714202880859e+00 6.201154232025146484e+00 2.529700040817260742e+00 3.149585008621215820e+00
1.002000000000000000e+03 6.746639013290405273e-01 -2.746534919738769531e+01 -9.005926549434661865e-02 2.811244964599609375e+00 8.163557648658752441e-01 4.525310397148132324e-01
1.003000000000000000e+03 9.490204811096191406e+00 -1.539101791381835938e+01 1.251774072647094727e+00 2.226889610290527344e+00 1.043599128723144531e+00 2.027800559997558594e+00
1.004000000000000000e+03 1.664704442024230957e+00 -2.044611549377441406e+01 2.477537095546722412e-01 -4.587286114692687988e-01 -6.329247355461120605e-02 4.599501788616180420e-01
1.005000000000000000e+03 1.804117393493652344e+01 -1.792024803161621094e+01 -1.884485125541687012e+00 -2.109040468931198120e-01 -6.286167502403259277e-01 6.832701563835144043e-01
1.006000000000000000e+03 3.438698959350585938e+01 -3.074546051025390625e+01 -5.775907039642333984e-01 6.378412723541259766e+00 1.740246534347534180e+00 1.173259973526000977e+00
1.007000000000000000e+03 3.324733352661132812e+01 -3.134557342529296875e+01 -1.562839597463607788e-01 5.285964965820312500e+00 1.538904309272766113e+00 1.908245563507080078e+00
1.008000000000000000e+03 3.771890640258789062e+01 -2.183299827575683594e+01 9.926654696464538574e-01 1.021730804443359375e+01 3.362992048263549805e+00 1.092453002929687500e+00
1.009000000000000000e+03 1.843315505981445312e+01 -1.673517608642578125e+01 -1.572322964668273926e+00 3.311346471309661865e-02 -4.617628455162048340e-01 7.103365659713745117e-01
1.010000000000000000e+03 2.060640335083007812e+01 -1.856595230102539062e+01 -2.101731061935424805e+00 1.336225401610136032e-02 -6.265106797218322754e-01 3.498043715953826904e-01
1.011000000000000000e+03 2.017679595947265625e+01 -3.199293136596679688e+01 -1.505325555801391602e+00 2.766028605401515961e-02 -4.432995617389678955e-01 -6.625754386186599731e-02
1.012000000000000000e+03 2.296749496459960938e+01 -3.319268035888671875e+01 -1.118129134178161621e+00 -2.369911782443523407e-02 -3.425484597682952881e-01 2.254406176507472992e-02
1.013000000000000000e+03 2.086368370056152344e+01 -1.731052780151367188e+01 -1.917279362678527832e+00 2.440976500511169434e-01 -5.019544959068298340e-01 4.746286571025848389e-01
1.014000000000000000e+03 2.585310554504394531e+01 -1.841731071472167969e+01 -3.476567983627319336e+00 -4.045956954360008240e-02 -1.055108189582824707e+00 -4.404024481773376465e-01
1.015000000000000000e+03 2.346401596069335938e+01 -1.629805374145507812e+01 -1.869937658309936523e+00 3.364684879779815674e-01 -4.600407481193542480e-01 3.886024355888366699e-01
1.016000000000000000e+03 2.800030136108398438e+01 -1.714533805847167969e+01 -3.831074953079223633e+00 1.272006630897521973e-01 -1.111162304878234863e+00 1.959007792174816132e-02
1.017000000000000000e+03 2.961398315429687500e+01 -3.365387725830078125e+01 -4.058164358139038086e-01 1.796822428703308105e+00 4.173018038272857666e-01 1.276092171669006348e+00
1.018000000000000000e+03 2.761593818664550781e+01 -3.386471176147460938e+01 -5.012258291244506836e-01 8.111337423324584961e-01 9.297236800193786621e-02 6.656044721603393555e-01
1.019000000000000000e+03 2.565410995483398438e+01 -3.173897552490234375e+01 -1.238877177238464355e+00 1.209176555275917053e-01 -3.353878557682037354e-01 2.438520081341266632e-02
1.020000000000000000e+03 1.399538230895996094e+01 -1.527935886383056641e+01 -3.262460529804229736e-01 -4.290902316570281982e-01 -2.266008853912353516e-01 1.051062107086181641e+00
1.021000000000000000e+03 3.165662574768066406e+01 -1.614397621154785156e+01 -1.190484046936035156e+00 2.144447416067123413e-01 -2.928118109703063965e-01 -9.029075503349304199e-01
1.022000000000000000e+03 2.872490119934082031e+01 -1.678588485717773438e+01 -3.154047489166259766e+00 8.630295842885971069e-02 -9.203233122825622559e-01 2.765189707279205322e-01
1.023000000000000000e+03 2.713394546508789062e+01 -1.822217369079589844e+01 -4.194708824157714844e+00 -1.022362411022186279e-01 -1.289083480834960938e+00 -4.696589708328247070e-01
1.024000000000000000e+03 3.373167037963867188e+01 -1.620377922058105469e+01 -1.728183388710021973e+00 3.863991737365722656e+00 6.407424807548522949e-01 -1.465003848075866699e+00
1.025000000000000000e+03 2.323895072937011719e+01 -1.867201805114746094e+01 -2.650346040725708008e+00 3.675653785467147827e-02 -7.840768694877624512e-01 -4.492165893316268921e-02
1.026000000000000000e+03 1.443261814117431641e+01 -3.179431724548339844e+01 -2.022616386413574219e+00 -1.363754868507385254e-01 -6.476975679397583008e-01 4.531792402267456055e-01
1.027000000000000000e+03 1.549646091461181641e+01 -3.396612548828125000e+01 -1.261708378791809082e+00 -3.010504841804504395e-01 -4.688276648521423340e-01 3.810753524303436279e-01
1.028000000000000000e+03 1.131856632232666016e+01 -3.284481048583984375e+01 -1.420230269432067871e+00 -5.419381856918334961e-01 -5.886505246162414551e-01 7.025858163833618164e-01
1.029000000000000000e+03 1.265273571014404297e+01 -3.304300308227539062e+01 -1.550164699554443359e+00 -3.272488117218017578e-01 -5.632240772247314453e-01 6.253128647804260254e-01
1.030000000000000000e+03 3.717124176025390625e+01 -2.278319168090820312e+01 1.272321701049804688e+00 1.085284805297851562e+01 3.637550830841064453e+00 8.993789553642272949e-01
1.031000000000000000e+03 3.677853393554687500e+01 -2.387812423706054688e+01 1.923294901847839355e+00 1.147523975372314453e+01 4.019560337066650391e+00 1.171822905540466309e+00
1.032000000000000000e+03 1.653867125511169434e+00 -2.308001327514648438e+01 1.696593910455703735e-01 4.014097750186920166e-01 1.713207513093948364e-01 1.000118255615234375e+00
1.033000000000000000e+03 1.399324512481689453e+01 -3.359600830078125000e+01 -1.377205610275268555e+00 -3.577256500720977783e-01 -5.204793810844421387e-01 5.202825069427490234e-01
1.034000000000000000e+03 2.179237174987792969e+01 -3.337426757812500000e+01 -1.148965716361999512e+00 4.687825683504343033e-03 -3.432833850383758545e-01 -2.736126258969306946e-02
1.035000000000000000e+03 2.405526733398437500e+01 -3.643809127807617188e+01 -5.060274600982666016e-01 3.338777422904968262e-01 -5.164491012692451477e-02 2.545150816440582275e-01
1.036000000000000000e+03 4.703994369506835938e+01 1.538483500480651855e+00 -5.382205486297607422e+00 -5.690458416938781738e-01 -1.785375356674194336e+00 9.889608621597290039e-01
1.037000000000000000e+03 4.986780166625976562e+01 6.529708504676818848e-01 -4.595129966735839844e+00 -4.787093997001647949e-01 -1.522151827812194824e+00 1.510146975517272949e+00
1.038000000000000000e+03 4.094203948974609375e+01 6.979338645935058594e+00 1.884431958198547363e+00 1.063480949401855469e+01 3.755772590637207031e+00 3.743835449218750000e+00
1.039000000000000000e+03 7.425007629394531250e+01 -2.460828399658203125e+01 4.440357089042663574e-01 9.661989212036132812e+00 3.031807422637939453e+00 -1.116785526275634766e+00
1.040000000000000000e+03 2.656760978698730469e+01 4.129260253906250000e+01 -1.933093428611755371e+00 -5.592844486236572266e-01 -7.477133274078369141e-01 -7.165504246950149536e-02
1.041000000000000000e+03 4.099480819702148438e+01 3.283436965942382812e+01 -6.756680607795715332e-01 2.392018318176269531e+00 5.149050951004028320e-01 2.083650790154933929e-02
1.042000000000000000e+03 4.036142349243164062e+01 3.391505813598632812e+01 -1.025555133819580078e+00 1.803706049919128418e+00 2.334452718496322632e-01 5.215744674205780029e-02
1.043000000000000000e+03 6.897136688232421875e+01 -6.057180881500244141e+00 -9.861622005701065063e-02 7.982882499694824219e+00 2.365279912948608398e+00 -8.873937726020812988e-01
1.044000000000000000e+03 1.303524112701416016e+01 2.410288047790527344e+01 2.176795005798339844e-01 3.515175580978393555e+00 1.119856476783752441e+00 -7.838230133056640625e-01
1.045000000000000000e+03 6.232469940185546875e+01 -1.753927230834960938e+00 -1.336847186088562012e+00 1.708661198616027832e+00 1.115441843867301941e-01 -8.955426216125488281e-01
1.046000000000000000e+03 1.985818672180175781e+01 3.701330947875976562e+01 -1.506167888641357422e+00 -1.211737319827079773e-01 -4.882025122642517090e-01 -3.958866298198699951e-01
1.047000000000000000e+03 2.981383514404296875e+01 -2.785794496536254883e+00 3.211959838867187500e+00 -2.615697123110294342e-02 9.557408094406127930e-01 -9.531382322311401367e-01
1.048000000000000000e+03 3.695100402832031250e+01 3.530464935302734375e+01 -1.838003277778625488e+00 -2.435279190540313721e-01 -6.244593262672424316e-01 6.260455846786499023e-01
1.049000000000000000e+03 3.261277008056640625e+01 3.700838851928710938e+01 -2.505263566970825195e+00 -2.446192055940628052e-01 -8.249648213386535645e-01 5.849502086639404297e-01
1.050000000000000000e+03 4.051803207397460938e+01 -1.616322898864746094e+01 7.050595283508300781e-01 1.167602157592773438e+01 3.714324235916137695e+00 -7.666731476783752441e-01
1.051000000000000000e+03 6.873600006103515625e+01 -1.627691268920898438e+01 4.027860164642333984e-01 1.716101264953613281e+01 5.269139766693115234e+00 -9.363979101181030273e-01
1.052000000000000000e+03 7.026313018798828125e+01 -1.176528072357177734e+01 7.760688662528991699e-01 1.143404102325439453e+01 3.663033008575439453e+00 -8.321862220764160156e-01
1.053000000000000000e+03 4.242016983032226562e+01 3.017204284667968750e+01 -1.189192477613687515e-02 3.772523641586303711e+00 1.128189563751220703e+00 1.209439858794212341e-01
1.054000000000000000e+03 4.211785125732421875e+01 2.796851992607116699e-01 -7.074428200721740723e-01 1.049612808227539062e+01 2.936605691909790039e+00 1.901022434234619141e+00
1.055000000000000000e+03 4.303227996826171875e+01 -1.195819258689880371e+00 2.792759656906127930e+00 1.135595989227294922e+01 4.244616031646728516e+00 4.713154315948486328e+00
1.056000000000000000e+03 1.407626152038574219e+01 1.957775306701660156e+01 4.559684991836547852e-01 5.365023612976074219e+00 1.746297597885131836e+00 -9.511613845825195312e-01
1.057000000000000000e+03 1.594871425628662109e+01 1.548494529724121094e+01 6.450373530387878418e-01 6.966993331909179688e+00 2.283609151840209961e+00 -1.917574524879455566e+00
1.058000000000000000e+03 2.769832038879394531e+01 3.858623886108398438e+01 -2.466008186340332031e+00 -3.340332210063934326e-01 -8.400124311447143555e-01 -4.925981909036636353e-02
1.059000000000000000e+03 5.964869689941406250e+01 -6.490591168403625488e-01 -2.401991844177246094e+00 2.981617450714111328e-01 -6.311490535736083984e-01 -1.383559852838516235e-01
1.060000000000000000e+03 3.986114883422851562e+01 -3.675817251205444336e+00 1.384612679481506348e+00 1.048029327392578125e+01 3.559471845626831055e+00 2.100780963897705078e+00
1.061000000000000000e+03 4.288004684448242188e+01 1.848079299926757812e+01 3.065961897373199463e-01 6.710530757904052734e+00 2.105138063430786133e+00 9.868612885475158691e-01
1.062000000000000000e+03 6.964072418212890625e+01 -2.832934188842773438e+01 -3.710316717624664307e-01 9.357461929321289062e+00 2.695929050445556641e+00 -2.444299310445785522e-01
1.063000000000000000e+03 6.579389190673828125e+01 -2.997520446777343750e+01 -4.023093357682228088e-02 1.738635063171386719e+00 5.095212459564208984e-01 8.586450815200805664e-01
1.064000000000000000e+03 6.954602050781250000e+01 -3.080236625671386719e+01 -1.185324549674987793e+00 7.837354660034179688e+00 1.995609045028686523e+00 -1.129850819706916809e-01
1.065000000000000000e+03 2.558408546447753906e+01 3.907155227661132812e+01 -2.102697610855102539e+00 -4.609012901782989502e-01 -7.690796852111816406e-01 -2.870708703994750977e-01
1.066000000000000000e+03 4.248624420166015625e+01 -1.952143096923828125e+01 2.980296611785888672e-01 7.454673767089843750e+00 2.325811147689819336e+00 -1.525393486022949219e+00
1.067000000000000000e+03 5.978227996826171875e+01 -3.508323669433593750e+01 -7.905434370040893555e-01 -2.801340818405151367e-01 -3.212032616138458252e-01 -2.553040087223052979e-01
1.068000000000000000e+03 4.097054672241210938e+01 2.928756713867187500e+00 -6.177384853363037109e-01 9.969899177551269531e+00 2.805648326873779297e+00 2.217930078506469727e+00
1.069000000000000000e+03 4.059101867675781250e+01 -6.467191696166992188e+00 1.450777649879455566e+00 1.328183650970458984e+01 4.419784069061279297e+00 1.449823498725891113e+00
1.070000000000000000e+03 4.145977401733398438e+01 -1.209743690490722656e+01 -1.056949421763420105e-02 1.486451911926269531e+01 4.456184864044189453e+00 -1.022039055824279785e+00
1.071000000000000000e+03 4.048502731323242188e+01 -1.475107097625732422e+01 7.797356247901916504e-01 1.269646930694580078e+01 4.042861461639404297e+00 -1.245577216148376465e+00
1.072000000000000000e+03 2.343585777282714844e+01 3.853728103637695312e+01 -1.846460342407226562e+00 -4.654883444309234619e-01 -6.935846209526062012e-01 -3.698854148387908936e-01
1.073000000000000000e+03 6.316810989379882812e+01 -3.350054550170898438e+01 -1.442810773849487305e+00 5.971403717994689941e-01 -2.537011206150054932e-01 3.331480920314788818e-01
1.074000000000000000e+03 6.423097229003906250e+01 -3.250640869140625000e+01 -1.389085531234741211e+00 9.412667751312255859e-01 -1.343456357717514038e-01 3.315210044384002686e-01
1.075000000000000000e+03 1.822065353393554688e+01 3.194199371337890625e+01 -5.023866891860961914e-01 -5.664682388305664062e-02 -1.677100509405136108e-01 -3.910081088542938232e-01
1.076000000000000000e+03 1.553976249694824219e+01 2.984884262084960938e+01 -4.718179702758789062e-01 1.578564643859863281e+00 3.320240080356597900e-01 -3.031819462776184082e-01
1.077000000000000000e+03 4.133608627319335938e+01 1.431443881988525391e+01 5.129004120826721191e-01 9.879086494445800781e+00 3.117595911026000977e+00 1.667950630187988281e+00
1.078000000000000000e+03 4.263534927368164062e+01 1.571193695068359375e+01 6.813415288925170898e-01 7.872494220733642578e+00 2.566150665283203125e+00 1.632045626640319824e+00
1.079000000000000000e+03 4.248811721801757812e+01 1.432407665252685547e+01 9.005141258239746094e-01 8.373717308044433594e+00 2.782269477844238281e+00 1.906080126762390137e+00
1.080000000000000000e+03 3.308215713500976562e+01 3.897871780395507812e+01 -1.981142401695251465e+00 -2.513559758663177490e-01 -6.697494983673095703e-01 3.205422759056091309e-01
1.081000000000000000e+03 1.622238540649414062e+01 1.114494800567626953e+01 1.394275784492492676e+00 6.207636833190917969e+00 2.280573844909667969e+00 -2.471888065338134766e+00
1.082000000000000000e+03 1.571701240539550781e+01 1.246477222442626953e+01 1.143175959587097168e+00 6.049410820007324219e+00 2.157776117324829102e+00 -2.226338863372802734e+00
1.083000000000000000e+03 4.279761505126953125e+01 2.862443161010742188e+01 3.137169480323791504e-01 4.231871128082275391e+00 1.363676428794860840e+00 1.104739084839820862e-01
1.084000000000000000e+03 4.378602218627929688e+01 3.066913795471191406e+01 -1.832764297723770142e-01 3.803171634674072266e+00 1.085968494415283203e+00 4.900240600109100342e-01
1.085000000000000000e+03 1.737995529174804688e+01 3.430480575561523438e+01 -1.159866213798522949e+00 4.876672029495239258e-01 -2.016596943140029907e-01 -4.904071986675262451e-01
1.086000000000000000e+03 1.634065628051757812e+01 2.805250740051269531e+01 1.913699321448802948e-02 1.737963438034057617e+00 5.271301269531250000e-01 3.175531327724456787e-01
1.087000000000000000e+03 4.432052612304687500e+01 -2.158032608032226562e+01 6.159689426422119141e-01 3.042234659194946289e+00 1.097461104393005371e+00 -1.334887027740478516e+00
1.088000000000000000e+03 3.504115676879882812e+01 3.834536361694335938e+01 -1.859095335006713867e+00 -7.477983087301254272e-02 -5.801625251770019531e-01 3.661971986293792725e-01
1.089000000000000000e+03 3.894398117065429688e+01 2.837345838546752930e+00 2.548823356628417969e-01 9.332619667053222656e+00 2.876250505447387695e+00 2.488188505172729492e+00
1.090000000000000000e+03 3.962751388549804688e+01 4.251672267913818359e+00 8.630555868148803711e-01 1.039401531219482422e+01 3.377121210098266602e+00 3.235025405883789062e+00
1.091000000000000000e+03 2.714459800720214844e+01 -2.934809923171997070e+00 4.835241317749023438e+00 1.341245532035827637e+00 1.852946043014526367e+00 -2.115167617797851562e+00
1.092000000000000000e+03 4.214257049560546875e+01 1.149961090087890625e+01 1.203546524047851562e+00 9.388177871704101562e+00 3.177517175674438477e+00 2.969206333160400391e+00
1.093000000000000000e+03 1.524372005462646484e+01 1.381017684936523438e+01 9.106878638267517090e-01 6.031047821044921875e+00 2.082520723342895508e+00 -1.965335011482238770e+00
1.094000000000000000e+03 1.469655609130859375e+01 2.696100807189941406e+01 -1.125632971525192261e-01 2.848590850830078125e+00 8.208082318305969238e-01 -2.868167757987976074e-01
1.095000000000000000e+03 1.996770858764648438e+01 1.466722726821899414e+00 1.793806314468383789e+00 4.362069606781005859e+00 1.846762776374816895e+00 -3.917884588241577148e+00
1.096000000000000000e+03 1.784484863281250000e+01 1.719358921051025391e+00 4.666658043861389160e-01 1.717843651771545410e+00 6.553528308868408203e-01 -1.289613127708435059e+00
1.097000000000000000e+03 2.841503524780273438e+01 -2.924989223480224609e+00 4.501086711883544922e+00 3.634766340255737305e-01 1.459369063377380371e+00 -1.531002879142761230e+00
1.098000000000000000e+03 4.156320571899414062e+01 8.479566574096679688e+00 1.964277982711791992e+00 1.014530944824218750e+01 3.632876396179199219e+00 3.636205673217773438e+00
1.099000000000000000e+03 3.398892593383789062e+01 -1.381421566009521484e+00 8.615205287933349609e-01 1.012915730476379395e+00 5.623309016227722168e-01 4.826419651508331299e-01
1.100000000000000000e+03 3.719838333129882812e+01 -1.130223512649536133e+00 3.900156915187835693e-01 6.265899658203125000e+00 1.996774554252624512e+00 1.576599001884460449e+00
1.101000000000000000e+03 1.407381629943847656e+01 2.253147697448730469e+01 2.015775740146636963e-01 4.586799621582031250e+00 1.436513185501098633e+00 -4.976964592933654785e-01
1.102000000000000000e+03 1.824596023559570312e+01 8.898822784423828125e+00 1.596860051155090332e+00 8.099950790405273438e+00 2.909043312072753906e+00 -3.518313169479370117e+00
1.103000000000000000e+03 1.697462081909179688e+01 2.718527793884277344e+00 1.420689702033996582e+00 1.750021457672119141e+00 9.512133598327636719e-01 -1.327557921409606934e+00
1.104000000000000000e+03 1.418873119354248047e+01 2.400736999511718750e+01 2.312389612197875977e-01 4.037878990173339844e+00 1.280735373497009277e+00 -3.432328701019287109e-01
1.105000000000000000e+03 4.298358154296875000e+01 1.987183380126953125e+01 2.118793874979019165e-01 6.289836406707763672e+00 1.950514793395996094e+00 7.984834313392639160e-01
1.106000000000000000e+03 1.508363914489746094e+01 2.841022300720214844e+01 -3.071415126323699951e-01 2.168459415435791016e+00 5.583953261375427246e-01 -2.402115613222122192e-01
1.107000000000000000e+03 1.481992816925048828e+01 1.519289588928222656e+01 7.613463997840881348e-01 6.008478164672851562e+00 2.030947446823120117e+00 -1.597480177879333496e+00
1.108000000000000000e+03 3.651354217529296875e+01 3.747943115234375000e+01 -1.698384642601013184e+00 3.710750117897987366e-02 -4.983831644058227539e-01 2.307955473661422729e-01
1.109000000000000000e+03 1.559698486328125000e+01 2.527743339538574219e+00 1.959609389305114746e-01 7.429012060165405273e-01 2.816586494445800781e-01 -2.782219946384429932e-01
1.110000000000000000e+03 3.800238037109375000e+01 1.397278547286987305e+00 -2.492126077413558960e-04 7.563729286193847656e+00 2.269043922424316406e+00 2.072664737701416016e+00
1.111000000000000000e+03 4.171427536010742188e+01 2.265594482421875000e+01 2.024016715586185455e-02 5.575753211975097656e+00 1.678798079490661621e+00 1.593013554811477661e-01
1.112000000000000000e+03 4.171940231323242188e+01 2.405806541442871094e+01 3.040809184312820435e-02 5.319581985473632812e+00 1.604996919631958008e+00 1.101990044116973877e-01
1.113000000000000000e+03 4.310119247436523438e+01 2.560779762268066406e+01 1.527296304702758789e-01 5.024496078491210938e+00 1.553167700767517090e+00 1.824113875627517700e-01
1.114000000000000000e+03 4.232398986816406250e+01 1.292880249023437500e+01 9.348857998847961426e-01 8.995971679687500000e+00 2.979257345199584961e+00 2.330488681793212891e+00
1.115000000000000000e+03 4.608371734619140625e+01 2.270007514953613281e+01 4.749734103679656982e-01 4.994033813476562500e+00 1.640702247619628906e+00 9.631634354591369629e-01
1.116000000000000000e+03 4.306988906860351562e+01 2.127807617187500000e+01 1.325309276580810547e-01 5.836323261260986328e+00 1.790656328201293945e+00 5.922899842262268066e-01
1.117000000000000000e+03 4.312310791015625000e+01 2.270462799072265625e+01 1.289851218461990356e-01 5.508335590362548828e+00 1.691196203231811523e+00 4.637765586376190186e-01
1.118000000000000000e+03 5.013545608520507812e+01 3.897047519683837891e+00 -8.442055583000183105e-01 2.853333950042724609e-01 -1.676616519689559937e-01 4.999346733093261719e-01
1.119000000000000000e+03 3.923622131347656250e+01 -1.322694683074951172e+01 5.734879374504089355e-01 1.151566886901855469e+01 3.626747131347656250e+00 -8.527340292930603027e-01
1.120000000000000000e+03 6.638722991943359375e+01 -3.125714683532714844e+01 -9.438453912734985352e-01 3.666130542755126953e+00 8.166855573654174805e-01 1.065244436264038086e+00
1.121000000000000000e+03 6.976049041748046875e+01 -1.609915542602539062e+01 9.915305376052856445e-01 1.481790924072265625e+01 4.742832183837890625e+00 -1.376244068145751953e+00
1.122000000000000000e+03 4.136551284790039062e+01 -9.332473754882812500e+00 1.304706782102584839e-01 1.579200363159179688e+01 4.776742458343505859e+00 2.087025530636310577e-02
1.123000000000000000e+03 6.480753326416015625e+01 -3.305311679840087891e+00 -3.690798580646514893e-01 4.712421417236328125e+00 1.303002357482910156e+00 -1.481117129325866699e+00
1.124000000000000000e+03 5.298744583129882812e+01 1.030122160911560059e+00 -3.285924434661865234e+00 2.388561069965362549e-01 -9.141204953193664551e-01 6.519678831100463867e-01
1.125000000000000000e+03 5.353035736083984375e+01 2.278365612030029297e+00 -2.256512641906738281e+00 3.553228676319122314e-01 -5.703569650650024414e-01 2.643185257911682129e-01
1.126000000000000000e+03 6.359074783325195312e+01 -2.480977535247802734e+00 -7.622841000556945801e-01 2.947241067886352539e+00 6.554871201515197754e-01 -1.306161403656005859e+00
1.127000000000000000e+03 6.100250244140625000e+01 -1.147317051887512207e+00 -1.900993824005126953e+00 7.801887989044189453e-01 -3.362415134906768799e-01 -4.951568245887756348e-01
1.128000000000000000e+03 5.692049789428710938e+01 9.689696133136749268e-02 -3.011044502258300781e+00 -2.130094729363918304e-02 -9.097036123275756836e-01 2.338083535432815552e-01
1.129000000000000000e+03 5.557828521728515625e+01 3.966488540172576904e-01 -3.083806037902832031e+00 -4.421094805002212524e-02 -9.384050965309143066e-01 3.867937624454498291e-01
1.130000000000000000e+03 5.390478134155273438e+01 -2.993185043334960938e+01 -2.926944494247436523e-01 -4.957949742674827576e-02 -1.026821881532669067e-01 1.483509987592697144e-01
1.131000000000000000e+03 5.345804214477539062e+01 -3.320254516601562500e+01 -7.380875349044799805e-01 6.161844730377197266e-01 -3.657091408967971802e-02 -3.876012563705444336e-01
1.132000000000000000e+03 7.069896697998046875e+01 -2.739054298400878906e+01 1.900123059749603271e-01 9.713366508483886719e+00 2.971013545989990234e+00 -6.090390086174011230e-01
1.133000000000000000e+03 6.961374664306640625e+01 -2.590918731689453125e+01 1.085586071014404297e+00 1.213316249847412109e+01 3.965624570846557617e+00 8.416595458984375000e-01
1.134000000000000000e+03 4.104930114746093750e+01 -3.723753213882446289e+00 1.268565773963928223e+00 1.223976612091064453e+01 4.052499771118164062e+00 3.099999427795410156e+00
1.135000000000000000e+03 4.080623245239257812e+01 -5.094407558441162109e+00 9.327180981636047363e-01 1.321196174621582031e+01 4.243403911590576172e+00 2.348647356033325195e+00
1.136000000000000000e+03 4.922975540161132812e+01 2.703417539596557617e+00 -2.448482036590576172e+00 -1.333727240562438965e-01 -7.745564579963684082e-01 4.822082817554473877e-01
1.137000000000000000e+03 6.835390472412109375e+01 -9.178685188293457031e+00 3.249657452106475830e-01 9.526670455932617188e+00 2.955490827560424805e+00 -1.967569470405578613e+00
1.138000000000000000e+03 7.031285858154296875e+01 -2.274005508422851562e+01 7.038848400115966797e-01 1.311695003509521484e+01 4.146250247955322266e+00 4.110466837882995605e-01
1.139000000000000000e+03 6.959705352783203125e+01 -1.470547866821289062e+01 1.515200018882751465e+00 1.442033004760742188e+01 4.780659198760986328e+00 -1.555393576622009277e+00
1.140000000000000000e+03 6.521352386474609375e+01 -3.182913398742675781e+01 -1.153881192207336426e+00 2.009695768356323242e+00 2.567443847656250000e-01 6.163303256034851074e-01
1.141000000000000000e+03 4.919370651245117188e+01 -2.488461112976074219e+01 1.303063333034515381e-01 2.631504535675048828e-01 1.180370375514030457e-01 -2.124295979738235474e-01
1.142000000000000000e+03 4.983581542968750000e+01 -2.763962364196777344e+01 1.332624852657318115e-01 6.612789034843444824e-01 2.383624166250228882e-01 -3.720118999481201172e-01
1.143000000000000000e+03 4.824060440063476562e+01 -2.389369583129882812e+01 2.243682295083999634e-01 3.717907369136810303e-01 1.788476854562759399e-01 -2.647671699523925781e-01
1.144000000000000000e+03 4.801012039184570312e+01 -2.558092308044433594e+01 3.061189353466033936e-01 9.240288734436035156e-01 3.690443336963653564e-01 -5.755957365036010742e-01
1.145000000000000000e+03 6.906075286865234375e+01 -1.192035961151123047e+01 9.113744497299194336e-01 1.229757404327392578e+01 3.962684631347656250e+00 -1.944204449653625488e+00
1.146000000000000000e+03 6.872174072265625000e+01 -1.054916000366210938e+01 5.919749140739440918e-01 1.076544666290283203e+01 3.407226324081420898e+00 -2.038763999938964844e+00
1.147000000000000000e+03 5.204112625122070312e+01 -2.791117095947265625e+01 -6.990714371204376221e-02 7.544174045324325562e-02 1.660377252846956253e-03 -8.158168755471706390e-03
1.148000000000000000e+03 4.945801162719726562e+01 -2.942209625244140625e+01 -7.355116307735443115e-03 1.147143244743347168e+00 3.419364392757415771e-01 -5.575171709060668945e-01
1.149000000000000000e+03 6.881153869628906250e+01 -1.903324508666992188e+01 8.555507659912109375e-02 1.525219535827636719e+01 4.601325035095214844e+00 -1.917647272348403931e-01
1.150000000000000000e+03 7.241793060302734375e+01 -2.081713676452636719e+01 5.058329701423645020e-01 1.137172603607177734e+01 3.563267707824707031e+00 -6.473758220672607422e-01
1.151000000000000000e+03 5.106280136108398438e+01 -3.169909286499023438e+01 -3.978967368602752686e-01 1.015237927436828613e+00 1.852023452520370483e-01 -4.607981443405151367e-01
1.152000000000000000e+03 4.525618362426757812e+01 -2.261605834960937500e+01 5.756712555885314941e-01 2.061949491500854492e+00 7.912862300872802734e-01 -1.063617229461669922e+00
1.153000000000000000e+03 4.629761505126953125e+01 -2.193955039978027344e+01 4.124526083469390869e-01 8.022810816764831543e-01 3.644201159477233887e-01 -5.320819616317749023e-01
1.154000000000000000e+03 5.207165908813476562e+01 -3.273672103881835938e+01 -5.050957202911376953e-01 8.396160006523132324e-01 1.003560796380043030e-01 -4.469256699085235596e-01
1.155000000000000000e+03 4.890682601928710938e+01 -2.660570144653320312e+01 2.179691195487976074e-01 7.616419792175292969e-01 2.938833236694335938e-01 -4.795616865158081055e-01
1.156000000000000000e+03 7.001788330078125000e+01 -2.013356208801269531e+01 1.772234886884689331e-01 1.396415042877197266e+01 4.242412090301513672e+00 -3.250690102577209473e-01
1.157000000000000000e+03 7.013072204589843750e+01 -2.144530677795410156e+01 1.608862131834030151e-01 1.378634548187255859e+01 4.184169769287109375e+00 -1.162312030792236328e-01
1.158000000000000000e+03 7.742626953125000000e+01 -3.812492370605468750e+01 -2.380609661340713501e-01 1.075360965728759766e+01 3.154664516448974609e+00 -3.170367702841758728e-02
1.159000000000000000e+03 7.929516601562500000e+01 -3.472849273681640625e+01 -6.551174819469451904e-02 1.131252861022949219e+01 3.374104976654052734e+00 -1.273485422134399414e-01
1.160000000000000000e+03 7.827458953857421875e+01 -2.912537384033203125e+01 5.707060452550649643e-03 9.318308830261230469e+00 2.797204732894897461e+00 -7.885043621063232422e-01
1.161000000000000000e+03 7.941213989257812500e+01 -2.784251213073730469e+01 4.234269633889198303e-02 8.692825317382812500e+00 2.620550394058227539e+00 -3.243114054203033447e-01
1.162000000000000000e+03 7.629692840576171875e+01 3.353186035156250000e+01 -3.408303251489996910e-03 6.258397102355957031e+00 1.876496672630310059e+00 2.636414393782615662e-02
1.163000000000000000e+03 7.945492553710937500e+01 3.624997711181640625e+01 1.640682690776884556e-03 6.536038398742675781e+00 1.961303830146789551e+00 -8.082657586783170700e-04
1.164000000000000000e+03 7.938790130615234375e+01 -2.085973167419433594e+01 -1.506169512867927551e-02 5.910410881042480469e+00 1.768604755401611328e+00 -1.482282876968383789e-01
1.165000000000000000e+03 7.806309509277343750e+01 -2.501586532592773438e+01 3.834592550992965698e-02 8.033323287963867188e+00 2.421500682830810547e+00 -7.748534679412841797e-01
1.166000000000000000e+03 7.808428192138671875e+01 -2.646061515808105469e+01 7.464197278022766113e-02 8.443824768066406250e+00 2.555540084838867188e+00 -8.338779211044311523e-01
1.167000000000000000e+03 7.802458190917968750e+01 -3.173941993713378906e+01 -3.968970477581024170e-02 1.005009555816650391e+01 3.003121852874755859e+00 -6.729819178581237793e-01
1.168000000000000000e+03 7.938766479492187500e+01 -3.058856201171875000e+01 3.191179782152175903e-02 1.004005813598632812e+01 3.021590948104858398e+00 -2.807879149913787842e-01
1.169000000000000000e+03 7.661106109619140625e+01 -3.288938522338867188e+01 -2.278350442647933960e-01 9.858953475952148438e+00 2.889335632324218750e+00 -7.803573608398437500e-01
1.170000000000000000e+03 7.531830596923828125e+01 -3.776517486572265625e+01 -3.889012336730957031e-01 9.679635047912597656e+00 2.787220001220703125e+00 -5.263779163360595703e-01
1.171000000000000000e+03 7.656686401367187500e+01 -3.915943527221679688e+01 -1.439570486545562744e-01 1.074907779693603516e+01 3.181536197662353516e+00 -1.353346854448318481e-01
1.172000000000000000e+03 7.803697967529296875e+01 1.557586765289306641e+01 1.169151253998279572e-02 7.085277080535888672e+00 2.129090547561645508e+00 -2.155596762895584106e-01
1.173000000000000000e+03 7.935186767578125000e+01 1.540832424163818359e+01 6.311801727861166000e-03 7.316804885864257812e+00 2.196934938430786133e+00 -7.289920002222061157e-02
1.174000000000000000e+03 7.932492065429687500e+01 2.238243865966796875e+01 -1.408847630955278873e-03 6.692329406738281250e+00 2.007276296615600586e+00 -3.234082087874412537e-02
1.175000000000000000e+03 7.726245880126953125e+01 3.222569656372070312e+01 6.628205534070730209e-03 6.369856357574462891e+00 1.912945270538330078e+00 2.068071626126766205e-02
1.176000000000000000e+03 7.794827270507812500e+01 2.800953674316406250e+01 1.463577896356582642e-02 6.413438796997070312e+00 1.928422451019287109e+00 -1.887401938438415527e-02
1.177000000000000000e+03 7.930500793457031250e+01 2.792237663269042969e+01 -1.255424693226814270e-03 6.520037651062011719e+00 1.955634593963623047e+00 -4.361207131296396255e-03
1.178000000000000000e+03 7.789882659912109375e+01 2.535231971740722656e+01 2.093218825757503510e-02 6.460123062133789062e+00 1.944316506385803223e+00 -5.567543953657150269e-02
1.179000000000000000e+03 7.792359924316406250e+01 2.396027183532714844e+01 1.476521790027618408e-02 6.501217842102050781e+00 1.954794883728027344e+00 -7.331858575344085693e-02
1.180000000000000000e+03 7.806929016113281250e+01 1.833090209960937500e+01 1.501140370965003967e-02 6.838112354278564453e+00 2.055937051773071289e+00 -1.712907254695892334e-01
1.181000000000000000e+03 7.805414581298828125e+01 1.695471763610839844e+01 2.029350958764553070e-02 6.956633090972900391e+00 2.093077898025512695e+00 -1.945742964744567871e-01
1.182000000000000000e+03 7.802352142333984375e+01 1.418860054016113281e+01 1.452455110847949982e-02 7.227860927581787109e+00 2.172715663909912109e+00 -2.345222532749176025e-01
1.183000000000000000e+03 7.665300750732421875e+01 1.156099033355712891e+01 2.166511723771691322e-03 7.207623481750488281e+00 2.162936925888061523e+00 -3.956614434719085693e-01
1.184000000000000000e+03 7.803348541259765625e+01 1.000300598144531250e+01 -1.110294461250305176e-02 7.701227188110351562e+00 2.307037353515625000e+00 -2.461459040641784668e-01
1.185000000000000000e+03 7.934799194335937500e+01 9.839049339294433594e+00 2.250217599794268608e-03 8.058659553527832031e+00 2.418272972106933594e+00 -8.166635781526565552e-02
1.186000000000000000e+03 7.938301849365234375e+01 -1.945757484436035156e+01 3.807071596384048462e-02 5.607423305511474609e+00 1.693648099899291992e+00 -1.269592195749282837e-01
1.187000000000000000e+03 7.821067047119140625e+01 -2.219545364379882812e+01 6.382497400045394897e-02 7.193518638610839844e+00 2.177202939987182617e+00 -5.147632360458374023e-01
1.188000000000000000e+03 7.815189361572265625e+01 -1.507157707214355469e+01 1.185091957449913025e-01 6.446338176727294922e+00 1.969454169273376465e+00 1.231575086712837219e-01
1.189000000000000000e+03 7.938011932373046875e+01 -1.384679031372070312e+01 2.142647095024585724e-02 5.505484580993652344e+00 1.658073306083679199e+00 1.010590195655822754e-01
1.190000000000000000e+03 7.822021484375000000e+01 -8.200007438659667969e+00 9.390148334205150604e-04 7.333723068237304688e+00 2.200398683547973633e+00 4.950128495693206787e-01
1.191000000000000000e+03 7.938915252685546875e+01 -6.920288085937500000e+00 5.547554697841405869e-03 7.342084884643554688e+00 2.204289674758911133e+00 1.945494413375854492e-01
1.192000000000000000e+03 7.812075042724609375e+01 2.688462138175964355e-01 -6.052035838365554810e-02 8.350464820861816406e+00 2.486983299255371094e+00 1.145589649677276611e-01
1.193000000000000000e+03 7.938354492187500000e+01 1.490828156471252441e+00 -6.846600212156772614e-03 8.731365203857421875e+00 2.617355585098266602e+00 2.883251011371612549e-02
1.194000000000000000e+03 7.682115936279296875e+01 7.326240539550781250e+00 -5.761488899588584900e-02 7.664297580718994141e+00 2.282004833221435547e+00 -3.288504183292388916e-01
1.195000000000000000e+03 7.782968139648437500e+01 2.933532333374023438e+01 1.921587740071117878e-03 6.389802932739257812e+00 1.917517423629760742e+00 -6.205970421433448792e-03
1.196000000000000000e+03 7.797612762451171875e+01 4.155344772338867188e+01 2.643648162484169006e-02 6.453992366790771484e+00 1.944128632545471191e+00 -7.421399001032114029e-03
1.197000000000000000e+03 7.683538818359375000e+01 3.838150405883789062e+01 -2.098099514842033386e-02 6.377229213714599609e+00 1.906874418258666992e+00 9.670248837210237980e-04
1.198000000000000000e+03 7.691969299316406250e+01 4.700748920440673828e-01 -1.666281521320343018e-01 8.109012603759765625e+00 2.382715225219726562e+00 1.059994846582412720e-01
1.199000000000000000e+03 7.817269897460937500e+01 1.686553120613098145e+00 -7.035284489393234253e-02 8.375262260437011719e+00 2.491472959518432617e+00 2.920492924749851227e-02
1.200000000000000000e+03 7.805874633789062500e+01 -4.044923305511474609e+00 -6.893654167652130127e-02 8.013446807861328125e+00 2.383353233337402344e+00 3.740114867687225342e-01
1.201000000000000000e+03 7.934363555908203125e+01 -2.724023580551147461e+00 -2.345957048237323761e-02 8.316416740417480469e+00 2.487887144088745117e+00 1.305604726076126099e-01
1.202000000000000000e+03 7.817182159423828125e+01 -6.850545883178710938e+00 -3.991249576210975647e-02 7.581845760345458984e+00 2.262579917907714844e+00 4.723666906356811523e-01
1.203000000000000000e+03 7.819104003906250000e+01 -1.091854000091552734e+01 6.128327548503875732e-02 6.842220783233642578e+00 2.071051359176635742e+00 4.472844600677490234e-01
1.204000000000000000e+03 7.940640258789062500e+01 -9.686321258544921875e+00 1.485297922044992447e-02 6.490835666656494141e+00 1.951706647872924805e+00 1.928697824478149414e-01
1.205000000000000000e+03 7.813343811035156250e+01 -1.367384624481201172e+01 9.150621294975280762e-02 6.533442974090576172e+00 1.987484812736511230e+00 2.736737132072448730e-01
1.206000000000000000e+03 7.817944335937500000e+01 -1.792141914367675781e+01 1.293954402208328247e-01 6.534322738647460938e+00 1.999115467071533203e+00 -1.894711107015609741e-01
1.207000000000000000e+03 7.938602447509765625e+01 -1.664095687866210938e+01 3.539564087986946106e-02 5.304279804229736328e+00 1.601902604103088379e+00 -7.515633478760719299e-03
1.208000000000000000e+03 7.815433502197265625e+01 -1.935766410827636719e+01 7.174154371023178101e-02 6.694670677185058594e+00 2.029923677444458008e+00 -2.955222427845001221e-01
1.209000000000000000e+03 1.476935386657714844e+00 -4.000280380249023438e+01 -3.878569602966308594e-02 3.383951425552368164e+00 1.003549695014953613e+00 -2.177310138940811157e-01
1.210000000000000000e+03 2.625476837158203125e+00 3.835956954956054688e+01 -1.131719276309013367e-01 2.769232273101806641e+00 7.968180775642395020e-01 -1.468711048364639282e-01
1.211000000000000000e+03 7.558240294456481934e-01 3.462171936035156250e+01 -1.175857894122600555e-02 2.599323272705078125e+00 7.762693762779235840e-01 -1.377060264348983765e-01
1.212000000000000000e+03 6.691150665283203125e-01 2.612957000732421875e+01 2.707897452637553215e-03 3.476784527301788330e-01 1.051158979535102844e-01 -2.122308313846588135e-01
1.213000000000000000e+03 2.050337791442871094e+00 2.879193115234375000e+01 -2.409338578581809998e-02 1.264331102371215820e+00 3.720713257789611816e-01 -5.612822175025939941e-01
1.214000000000000000e+03 6.872819066047668457e-01 -3.595721054077148438e+01 -3.054788708686828613e-02 4.123880863189697266e+00 1.227999806404113770e+00 -1.079438254237174988e-01
1.215000000000000000e+03 6.566875934600830078e+00 -3.550891876220703125e+01 -1.947398334741592407e-01 1.070534944534301758e+00 2.627385258674621582e-01 -1.480530798435211182e-01
1.216000000000000000e+03 3.378763198852539062e+00 2.862298774719238281e+01 -5.333525314927101135e-02 1.361880302429199219e+00 3.925635218620300293e-01 -8.378348350524902344e-01
1.217000000000000000e+03 3.238071918487548828e+00 2.572542762756347656e+01 -7.419882458634674549e-04 8.110607862472534180e-01 2.430956363677978516e-01 -8.518075346946716309e-01
1.218000000000000000e+03 2.131399393081665039e+00 3.162502670288085938e+01 -3.907876089215278625e-02 1.868008255958557129e+00 5.486788749694824219e-01 -4.988372027873992920e-01
1.219000000000000000e+03 2.177842855453491211e+00 3.302399826049804688e+01 -5.208063870668411255e-02 2.121683359146118164e+00 6.208808422088623047e-01 -4.554989635944366455e-01
1.220000000000000000e+03 4.005131721496582031e+00 3.826276016235351562e+01 -2.167796939611434937e-01 2.600785017013549805e+00 7.152016162872314453e-01 -3.816839456558227539e-01
1.221000000000000000e+03 3.212382793426513672e+00 3.942213821411132812e+01 -1.086987704038619995e-01 2.848049402236938477e+00 8.218051791191101074e-01 -1.902146786451339722e-01
1.222000000000000000e+03 7.794384956359863281e-01 -3.035686683654785156e+01 -9.098591655492782593e-02 4.052644252777099609e+00 1.188497543334960938e+00 2.408367097377777100e-01
1.223000000000000000e+03 3.250960588455200195e+00 -2.634510231018066406e+01 -2.177615910768508911e-01 2.408588171005249023e+00 6.572479605674743652e-01 1.651181936264038086e+00
1.224000000000000000e+03 1.865513443946838379e+00 -1.771965217590332031e+01 1.932068765163421631e-01 -6.518661975860595703e-01 -1.375977843999862671e-01 -8.545275777578353882e-02
1.225000000000000000e+03 5.838800668716430664e-01 -1.913903045654296875e+01 4.852987080812454224e-02 -2.326560020446777344e+00 -6.834090352058410645e-01 2.692772448062896729e-02
1.226000000000000000e+03 5.496680736541748047e-01 -2.052979469299316406e+01 2.203555218875408173e-02 -2.143064260482788086e+00 -6.363086104393005371e-01 1.121884211897850037e-01
1.227000000000000000e+03 5.387284159660339355e-01 -2.330816078186035156e+01 2.610953291878104210e-03 -6.262615323066711426e-01 -1.870951801538467407e-01 4.112977683544158936e-01
1.228000000000000000e+03 2.423157453536987305e+00 -3.655532836914062500e+01 -4.905897006392478943e-02 3.266649246215820312e+00 9.652770757675170898e-01 -2.311389744281768799e-01
1.229000000000000000e+03 6.360451579093933105e-01 1.904377746582031250e+01 1.257357653230428696e-02 -1.643812179565429688e+00 -4.893715679645538330e-01 -1.348173320293426514e-01
1.230000000000000000e+03 5.782815217971801758e-01 1.340684700012207031e+01 1.431149337440729141e-02 -2.313198566436767578e+00 -6.896660923957824707e-01 2.309732837602496147e-03
1.231000000000000000e+03 5.569034218788146973e-01 7.762194156646728516e+00 2.207859186455607414e-03 -1.548535108566284180e+00 -4.638981819152832031e-01 1.374496668577194214e-01
1.232000000000000000e+03 5.297410964965820312e+00 -4.034239959716796875e+01 2.379994094371795654e-01 1.866085171699523926e+00 6.312253475189208984e-01 4.260469600558280945e-02
1.233000000000000000e+03 3.935471296310424805e+00 -3.888458251953125000e+01 5.178537219762802124e-02 2.710993051528930664e+00 8.288335800170898438e-01 -1.370206773281097412e-01
1.234000000000000000e+03 2.925276994705200195e+00 -3.469967651367187500e+01 -1.258337646722793579e-01 3.041904211044311523e+00 8.748211264610290527e-01 -1.713470965623855591e-01
1.235000000000000000e+03 5.514508247375488281e+00 -2.767573928833007812e+01 -1.195324659347534180e+00 2.038485527038574219e+00 2.529482543468475342e-01 1.041944146156311035e+00
1.236000000000000000e+03 1.993018507957458496e+00 -3.322347259521484375e+01 -8.832933753728866577e-02 3.565151214599609375e+00 1.043046593666076660e+00 -4.611919075250625610e-02
1.237000000000000000e+03 4.483556270599365234e+00 -2.883010864257812500e+01 -9.629904627799987793e-01 2.391117811203002930e+00 4.284381866455078125e-01 9.968609809875488281e-01
1.238000000000000000e+03 3.836338520050048828e+00 -2.442432403564453125e+01 2.885268330574035645e-01 2.452390193939208984e+00 8.222751021385192871e-01 1.751383543014526367e+00
1.239000000000000000e+03 4.128263473510742188e+00 -2.222977447509765625e+01 6.922183036804199219e-01 3.199226140975952148e+00 1.167433261871337891e+00 1.597411632537841797e+00
1.240000000000000000e+03 1.898178696632385254e+00 -1.633091545104980469e+01 1.257118433713912964e-01 -6.056476235389709473e-01 -1.439807415008544922e-01 -3.039683699607849121e-01
1.241000000000000000e+03 3.165789604187011719e+00 -1.355360794067382812e+01 -8.252249658107757568e-02 4.641976058483123779e-01 1.145025342702865601e-01 -4.022056162357330322e-01
1.242000000000000000e+03 6.068454980850219727e-01 -1.212521076202392578e+01 -1.588096492923796177e-03 -9.806541800498962402e-01 -2.946726679801940918e-01 -1.367978751659393311e-01
1.243000000000000000e+03 1.831311941146850586e+00 -1.215767097473144531e+01 -7.259984314441680908e-02 -3.538064658641815186e-01 -1.279218941926956177e-01 -3.283849656581878662e-01
1.244000000000000000e+03 4.727081775665283203e+00 -3.721455812454223633e+00 -9.276783093810081482e-03 7.214568555355072021e-02 1.886067166924476624e-02 -2.608407475054264069e-02
1.245000000000000000e+03 2.937735319137573242e+00 -3.185623884201049805e+00 -1.990108564496040344e-02 -2.586852991953492165e-03 -6.746381521224975586e-03 -7.102859020233154297e-02
1.246000000000000000e+03 2.144574165344238281e+00 -3.394443988800048828e+00 -1.284622307866811752e-02 -3.931882604956626892e-02 -1.564951427280902863e-02 -6.764344871044158936e-02
1.247000000000000000e+03 1.318139672279357910e+00 -3.549506902694702148e+00 -8.086957968771457672e-03 -6.764867156744003296e-02 -2.272068895399570465e-02 -5.127664655447006226e-02
1.248000000000000000e+03 4.474590122699737549e-01 4.924836158752441406e+00 -9.544908069074153900e-03 -7.770692706108093262e-01 -2.359842509031295776e-01 1.292688250541687012e-01
1.249000000000000000e+03 3.525696992874145508e+00 4.738554000854492188e+00 -8.201400935649871826e-02 -4.802490770816802979e-01 -1.686789244413375854e-01 6.963807344436645508e-01
1.250000000000000000e+03 1.719649434089660645e+00 1.040689945220947266e+01 7.700771838426589966e-02 -1.533207654953002930e+00 -4.368599653244018555e-01 2.246073484420776367e-01
1.251000000000000000e+03 5.761781930923461914e-01 1.058867645263671875e+01 1.371475309133529663e-02 -2.107458591461181641e+00 -6.281231045722961426e-01 8.043482154607772827e-02
1.252000000000000000e+03 1.719512104988098145e+00 1.319388866424560547e+01 7.412470877170562744e-02 -1.651988267898559570e+00 -4.733590781688690186e-01 1.620955765247344971e-02
1.253000000000000000e+03 1.909391641616821289e+00 1.878571128845214844e+01 5.299596488475799561e-02 -1.024698495864868164e+00 -2.915107607841491699e-01 -3.652191460132598877e-01
1.254000000000000000e+03 1.964998126029968262e+00 2.447190856933593750e+01 1.859994046390056610e-02 2.071561217308044434e-01 6.772682070732116699e-02 -5.662091970443725586e-01
1.255000000000000000e+03 1.956385231018066406e+01 -2.907696247100830078e+00 2.512239933013916016e+00 7.382209897041320801e-01 9.751382470130920410e-01 9.624013304710388184e-01
1.256000000000000000e+03 2.199884605407714844e+01 -2.283216714859008789e+00 1.711831450462341309e+00 8.918449401855468750e+00 3.189084053039550781e+00 5.196515917778015137e-01
1.257000000000000000e+03 2.083866500854492188e+01 -2.424748659133911133e+00 2.941954135894775391e+00 2.842940330505371094e+00 1.735468387603759766e+00 1.918484568595886230e+00
1.258000000000000000e+03 1.964169311523437500e+01 -2.571449279785156250e+00 2.544385671615600586e+00 6.131991147994995117e-01 9.472754001617431641e-01 8.574515581130981445e-01
1.259000000000000000e+03 2.279747200012207031e+01 6.121987700462341309e-01 1.079033970832824707e+00 9.487812995910644531e+00 3.170054197311401367e+00 -1.608056902885437012e+00
1.260000000000000000e+03 2.243994903564453125e+01 -2.720713138580322266e+00 1.981028437614440918e+00 7.808383464813232422e+00 2.936823606491088867e+00 -1.263811469078063965e+00
1.261000000000000000e+03 2.219238471984863281e+01 -2.567315101623535156e+00 1.778442382812500000e+00 8.089151382446289062e+00 2.960278272628784180e+00 -3.672042787075042725e-01
1.262000000000000000e+03 2.094692230224609375e+01 1.020013809204101562e+00 1.717748045921325684e+00 7.596369266510009766e+00 2.794235229492187500e+00 -6.786742687225341797e+00
1.263000000000000000e+03 2.331667709350585938e+01 -1.666138529777526855e+00 6.240161418914794922e+00 6.304002761840820312e+00 3.763249397277832031e+00 -5.602702617645263672e+00
1.264000000000000000e+03 2.399314308166503906e+01 -1.218400239944458008e+00 7.621098518371582031e+00 2.180280923843383789e+00 2.940413713455200195e+00 -4.470259189605712891e+00
1.265000000000000000e+03 2.358687591552734375e+01 -1.041639089584350586e+00 8.047835350036621094e+00 3.004599094390869141e+00 3.315730333328247070e+00 -5.117344379425048828e+00
1.266000000000000000e+03 2.451818847656250000e+01 -8.102700114250183105e-01 3.136907815933227539e+00 5.635508298873901367e-01 1.110137581825256348e+00 -2.872854232788085938e+00
1.267000000000000000e+03 1.956716156005859375e+01 2.379335403442382812e+00 2.590808153152465820e+00 4.881677627563476562e+00 2.241745710372924805e+00 -3.979495048522949219e+00
1.268000000000000000e+03 1.922194290161132812e+01 1.731623411178588867e+00 1.708564758300781250e+00 3.129122495651245117e+00 1.451306223869323730e+00 -3.017717599868774414e+00
1.269000000000000000e+03 1.738990974426269531e+01 -3.213370561599731445e+00 1.660759210586547852e+00 4.713587835431098938e-02 5.123685002326965332e-01 4.552157521247863770e-01
1.270000000000000000e+03 1.538852119445800781e+01 -3.105305194854736328e+00 1.095914840698242188e+00 -3.878308460116386414e-02 3.171395063400268555e-01 3.490227758884429932e-01
1.271000000000000000e+03 1.607235908508300781e+01 -3.697363853454589844e+00 1.351633906364440918e+00 -1.239932514727115631e-02 4.017703831195831299e-01 5.044371485710144043e-01
1.272000000000000000e+03 1.538094711303710938e+01 -3.668109178543090820e+00 1.177027821540832520e+00 -2.630298957228660583e-02 3.452174365520477295e-01 4.800117909908294678e-01
1.273000000000000000e+03 1.735771560668945312e+01 -3.762478590011596680e+00 1.728505849838256836e+00 1.031543016433715820e-01 5.494980216026306152e-01 6.244898438453674316e-01
1.274000000000000000e+03 1.637633705139160156e+01 1.811899065971374512e+00 -3.656999170780181885e-01 7.728068828582763672e-01 1.221320852637290955e-01 -2.615171372890472412e-01
1.275000000000000000e+03 1.711606216430664062e+01 1.846196651458740234e+00 2.265320122241973877e-01 1.171884059906005859e+00 4.195248186588287354e-01 -7.777462005615234375e-01
1.276000000000000000e+03 1.887486267089843750e+01 4.840982913970947266e+00 3.366098403930664062e+00 6.831476211547851562e+00 3.059272289276123047e+00 -4.405498027801513672e+00
1.277000000000000000e+03 1.040898418426513672e+01 -3.369151115417480469e+00 3.104447424411773682e-01 6.290870159864425659e-02 1.120060384273529053e-01 2.825162708759307861e-01
1.278000000000000000e+03 9.017599105834960938e+00 -3.321323871612548828e+00 1.670125871896743774e-01 9.506783634424209595e-02 7.862412929534912109e-02 2.003021985292434692e-01
1.279000000000000000e+03 1.110092830657958984e+01 -3.417163848876953125e+00 3.965973258018493652e-01 4.533194378018379211e-02 1.325787901878356934e-01 3.245919942855834961e-01
1.280000000000000000e+03 1.443112564086914062e+01 2.591844081878662109e+00 -2.439012676477432251e-01 4.340954124927520752e-01 5.705824121832847595e-02 1.072421297430992126e-01
1.281000000000000000e+03 1.703596878051757812e+01 4.594063282012939453e+00 2.605470657348632812e+00 3.268466472625732422e+00 1.762181162834167480e+00 -2.421983718872070312e+00
1.282000000000000000e+03 1.376915550231933594e+01 2.796958923339843750e+00 -2.753236889839172363e-01 2.720896303653717041e-01 -9.702104725874960423e-04 2.299320548772811890e-01
1.283000000000000000e+03 1.216598224639892578e+01 2.275731563568115234e+00 -1.220959186553955078e+00 -9.251605719327926636e-02 -3.940425813198089600e-01 6.530050039291381836e-01
1.284000000000000000e+03 1.391861152648925781e+01 -2.994456291198730469e+00 7.827711701393127441e-01 -3.489020466804504395e-02 2.243642956018447876e-01 3.233984112739562988e-01
1.285000000000000000e+03 6.172249794006347656e+00 -3.499031066894531250e+00 1.053201872855424881e-02 1.034692749381065369e-01 3.420038893818855286e-02 3.321303054690361023e-02
1.286000000000000000e+03 2.734401941299438477e+00 -8.093781471252441406e+00 -6.951098889112472534e-02 2.853878587484359741e-02 -1.229166146367788315e-02 -1.309315562248229980e-01
1.287000000000000000e+03 8.309895515441894531e+00 -3.333077669143676758e+00 1.123406141996383667e-01 1.058863922953605652e-01 6.546810269355773926e-02 1.606437414884567261e-01
1.288000000000000000e+03 8.173896789550781250e+00 -2.596679210662841797e+00 6.226351112127304077e-02 6.589514017105102539e-02 3.844759613275527954e-02 1.029985323548316956e-01
1.289000000000000000e+03 5.450448513031005859e+00 -3.598495006561279297e+00 2.484505239408463240e-04 8.599542826414108276e-02 2.587316371500492096e-02 -3.466443158686161041e-03
1.290000000000000000e+03 5.223048686981201172e+00 -2.776207208633422852e+00 -2.440736256539821625e-02 5.146168917417526245e-02 8.116297423839569092e-03 -2.063529938459396362e-02
1.291000000000000000e+03 4.394907474517822266e+00 -5.409554958343505859e+00 -2.971551567316055298e-02 1.302472800016403198e-01 3.015953116118907928e-02 -3.436213359236717224e-02
1.292000000000000000e+03 1.557352662086486816e+00 -4.981985092163085938e+00 -2.988251624628901482e-03 -9.204474836587905884e-02 -2.850989997386932373e-02 -6.610963493585586548e-02
1.293000000000000000e+03 1.394612216949462891e+01 -3.603130102157592773e+00 8.683158755302429199e-01 -2.598621137440204620e-02 2.526988983154296875e-01 4.393247961997985840e-01
1.294000000000000000e+03 1.250491428375244141e+01 -3.520182847976684570e+00 6.082724332809448242e-01 4.604149144142866135e-03 1.838629692792892456e-01 3.910375237464904785e-01
1.295000000000000000e+03 1.224825859069824219e+01 3.012446165084838867e+00 -4.876296818256378174e-01 4.735703021287918091e-02 -1.320817917585372925e-01 5.396447181701660156e-01
1.296000000000000000e+03 1.067900371551513672e+01 3.195296525955200195e+00 -5.544113516807556152e-01 -1.225594058632850647e-01 -2.030912190675735474e-01 7.619018554687500000e-01
1.297000000000000000e+03 1.301061630249023438e+01 2.906395912170410156e+00 -4.173601865768432617e-01 1.448486745357513428e-01 -8.175345510244369507e-02 3.745826184749603271e-01
1.298000000000000000e+03 4.280329227447509766e+00 2.822971820831298828e+00 -4.014083147048950195e-01 -1.959614455699920654e-01 -1.792109310626983643e-01 6.477058529853820801e-01
1.299000000000000000e+03 5.071445465087890625e+00 2.780482053756713867e+00 -5.122604966163635254e-01 -1.630950421094894409e-01 -2.026066631078720093e-01 7.206097245216369629e-01
1.300000000000000000e+03 5.863316059112548828e+00 2.747825860977172852e+00 -6.323217749595642090e-01 -1.471874564886093140e-01 -2.338527739048004150e-01 7.838842868804931641e-01
1.301000000000000000e+03 5.983099460601806641e+00 4.484842777252197266e+00 -1.671110093593597412e-01 -2.442557811737060547e-01 -1.234100386500358582e-01 8.906213641166687012e-01
1.302000000000000000e+03 7.444981098175048828e+00 2.682364940643310547e+00 -8.605949282646179199e-01 -1.452327370643615723e-01 -3.017483055591583252e-01 8.790144920349121094e-01
1.303000000000000000e+03 1.349400043487548828e+00 4.654096603393554688e+00 -2.755548991262912750e-02 -6.363039612770080566e-01 -1.991578489542007446e-01 3.532408773899078369e-01
1.304000000000000000e+03 3.905668854713439941e-01 3.541855812072753906e+00 -1.171292643994092941e-02 -3.784681856632232666e-01 -1.170543357729911804e-01 9.232610464096069336e-02
1.305000000000000000e+03 9.024289131164550781e+00 2.601703882217407227e+00 -1.027451872825622559e+00 -1.942007094621658325e-01 -3.664957582950592041e-01 8.930094838142395020e-01
1.306000000000000000e+03 7.508153915405273438e+00 3.478175401687622070e+00 -4.969954192638397217e-01 -1.748150736093521118e-01 -2.015431523323059082e-01 9.283136129379272461e-01
1.307000000000000000e+03 9.181241989135742188e+00 4.089663505554199219e+00 -1.532055288553237915e-01 -1.068434417247772217e-01 -7.801469415426254272e-02 8.368563055992126465e-01
1.308000000000000000e+03 9.886542320251464844e+00 3.271800756454467773e+00 -5.667303204536437988e-01 -1.563641875982284546e-01 -2.169283479452133179e-01 8.330259323120117188e-01
1.309000000000000000e+03 1.147005367279052734e+01 3.109095573425292969e+00 -5.200178623199462891e-01 -5.522624030709266663e-02 -1.725732386112213135e-01 6.436012387275695801e-01
1.310000000000000000e+03 9.095192909240722656e+00 3.342076301574707031e+00 -5.584421157836914062e-01 -1.735186874866485596e-01 -2.195882499217987061e-01 9.032444953918457031e-01
1.311000000000000000e+03 2.126574897766113281e+01 2.143924713134765625e+00 3.036979675292968750e+00 9.998925209045410156e+00 3.910771608352661133e+00 -6.206125259399414062e+00
1.312000000000000000e+03 3.919426727294921875e+01 -1.189890003204345703e+01 7.493459582328796387e-01 1.139007854461669922e+01 3.641827344894409180e+00 -6.322601437568664551e-01
1.313000000000000000e+03 1.994396209716796875e+01 -1.594063949584960938e+01 -1.396135449409484863e+00 2.442438453435897827e-01 -3.455674648284912109e-01 6.577659249305725098e-01
1.314000000000000000e+03 2.334916687011718750e+01 -1.746334075927734375e+01 -2.307401418685913086e+00 2.613408267498016357e-01 -6.138181686401367188e-01 2.289994359016418457e-01
1.315000000000000000e+03 6.750926208496093750e+01 -6.261588096618652344e+00 5.220278501510620117e-01 7.331610679626464844e+00 2.356091499328613281e+00 -1.598171114921569824e+00
1.316000000000000000e+03 6.793260192871093750e+01 -7.783428192138671875e+00 4.146129488945007324e-01 8.539339065551757812e+00 2.686185598373413086e+00 -2.033200979232788086e+00
1.317000000000000000e+03 2.438622283935546875e+01 -3.434546887874603271e-01 2.722907781600952148e+00 3.236169815063476562e-01 9.139574170112609863e-01 -7.910670042037963867e-01
1.318000000000000000e+03 5.405690002441406250e+01 3.491127014160156250e+00 -1.352778077125549316e+00 4.654829204082489014e-01 -2.661885619163513184e-01 -1.849308027885854244e-03
1.319000000000000000e+03 1.880007362365722656e+01 -1.563505649566650391e+01 -1.237480759620666504e+00 9.395135194063186646e-02 -3.430588245391845703e-01 6.925305128097534180e-01
1.320000000000000000e+03 2.696873664855957031e+01 -1.726291847229003906e+01 -3.078885793685913086e+00 1.625681482255458832e-02 -9.187887310981750488e-01 -9.993505477905273438e-02
1.321000000000000000e+03 1.766749763488769531e+01 -1.522725296020507812e+01 -9.079712629318237305e-01 -4.780579730868339539e-02 -2.867331206798553467e-01 7.911767959594726562e-01
1.322000000000000000e+03 2.131070327758789062e+01 -1.506637763977050781e+01 -1.161896944046020508e+00 3.830868303775787354e-01 -2.336430400609970093e-01 6.442236304283142090e-01
1.323000000000000000e+03 1.289629554748535156e+01 2.257701301574707031e+01 3.074459731578826904e-01 3.870124578475952148e+00 1.253271102905273438e+00 -8.438004851341247559e-01
1.324000000000000000e+03 1.286671257019042969e+01 1.948184776306152344e+01 6.046294569969177246e-01 4.385472297668457031e+00 1.497030496597290039e+00 -1.113101601600646973e+00
1.325000000000000000e+03 2.583577346801757812e+01 -3.365903472900390625e+01 -7.615591287612915039e-01 3.627818822860717773e-01 -1.196331754326820374e-01 2.568374574184417725e-01
1.326000000000000000e+03 2.355068206787109375e+01 -1.519715595245361328e+01 -1.349051952362060547e+00 4.024447798728942871e-01 -2.839821577072143555e-01 5.003623366355895996e-01
1.327000000000000000e+03 1.929570007324218750e+01 -3.392375564575195312e+01 -1.161446809768676758e+00 -1.379482150077819824e-01 -3.898185193538665771e-01 1.343618035316467285e-01
1.328000000000000000e+03 2.042587280273437500e+01 -3.504179382324218750e+01 -8.230301141738891602e-01 -1.498038172721862793e-01 -2.918501794338226318e-01 1.009621471166610718e-01
1.329000000000000000e+03 3.567861175537109375e+01 -1.794291615486145020e+00 1.076103687286376953e+00 3.658940553665161133e+00 1.420513272285461426e+00 1.219514608383178711e+00
1.330000000000000000e+03 5.282133865356445312e+01 -3.508815383911132812e+01 -5.723144412040710449e-01 8.030596971511840820e-01 6.922359019517898560e-02 -5.890005826950073242e-01
1.331000000000000000e+03 5.242656707763671875e+01 -3.081336975097656250e+01 -4.525178670883178711e-01 4.520612359046936035e-01 -1.369902456644922495e-04 -9.686540812253952026e-02
1.332000000000000000e+03 5.073952484130859375e+01 -2.869397354125976562e+01 -2.116337046027183533e-02 5.572625994682312012e-01 1.608297824859619141e-01 -2.887614667415618896e-01
1.333000000000000000e+03 2.265085220336914062e+01 -3.444189071655273438e+01 -9.200519919395446777e-01 5.306740105152130127e-02 -2.600953876972198486e-01 8.581144362688064575e-02
1.334000000000000000e+03 2.407821273803710938e+01 -3.488998031616210938e+01 -7.317911386489868164e-01 1.137688085436820984e-01 -1.854066997766494751e-01 2.025236636400222778e-01
1.335000000000000000e+03 1.416974925994873047e+01 1.345194816589355469e+01 1.078653573989868164e+00 5.006448268890380859e+00 1.825530529022216797e+00 -1.687478303909301758e+00
1.336000000000000000e+03 4.397432708740234375e+01 1.705719757080078125e+01 7.609705924987792969e-01 6.576846122741699219e+00 2.201344966888427734e+00 1.624825954437255859e+00
1.337000000000000000e+03 1.656378746032714844e+01 -1.470339775085449219e+01 -5.622510313987731934e-01 -1.821555346250534058e-01 -2.233219742774963379e-01 9.109578132629394531e-01
1.338000000000000000e+03 2.465880966186523438e+01 -1.626732063293457031e+01 -2.002928733825683594e+00 2.876136600971221924e-01 -5.145945549011230469e-01 3.593311905860900879e-01
1.339000000000000000e+03 4.233503341674804688e+01 -2.288319778442382812e+01 5.674576759338378906e-01 5.587145328521728516e+00 1.846380949020385742e+00 -9.183566570281982422e-01
1.340000000000000000e+03 4.676342010498046875e+01 -2.625520133972167969e+01 3.909801840782165527e-01 1.651014089584350586e+00 6.125982999801635742e-01 -9.348452687263488770e-01
1.341000000000000000e+03 7.152633666992187500e+01 -2.231105995178222656e+01 7.068262696266174316e-01 1.175270843505859375e+01 3.737860441207885742e+00 -4.352298378944396973e-01
1.342000000000000000e+03 1.783941841125488281e+01 7.320724010467529297e+00 2.324257850646972656e+00 6.806198596954345703e+00 2.739136934280395508e+00 -3.676119327545166016e+00
1.343000000000000000e+03 1.674358367919921875e+01 9.846840858459472656e+00 1.573061823844909668e+00 6.408622741699218750e+00 2.394505500793457031e+00 -2.882982015609741211e+00
1.344000000000000000e+03 1.519212341308593750e+01 -3.607924270629882812e+01 -5.548454523086547852e-01 -4.476553201675415039e-01 -3.007502257823944092e-01 3.407743275165557861e-01
1.345000000000000000e+03 6.337105274200439453e+00 -2.876741600036621094e+01 -1.283006548881530762e+00 1.073850035667419434e+00 -6.274697929620742798e-02 7.611679434776306152e-01
1.346000000000000000e+03 4.709245300292968750e+01 -3.176075363159179688e+01 -2.860951423645019531e-01 2.419665813446044922e+00 6.400711536407470703e-01 -1.004781961441040039e+00
1.347000000000000000e+03 4.433271408081054688e+01 1.979977798461914062e+01 4.407956004142761230e-01 5.862509727478027344e+00 1.890991568565368652e+00 1.120004296302795410e+00
1.348000000000000000e+03 2.608086395263671875e+01 -2.961421728134155273e+00 5.114602565765380859e+00 2.099898099899291992e+00 2.164350271224975586e+00 -2.185520410537719727e+00
1.349000000000000000e+03 4.452267074584960938e+01 2.575763702392578125e+01 2.840466797351837158e-01 4.748090744018554688e+00 1.509641170501708984e+00 4.123531877994537354e-01
1.350000000000000000e+03 4.714028930664062500e+01 -2.456104850769042969e+01 4.259052276611328125e-01 1.095919013023376465e+00 4.565472900867462158e-01 -7.157511711120605469e-01
1.351000000000000000e+03 3.978056335449218750e+01 3.528603363037109375e+01 -1.375700831413269043e+00 1.339341998100280762e+00 -1.090768259018659592e-02 7.738220691680908203e-02
1.352000000000000000e+03 4.170365524291992188e+01 -9.933792352676391602e-01 9.105588793754577637e-01 1.057423496246337891e+01 3.445438146591186523e+00 1.829559445381164551e+00
1.353000000000000000e+03 4.134203720092773438e+01 -2.340595245361328125e+00 1.824778199195861816e+00 1.129624462127685547e+01 3.936306715011596680e+00 2.786172389984130859e+00
1.354000000000000000e+03 6.170955657958984375e+01 -3.462306594848632812e+01 -9.760565757751464844e-01 1.816109269857406616e-01 -2.383337020874023438e-01 1.007867977023124695e-01
1.355000000000000000e+03 4.042960739135742188e+01 -7.858018398284912109e+00 1.407895088195800781e+00 1.359782314300537109e+01 4.501715183258056641e+00 1.194172024726867676e+00
1.356000000000000000e+03 4.313588333129882812e+01 2.414690589904785156e+01 1.131868958473205566e-01 5.234604358673095703e+00 1.604337453842163086e+00 3.271081745624542236e-01
1.357000000000000000e+03 4.458286285400390625e+01 2.422276115417480469e+01 2.615874707698822021e-01 5.033026218414306641e+00 1.588384151458740234e+00 5.675016045570373535e-01
1.358000000000000000e+03 4.448082351684570312e+01 2.123719406127929688e+01 3.478252589702606201e-01 5.589351654052734375e+00 1.781153082847595215e+00 9.362099766731262207e-01
1.359000000000000000e+03 4.766787719726562500e+01 -2.733229637145996094e+01 3.260081112384796143e-01 1.491976737976074219e+00 5.453954935073852539e-01 -8.041347861289978027e-01
1.360000000000000000e+03 7.595845031738281250e+01 -1.629691886901855469e+01 4.224727749824523926e-01 8.216932296752929688e+00 2.591821432113647461e+00 -9.521558135747909546e-02
1.361000000000000000e+03 4.337331390380859375e+01 1.151287269592285156e+01 1.575394749641418457e+00 7.736418724060058594e+00 2.793544054031372070e+00 2.866100549697875977e+00
1.362000000000000000e+03 4.350713729858398438e+01 1.296044158935546875e+01 1.373675942420959473e+00 7.590170383453369141e+00 2.689153909683227539e+00 2.522764444351196289e+00
1.363000000000000000e+03 6.981879425048828125e+01 -8.901698112487792969e+00 9.792063385248184204e-02 9.680914878845214844e+00 2.933650732040405273e+00 -9.954345822334289551e-01
1.364000000000000000e+03 7.107160949707031250e+01 -1.858530044555664062e+01 4.654882848262786865e-01 1.305985546112060547e+01 4.057603359222412109e+00 -7.039492726325988770e-01
1.365000000000000000e+03 1.767714309692382812e+01 3.056449890136718750e+00 2.142223834991455078e+00 2.876404047012329102e+00 1.505588412284851074e+00 -2.158576965332031250e+00
1.366000000000000000e+03 4.420796585083007812e+01 -2.335463523864746094e+01 6.171371936798095703e-01 3.305867195129394531e+00 1.176901340484619141e+00 -1.276218056678771973e+00
1.367000000000000000e+03 4.522014999389648438e+01 -2.432650184631347656e+01 5.819342732429504395e-01 2.549485445022583008e+00 9.394258856773376465e-01 -1.144214034080505371e+00
1.368000000000000000e+03 7.503352355957031250e+01 -3.388172531127929688e+01 -4.297446906566619873e-01 9.427006721496582031e+00 2.699178695678710938e+00 -7.130745053291320801e-01
1.369000000000000000e+03 7.826444244384765625e+01 -2.782779312133789062e+01 -2.736953832209110260e-02 8.876143455505371094e+00 2.654632091522216797e+00 -7.974814772605895996e-01
1.370000000000000000e+03 7.556058502197265625e+01 2.000870704650878906e+01 9.263804554939270020e-02 6.367615222930908203e+00 1.938075900077819824e+00 -2.797138988971710205e-01
1.371000000000000000e+03 7.707551574707031250e+01 -2.347160339355468750e+01 1.558381617069244385e-01 8.158908843994140625e+00 2.494424104690551758e+00 -8.331705331802368164e-01
1.372000000000000000e+03 7.682598876953125000e+01 -3.009636497497558594e+01 -9.690301865339279175e-02 9.484969139099121094e+00 2.816419839859008789e+00 -1.104051232337951660e+00
1.373000000000000000e+03 7.786967468261718750e+01 -3.450368118286132812e+01 -1.431370675563812256e-01 1.060853481292724609e+01 3.139619350433349609e+00 -4.263475239276885986e-01
1.374000000000000000e+03 7.720861053466796875e+01 -2.896828460693359375e+01 -1.068054661154747009e-01 9.301889419555664062e+00 2.758525371551513672e+00 -1.059129476547241211e+00
1.375000000000000000e+03 7.514904022216796875e+01 -2.368949699401855469e+01 3.910978734493255615e-01 9.264935493469238281e+00 2.896809816360473633e+00 -1.089979767799377441e+00
1.376000000000000000e+03 7.683778381347656250e+01 -2.680313682556152344e+01 6.434334814548492432e-02 8.865475654602050781e+00 2.678945779800415039e+00 -1.153204679489135742e+00
1.377000000000000000e+03 7.683971405029296875e+01 -2.473733329772949219e+01 1.901911348104476929e-01 8.513436317443847656e+00 2.611088037490844727e+00 -1.052572488784790039e+00
1.378000000000000000e+03 7.663977813720703125e+01 -3.145716094970703125e+01 -2.954337894916534424e-01 9.692608833312988281e+00 2.819152593612670898e+00 -9.908634424209594727e-01
1.379000000000000000e+03 7.643415832519531250e+01 -3.426139068603515625e+01 -3.722844123840332031e-01 9.880947113037109375e+00 2.852598667144775391e+00 -6.534495949745178223e-01
1.380000000000000000e+03 7.795172119140625000e+01 -3.312525558471679688e+01 -1.731643229722976685e-01 1.033412456512451172e+01 3.048288106918334961e+00 -5.673429369926452637e-01
1.381000000000000000e+03 7.375405120849609375e+01 -3.319105148315429688e+01 -7.131531834602355957e-01 8.977288246154785156e+00 2.479240417480468750e+00 -7.820237874984741211e-01
1.382000000000000000e+03 7.505231475830078125e+01 -4.041424560546875000e+01 -9.519498795270919800e-02 9.531661987304687500e+00 2.830940008163452148e+00 -3.013347387313842773e-01
1.383000000000000000e+03 7.798149871826171875e+01 2.254507827758789062e+01 2.437696419656276703e-02 6.558706760406494141e+00 1.974925041198730469e+00 -9.649343788623809814e-02
1.384000000000000000e+03 7.676766204833984375e+01 2.124987030029296875e+01 5.422918871045112610e-02 6.478621959686279297e+00 1.959855437278747559e+00 -1.845538616180419922e-01
1.385000000000000000e+03 7.542874145507812500e+01 2.273203277587890625e+01 9.072722494602203369e-02 6.255039215087890625e+00 1.903730034828186035e+00 -1.861331611871719360e-01
1.386000000000000000e+03 7.664996337890625000e+01 1.436729526519775391e+01 2.816025167703628540e-02 6.942671298980712891e+00 2.091249465942382812e+00 -3.651152551174163818e-01
1.387000000000000000e+03 7.801869964599609375e+01 1.279638385772705078e+01 3.294446738436818123e-03 7.379462718963623047e+00 2.214827060699462891e+00 -2.453807741403579712e-01
1.388000000000000000e+03 7.542577362060546875e+01 8.805103302001953125e+00 -5.563001707196235657e-02 7.164870262145996094e+00 2.132772207260131836e+00 -4.955579340457916260e-01
1.389000000000000000e+03 7.652792358398437500e+01 2.411563491821289062e+01 5.045087262988090515e-02 6.345557212829589844e+00 1.918802380561828613e+00 -1.104047372937202454e-01
1.390000000000000000e+03 7.792694091796875000e+01 2.669433021545410156e+01 1.256261114031076431e-02 6.432048797607421875e+00 1.933383464813232422e+00 -3.370322659611701965e-02
1.391000000000000000e+03 7.664421081542968750e+01 1.296720886230468750e+01 2.360664866864681244e-02 7.071421146392822266e+00 2.128508329391479492e+00 -3.874158263206481934e-01
1.392000000000000000e+03 7.816669464111328125e+01 -2.078702354431152344e+01 1.004584804177284241e-01 6.902010917663574219e+00 2.100740909576416016e+00 -4.368832707405090332e-01
1.393000000000000000e+03 7.707276916503906250e+01 -2.217469406127929688e+01 1.920493990182876587e-01 7.951331138610839844e+00 2.443014144897460938e+00 -7.497265338897705078e-01
1.394000000000000000e+03 7.756054687500000000e+01 3.071684265136718750e+01 1.042017806321382523e-02 6.379475116729736328e+00 1.916968584060668945e+00 1.028692536056041718e-02
1.395000000000000000e+03 7.650552368164062500e+01 2.692237472534179688e+01 3.837312385439872742e-02 6.305178642272949219e+00 1.903065562248229980e+00 -5.565385892987251282e-02
1.396000000000000000e+03 7.675036621093750000e+01 8.732162475585937500e+00 -4.010854661464691162e-02 7.506784439086914062e+00 2.240002870559692383e+00 -3.696318268775939941e-01
1.397000000000000000e+03 7.345169067382812500e+01 -2.059544754028320312e+01 4.939592480659484863e-01 1.056274414062500000e+01 3.317011117935180664e+00 -6.891073584556579590e-01
1.398000000000000000e+03 7.603720092773437500e+01 -9.271866798400878906e+00 2.987928874790668488e-02 7.996881484985351562e+00 2.408028125762939453e+00 6.971402168273925781e-01
1.399000000000000000e+03 7.687905883789062500e+01 -1.209918117523193359e+01 1.897196471691131592e-01 7.464554309844970703e+00 2.296282291412353516e+00 5.186290740966796875e-01
1.400000000000000000e+03 7.538039398193359375e+01 -2.378959655761718750e+00 -2.768219709396362305e-01 7.983740806579589844e+00 2.312075614929199219e+00 3.275667428970336914e-01
1.401000000000000000e+03 7.706090545654296875e+01 -8.137411117553710938e+00 -3.112002462148666382e-02 7.699012756347656250e+00 2.300367832183837891e+00 6.430807709693908691e-01
1.402000000000000000e+03 7.703324127197265625e+01 3.237763166427612305e+00 -1.209629848599433899e-01 8.029033660888671875e+00 2.372421264648437500e+00 -1.062670722603797913e-01
1.403000000000000000e+03 7.555355072021484375e+01 3.639107513427734375e+01 -2.084027044475078583e-02 6.220462322235107422e+00 1.859886527061462402e+00 4.163898900151252747e-02
1.404000000000000000e+03 7.834416198730468750e+01 3.603298568725585938e+01 -1.494508795440196991e-02 6.433702468872070312e+00 1.925627231597900391e+00 1.807748340070247650e-03
1.405000000000000000e+03 7.679735565185546875e+01 1.985358047485351562e+01 4.615727066993713379e-02 6.558563709259033203e+00 1.981416344642639160e+00 -2.231239229440689087e-01
1.406000000000000000e+03 7.809255981445312500e+01 7.207605838775634766e+00 -3.055885434150695801e-02 8.019374847412109375e+00 2.396644830703735352e+00 -1.994198262691497803e-01
1.407000000000000000e+03 7.689694213867187500e+01 5.938164234161376953e+00 -8.310728520154953003e-02 7.805521011352539062e+00 2.316724061965942383e+00 -2.668730318546295166e-01
1.408000000000000000e+03 7.806194305419921875e+01 -1.164162874221801758e+00 -7.589022070169448853e-02 8.276124954223632812e+00 2.460070371627807617e+00 2.068375945091247559e-01
1.409000000000000000e+03 7.672645568847656250e+01 -2.489341497421264648e+00 -1.675095409154891968e-01 8.067779541015625000e+00 2.370081186294555664e+00 3.557966649532318115e-01
1.410000000000000000e+03 7.708292388916015625e+01 -9.420312881469726562e+00 4.697611555457115173e-02 7.596300601959228516e+00 2.292983055114746094e+00 6.459164619445800781e-01
1.411000000000000000e+03 7.702722167968750000e+01 -1.636437797546386719e+01 2.727048397064208984e-01 7.398513793945312500e+00 2.301365613937377930e+00 -7.070335745811462402e-02
1.412000000000000000e+03 7.452629852294921875e+01 3.449006271362304688e+01 -1.449312083423137665e-03 6.098105907440185547e+00 1.828997015953063965e+00 3.830661624670028687e-02
1.413000000000000000e+03 7.255288696289062500e+01 3.531892395019531250e+01 -8.958344347774982452e-03 5.924352169036865234e+00 1.774618148803710938e+00 5.411420390009880066e-02
1.414000000000000000e+03 7.676495361328125000e+01 1.849018859863281250e+01 5.213013663887977600e-02 6.638892650604248047e+00 2.007306814193725586e+00 -2.615917026996612549e-01
1.415000000000000000e+03 7.805844879150390625e+01 8.603606224060058594e+00 -1.316920202225446701e-02 7.865168571472167969e+00 2.355599880218505859e+00 -2.309185862541198730e-01
1.416000000000000000e+03 7.668936157226562500e+01 1.014689159393310547e+01 -1.005672942847013474e-02 7.353489875793457031e+00 2.203029870986938477e+00 -3.920700252056121826e-01
1.417000000000000000e+03 7.693750762939453125e+01 -1.494057559967041016e+01 2.575043141841888428e-01 7.409567356109619141e+00 2.300121545791625977e+00 1.616270393133163452e-01
1.418000000000000000e+03 7.695792388916015625e+01 -6.838434696197509766e+00 -5.925072357058525085e-02 7.823046684265136719e+00 2.329138755798339844e+00 6.276881694793701172e-01
1.419000000000000000e+03 7.730875396728515625e+01 3.497381973266601562e+01 -1.188955642282962799e-02 6.377160072326660156e+00 1.909581065177917480e+00 2.926567569375038147e-03
1.420000000000000000e+03 7.819010925292968750e+01 3.073807239532470703e+00 -4.601568356156349182e-02 8.346990585327148438e+00 2.490292549133300781e+00 -4.879681020975112915e-02
1.421000000000000000e+03 7.697588348388671875e+01 4.574838161468505859e+00 -9.351525455713272095e-02 7.935019016265869141e+00 2.352451086044311523e+00 -1.962908804416656494e-01
1.422000000000000000e+03 7.678212738037109375e+01 -9.876140952110290527e-01 -1.548109054565429688e-01 8.097835540771484375e+00 2.382907390594482422e+00 2.327313572168350220e-01
1.423000000000000000e+03 7.811194610595703125e+01 -5.467277050018310547e+00 -3.725012019276618958e-02 7.811436176300048828e+00 2.332255840301513672e+00 4.347307980060577393e-01
1.424000000000000000e+03 7.686887359619140625e+01 -5.454939842224121094e+00 -1.137600615620613098e-01 7.943524837493896484e+00 2.348929405212402344e+00 5.719290375709533691e-01
1.425000000000000000e+03 7.678313446044921875e+01 -3.997103214263916016e+00 -1.428045928478240967e-01 8.024092674255371094e+00 2.364386320114135742e+00 4.742525219917297363e-01
1.426000000000000000e+03 7.814923858642578125e+01 -1.228976821899414062e+01 6.623824685811996460e-02 6.667022228240966797e+00 2.019978046417236328e+00 3.605132400989532471e-01
1.427000000000000000e+03 7.697916412353515625e+01 -1.073711967468261719e+01 9.647586941719055176e-02 7.531733036041259766e+00 2.288462638854980469e+00 6.058942079544067383e-01
1.428000000000000000e+03 7.691545867919921875e+01 -1.925040435791015625e+01 2.285741865634918213e-01 7.725605010986328125e+00 2.386253833770751953e+00 -4.743983149528503418e-01
1.429000000000000000e+03 7.702697753906250000e+01 -1.778668022155761719e+01 2.393412441015243530e-01 7.480141639709472656e+00 2.315844774246215820e+00 -2.428060621023178101e-01
1.430000000000000000e+03 7.592933654785156250e+01 -1.760190963745117188e+01 3.950774073600769043e-01 8.337821006774902344e+00 2.619869470596313477e+00 -3.357087969779968262e-01
1.431000000000000000e+03 1.641970443725585938e+01 4.303856372833251953e+00 2.183487653732299805e+00 2.637153625488281250e+00 1.446192383766174316e+00 -1.900582075119018555e+00
1.432000000000000000e+03 4.314608001708984375e+01 3.250523376464843750e+01 -7.416347265243530273e-01 3.347971200942993164e+00 7.819009423255920410e-01 4.041607677936553955e-01
1.433000000000000000e+03 4.181887817382812500e+01 3.164392852783203125e+01 -4.037691354751586914e-01 3.092163324356079102e+00 8.065182566642761230e-01 6.745732971467077732e-04
1.434000000000000000e+03 1.415671157836914062e+01 3.022190856933593750e+01 -6.408880352973937988e-01 1.900792479515075684e+00 3.779713213443756104e-01 -6.170876622200012207e-01
1.435000000000000000e+03 7.096435546875000000e+01 -1.727290725708007812e+01 7.620655894279479980e-01 1.310913181304931641e+01 4.161359310150146484e+00 -9.845862388610839844e-01
1.436000000000000000e+03 6.986321258544921875e+01 -1.747103881835937500e+01 4.527526199817657471e-01 1.468243026733398438e+01 4.540555000305175781e+00 -8.673318028450012207e-01
1.437000000000000000e+03 4.190999221801757812e+01 1.002098560333251953e+01 1.607339978218078613e+00 9.750889778137207031e+00 3.407468795776367188e+00 3.374437093734741211e+00
1.438000000000000000e+03 5.688468933105468750e+00 3.855555725097656250e+01 -3.740886747837066650e-01 2.232202768325805664e+00 5.574342012405395508e-01 -3.881899416446685791e-01
1.439000000000000000e+03 5.010980129241943359e+00 3.275592041015625000e+01 -2.144141942262649536e-01 1.980706334114074707e+00 5.298876762390136719e-01 -8.284968733787536621e-01
1.440000000000000000e+03 3.854406356811523438e+00 3.554937744140625000e+01 -2.078878730535507202e-01 2.330192327499389648e+00 6.366913318634033203e-01 -5.336530208587646484e-01
1.441000000000000000e+03 3.540663719177246094e+00 3.146742057800292969e+01 -1.007016897201538086e-01 1.828484654426574707e+00 5.183349251747131348e-01 -7.414991259574890137e-01
1.442000000000000000e+03 2.012183189392089844e+00 2.735706138610839844e+01 -1.286231167614459991e-02 9.256614446640014648e-01 2.738397419452667236e-01 -5.772215723991394043e-01
1.443000000000000000e+03 3.210776567459106445e+00 2.427334213256835938e+01 4.377766698598861694e-02 5.247604250907897949e-01 1.705614328384399414e-01 -8.419028520584106445e-01
1.444000000000000000e+03 2.246553897857666016e+00 3.441305541992187500e+01 -7.498123496770858765e-02 2.344695329666137695e+00 6.809141635894775391e-01 -3.993718624114990234e-01
1.445000000000000000e+03 4.042385578155517578e+00 3.690395736694335938e+01 -2.347960919141769409e-01 2.418609142303466797e+00 6.551439166069030762e-01 -4.335867166519165039e-01
1.446000000000000000e+03 3.677228689193725586e+00 3.421494674682617188e+01 -1.638303250074386597e-01 2.179174184799194336e+00 6.046031713485717773e-01 -6.075543761253356934e-01
1.447000000000000000e+03 4.954683780670166016e+00 3.135201835632324219e+01 -1.813231855630874634e-01 1.851467847824096680e+00 5.010433793067932129e-01 -9.312658905982971191e-01
1.448000000000000000e+03 3.599381685256958008e+00 3.285232162475585938e+01 -1.130932420492172241e-01 2.015738725662231445e+00 5.707936286926269531e-01 -6.810443401336669922e-01
1.449000000000000000e+03 4.764513015747070312e+00 4.052767562866210938e+01 -2.017666101455688477e-01 2.522823333740234375e+00 6.963170766830444336e-01 -2.154683917760848999e-01
1.450000000000000000e+03 3.677591800689697266e+00 -3.555889129638671875e+01 -1.479170769453048706e-01 2.576664686203002930e+00 7.286242842674255371e-01 -2.691757380962371826e-01
1.451000000000000000e+03 2.279634237289428711e+00 -2.847320747375488281e+01 -3.691613376140594482e-01 2.833747625350952148e+00 7.393758893013000488e-01 9.760322570800781250e-01
1.452000000000000000e+03 1.834186434745788574e+00 -3.446738052368164062e+01 -8.264506608247756958e-02 3.608279466629028320e+00 1.057690262794494629e+00 -1.243529915809631348e-01
1.453000000000000000e+03 4.905352115631103516e+00 -3.344951629638671875e+01 -4.215749502182006836e-01 1.860871434211730957e+00 4.317889511585235596e-01 -8.162748813629150391e-02
1.454000000000000000e+03 2.323880672454833984e+00 -3.013998603820800781e+01 -3.440749645233154297e-01 3.092291593551635742e+00 8.244650363922119141e-01 5.759173035621643066e-01
1.455000000000000000e+03 1.946383118629455566e+00 2.162092781066894531e+01 4.024407640099525452e-02 -4.585044682025909424e-01 -1.254781186580657959e-01 -4.953057467937469482e-01
1.456000000000000000e+03 3.077724456787109375e+00 -1.216262245178222656e+01 -1.286684572696685791e-01 3.025301694869995117e-01 5.215851217508316040e-02 -3.328298032283782959e-01
1.457000000000000000e+03 1.706595063209533691e+00 -9.381111145019531250e+00 -5.477165430784225464e-02 -2.232871651649475098e-01 -8.341764658689498901e-02 -1.703349053859710693e-01
1.458000000000000000e+03 3.120043039321899414e+00 1.712605857849121094e+01 1.539167612791061401e-01 -6.689324975013732910e-01 -1.545047163963317871e-01 -4.262845218181610107e-01
1.459000000000000000e+03 2.820354938507080078e+00 1.300248241424560547e+01 1.759021282196044922e-01 -1.113901495933532715e+00 -2.813998162746429443e-01 1.316534914076328278e-02
1.460000000000000000e+03 1.550763368606567383e+00 6.080895900726318359e+00 4.767719656229019165e-03 -9.100776314735412598e-01 -2.715929746627807617e-01 4.115994572639465332e-01
1.461000000000000000e+03 2.832565546035766602e+00 1.029195213317871094e+01 1.717813909053802490e-01 -1.085326671600341797e+00 -2.740635871887207031e-01 3.017729520797729492e-01
1.462000000000000000e+03 2.882675409317016602e+00 -2.409728813171386719e+01 3.590589761734008789e-01 2.015706300735473633e+00 7.124295830726623535e-01 1.616261363029479980e+00
1.463000000000000000e+03 1.899961113929748535e+00 -1.494423675537109375e+01 1.436413452029228210e-02 -5.358316302299499512e-01 -1.564402431249618530e-01 -3.742166757583618164e-01
1.464000000000000000e+03 4.309616565704345703e+00 3.718317031860351562e+00 -2.578920423984527588e-01 -2.886891067028045654e-01 -1.639743447303771973e-01 7.432673573493957520e-01
1.465000000000000000e+03 1.756890058517456055e+00 1.458949089050292969e+01 7.624632120132446289e-02 -1.589518666267395020e+00 -4.539816975593566895e-01 -9.102796763181686401e-02
1.466000000000000000e+03 2.996976137161254883e+00 1.574510860443115234e+01 1.793213933706283569e-01 -8.615614175796508789e-01 -2.046720087528228760e-01 -2.867697775363922119e-01
1.467000000000000000e+03 4.986015319824218750e+00 -4.547125816345214844e+00 -3.465261077508330345e-03 1.134650111198425293e-01 3.299992531538009644e-02 -1.397867407649755478e-02
1.468000000000000000e+03 2.491696834564208984e+00 -4.662771701812744141e+00 -8.940123021602630615e-03 -2.340107597410678864e-02 -9.702359326183795929e-03 -7.849186658859252930e-02
1.469000000000000000e+03 1.682041168212890625e+00 -6.496053218841552734e+00 -2.102981135249137878e-02 -1.217301562428474426e-01 -4.282798990607261658e-02 -8.726544678211212158e-02
1.470000000000000000e+03 3.078316688537597656e+00 -1.917179107666015625e+01 5.438060164451599121e-01 1.020530819892883301e+00 4.693010449409484863e-01 4.594738483428955078e-01
1.471000000000000000e+03 3.234316825866699219e+00 -1.632744598388671875e+01 2.554894387722015381e-01 7.171079516410827637e-01 2.917792201042175293e-01 -2.221083641052246094e-01
1.472000000000000000e+03 1.692046403884887695e+00 -2.437414360046386719e+01 1.048551052808761597e-01 1.094197034835815430e+00 3.597156405448913574e-01 1.278957247734069824e+00
1.473000000000000000e+03 2.893933534622192383e+00 -2.282246398925781250e+01 4.682171642780303955e-01 1.799431204795837402e+00 6.802945137023925781e-01 1.383264780044555664e+00
1.474000000000000000e+03 2.895702838897705078e+00 -2.523264884948730469e+01 -1.046025305986404419e-01 2.144464969635009766e+00 6.119586825370788574e-01 1.684163808822631836e+00
1.475000000000000000e+03 1.778321743011474609e+00 -2.568127059936523438e+01 6.660941056907176971e-03 1.838034629821777344e+00 5.534086823463439941e-01 1.310977578163146973e+00
1.476000000000000000e+03 2.966988563537597656e+00 -1.078222846984863281e+01 -1.386543810367584229e-01 1.766440272331237793e-01 1.139689143747091293e-02 -2.575905025005340576e-01
1.477000000000000000e+03 2.832337856292724609e+00 -9.429592132568359375e+00 -9.053857624530792236e-02 8.681423962116241455e-02 -1.117300475016236305e-03 -1.854839622974395752e-01
1.478000000000000000e+03 4.416007041931152344e+00 -3.647114562988281250e+01 -1.167445927858352661e-01 2.287193536758422852e+00 6.511347293853759766e-01 -1.949870437383651733e-01
1.479000000000000000e+03 1.931679964065551758e+00 2.019909286499023438e+01 4.841254279017448425e-02 -7.616435885429382324e-01 -2.139693200588226318e-01 -4.341658353805541992e-01
1.480000000000000000e+03 3.218362569808959961e+00 2.140495109558105469e+01 8.961042016744613647e-02 4.362840205430984497e-03 2.819197811186313629e-02 -7.258799672126770020e-01
1.481000000000000000e+03 1.955057859420776367e+00 -3.552097320556640625e+01 -5.944820493459701538e-02 3.489003181457519531e+00 1.028866529464721680e+00 -1.841077655553817749e-01
1.482000000000000000e+03 3.360616445541381836e+00 -3.339680862426757812e+01 -3.010664880275726318e-01 2.759648799896240234e+00 7.375746965408325195e-01 3.395423293113708496e-02
1.483000000000000000e+03 2.661503076553344727e+00 -2.161147689819335938e+01 4.233346581459045410e-01 1.156578898429870605e+00 4.739740788936614990e-01 1.070835709571838379e+00
1.484000000000000000e+03 5.480355262756347656e+00 -2.045585823059082031e+01 9.804352521896362305e-01 5.147032260894775391e+00 1.838240265846252441e+00 1.469503045082092285e+00
1.485000000000000000e+03 3.222281217575073242e+00 -1.494391345977783203e+01 1.137776747345924377e-01 5.773530006408691406e-01 2.073391973972320557e-01 -3.874186277389526367e-01
1.486000000000000000e+03 2.800508975982666016e+00 1.166103267669677734e+01 1.676644235849380493e-01 -1.133526206016540527e+00 -2.897585332393646240e-01 1.652116328477859497e-01
1.487000000000000000e+03 3.874257087707519531e+00 1.283564090728759766e+01 2.984943091869354248e-01 -6.605343222618103027e-01 -1.086120083928108215e-01 5.035508424043655396e-03
1.488000000000000000e+03 2.886420011520385742e+00 1.436376285552978516e+01 1.739868223667144775e-01 -1.021234989166259766e+00 -2.541744709014892578e-01 -1.312129050493240356e-01
1.489000000000000000e+03 3.218171119689941406e+00 2.283548355102539062e+01 7.506042718887329102e-02 2.419196963310241699e-01 9.509404003620147705e-02 -7.902598977088928223e-01
1.490000000000000000e+03 3.186123847961425781e+00 1.853017807006835938e+01 1.316281408071517944e-01 -4.674469828605651855e-01 -1.007456555962562561e-01 -5.473542213439941406e-01
1.491000000000000000e+03 4.399221897125244141e+00 1.683647918701171875e+01 2.955849468708038330e-01 -9.609118849039077759e-02 5.984812602400779724e-02 -5.420504808425903320e-01
1.492000000000000000e+03 1.524757099151611328e+01 1.079165649414062500e+01 1.516254782676696777e+00 5.133374691009521484e+00 1.994888901710510254e+00 -2.229064702987670898e+00
1.493000000000000000e+03 7.111735534667968750e+01 -2.523925781250000000e+01 8.418835401535034180e-01 1.117738628387451172e+01 3.605780839920043945e+00 -6.159698367118835449e-01
1.494000000000000000e+03 8.966788291931152344e+00 -1.421402549743652344e+01 2.907433509826660156e-01 2.321114778518676758e+00 7.835574150085449219e-01 1.497126460075378418e+00
1.495000000000000000e+03 4.033369445800781250e+01 -9.251327514648437500e+00 9.483905434608459473e-01 1.392712688446044922e+01 4.462655067443847656e+00 2.861437499523162842e-01
1.496000000000000000e+03 3.685022354125976562e+01 -1.452380084991455078e+01 -1.350772976875305176e-01 8.525425910949707031e+00 2.517104625701904297e+00 -6.863402128219604492e-01
1.497000000000000000e+03 3.905735015869140625e+01 -1.798847961425781250e+01 -2.475676089525222778e-01 1.005680847167968750e+01 2.942772388458251953e+00 8.093962073326110840e-01
1.498000000000000000e+03 3.523789596557617188e+01 -3.230593872070312500e+01 -8.427695035934448242e-01 5.725685596466064453e+00 1.464874863624572754e+00 7.388657331466674805e-01
1.499000000000000000e+03 4.249655532836914062e+01 1.585961222648620605e+00 -1.178418636322021484e+00 9.453672409057617188e+00 2.482576131820678711e+00 2.569736003875732422e+00
1.500000000000000000e+03 6.936100769042968750e+01 -1.330501747131347656e+01 1.346413731575012207e+00 1.361738109588623047e+01 4.489138603210449219e+00 -1.715790510177612305e+00
1.501000000000000000e+03 7.003892517089843750e+01 -1.036337661743164062e+01 3.294789493083953857e-01 1.061671352386474609e+01 3.283857583999633789e+00 -8.812803626060485840e-01
1.502000000000000000e+03 1.825735473632812500e+01 -3.494077682495117188e+01 -9.150112867355346680e-01 -3.017494082450866699e-01 -3.650282025337219238e-01 2.134773433208465576e-01
1.503000000000000000e+03 3.061879348754882812e+01 -3.613168334960937500e+01 -9.157838225364685059e-01 2.795885562896728516e+00 5.640305876731872559e-01 1.026647210121154785e+00
1.504000000000000000e+03 1.470317077636718750e+01 1.210072040557861328e+01 1.320512175559997559e+00 5.062811851501464844e+00 1.914997100830078125e+00 -1.965474009513854980e+00
1.505000000000000000e+03 4.408823966979980469e+00 -2.540111732482910156e+01 -9.472277015447616577e-02 2.808387517929077148e+00 8.140994310379028320e-01 1.867306113243103027e+00
1.506000000000000000e+03 5.173828125000000000e+01 1.455066919326782227e+00 -3.330011606216430664e+00 2.839094400405883789e-01 -9.138306975364685059e-01 6.215385794639587402e-01
1.507000000000000000e+03 5.130733489990234375e+01 5.965651035308837891e+00 4.513160884380340576e-01 8.112893700599670410e-01 3.787816464900970459e-01 5.354182124137878418e-01
1.508000000000000000e+03 2.792954826354980469e+01 -1.636291313171386719e+01 -2.148716926574707031e+00 -9.272866696119308472e-02 -6.724336743354797363e-01 1.441314965486526489e-01
1.509000000000000000e+03 2.694152069091796875e+01 -1.624819755554199219e+01 -2.384564638137817383e+00 1.515403389930725098e-01 -6.699073314666748047e-01 2.633643150329589844e-01
1.510000000000000000e+03 4.385230636596679688e+01 7.890257835388183594e+00 1.807353615760803223e+00 6.441324234008789062e+00 2.474603414535522461e+00 3.153098106384277344e+00
1.511000000000000000e+03 9.772560119628906250e+00 -3.265628433227539062e+01 -1.108693242073059082e+00 -6.156479716300964355e-01 -5.173023939132690430e-01 4.959684610366821289e-01
1.512000000000000000e+03 1.625724220275878906e+01 2.604245424270629883e+00 6.646659970283508301e-01 1.111988782882690430e+00 5.329964160919189453e-01 -6.668447256088256836e-01
1.513000000000000000e+03 1.379778003692626953e+01 2.868832969665527344e+01 -4.244952201843261719e-01 2.297807216644287109e+00 5.619936585426330566e-01 -6.789431571960449219e-01
1.514000000000000000e+03 3.676507568359375000e+01 1.848992258310317993e-01 1.109464466571807861e-01 5.336568832397460938e+00 1.634254574775695801e+00 1.727895140647888184e+00
1.515000000000000000e+03 5.426549148559570312e+01 6.915699839591979980e-01 -3.102323055267333984e+00 1.163467913866043091e-01 -8.957928419113159180e-01 5.758004188537597656e-01
1.516000000000000000e+03 2.001872444152832031e+01 3.116647243499755859e+00 3.845746517181396484e+00 7.614671707153320312e+00 3.438125610351562500e+00 -5.341782093048095703e+00
1.517000000000000000e+03 1.897050476074218750e+01 3.632092475891113281e+00 3.456694126129150391e+00 5.727697849273681641e+00 2.755317687988281250e+00 -4.056797981262207031e+00
1.518000000000000000e+03 1.633083534240722656e+01 8.236186981201171875e+00 2.096684455871582031e+00 5.141356945037841797e+00 2.171412467956542969e+00 -2.809338092803955078e+00
1.519000000000000000e+03 1.687754440307617188e+01 7.002152919769287109e+00 2.600090503692626953e+00 5.100545406341552734e+00 2.310190677642822266e+00 -3.167508363723754883e+00
1.520000000000000000e+03 1.183403682708740234e+01 -3.426385879516601562e+01 -8.170732855796813965e-01 -5.226888060569763184e-01 -4.019286334514617920e-01 5.229474902153015137e-01
1.521000000000000000e+03 4.380987930297851562e+01 1.570209121704101562e+01 9.869424700736999512e-01 6.954037666320800781e+00 2.382294178009033203e+00 1.862871885299682617e+00
1.522000000000000000e+03 4.636941146850585938e+01 1.677906417846679688e+01 1.280095100402832031e+00 5.328434944152832031e+00 1.982558965682983398e+00 1.914254069328308105e+00
1.523000000000000000e+03 3.806439590454101562e+01 -1.306441879272460938e+01 5.586399435997009277e-01 9.722522735595703125e+00 3.084348678588867188e+00 -7.919830083847045898e-01
1.524000000000000000e+03 3.289923477172851562e+01 4.125288391113281250e+01 -1.781389832496643066e+00 -4.065600037574768066e-01 -6.563849449157714844e-01 1.136465966701507568e-01
1.525000000000000000e+03 2.953540229797363281e+01 4.023802947998046875e+01 -2.070186138153076172e+00 -5.197470188140869141e-01 -7.769799232482910156e-01 3.786439076066017151e-02
1.526000000000000000e+03 1.368814659118652344e+01 1.486954689025878906e+01 9.877535104751586914e-01 4.887592315673828125e+00 1.762603640556335449e+00 -1.452552318572998047e+00
1.527000000000000000e+03 1.421445178985595703e+01 1.809152412414550781e+01 6.876308917999267578e-01 5.637246131896972656e+00 1.897463083267211914e+00 -1.175236105918884277e+00
1.528000000000000000e+03 3.921487808227539062e+01 7.465284466743469238e-01 -4.148034155368804932e-01 9.012162208557128906e+00 2.579207658767700195e+00 1.701739072799682617e+00
1.529000000000000000e+03 4.323706817626953125e+01 9.946587562561035156e+00 1.883187890052795410e+00 7.758015155792236328e+00 2.892360925674438477e+00 3.269113540649414062e+00
1.530000000000000000e+03 7.136946868896484375e+01 -1.033464241027832031e+01 3.112812340259552002e-01 1.012813758850097656e+01 3.131825685501098633e+00 -2.146521806716918945e-01
1.531000000000000000e+03 2.220337677001953125e+01 4.144053649902343750e+01 -1.611478328704833984e+00 -3.704860806465148926e-01 -5.945893526077270508e-01 -7.216703146696090698e-02
1.532000000000000000e+03 6.534547424316406250e+01 -3.314308929443359375e+01 -1.086632847785949707e+00 2.511805057525634766e+00 4.275516867637634277e-01 9.198530912399291992e-01
1.533000000000000000e+03 6.762191772460937500e+01 -3.478902053833007812e+01 -9.477055668830871582e-01 4.820703983306884766e+00 1.161899566650390625e+00 6.858547329902648926e-01
1.534000000000000000e+03 3.263624191284179688e+01 -1.982747793197631836e+00 1.409823060035705566e+00 1.046135202050209045e-01 4.543309807777404785e-01 -1.053344085812568665e-01
1.535000000000000000e+03 5.044000625610351562e+00 -2.138794898986816406e+01 1.053766131401062012e+00 4.389145374298095703e+00 1.632873535156250000e+00 1.398943305015563965e+00
1.536000000000000000e+03 5.724131107330322266e+00 -1.922846794128417969e+01 1.461038947105407715e+00 4.794943332672119141e+00 1.876794576644897461e+00 1.720589876174926758e+00
1.537000000000000000e+03 4.584972858428955078e+00 -1.772935867309570312e+01 7.793452739715576172e-01 2.300757408142089844e+00 9.240308403968811035e-01 3.322953581809997559e-01
1.538000000000000000e+03 3.145202636718750000e+01 -3.473094463348388672e+00 2.980784654617309570e+00 1.976002454757690430e-01 9.535154700279235840e-01 -8.012735843658447266e-01
1.539000000000000000e+03 4.301989746093750000e+01 4.036670684814453125e+00 -5.453624725341796875e-01 7.403626441955566406e+00 2.057479143142700195e+00 2.962443828582763672e+00
1.540000000000000000e+03 4.187115859985351562e+01 6.253516674041748047e+00 1.442085504531860352e+00 8.982828140258789062e+00 3.127474069595336914e+00 3.314449787139892578e+00
1.541000000000000000e+03 1.460506629943847656e+01 3.175120925903320312e+01 -7.890424728393554688e-01 1.562036037445068359e+00 2.318980693817138672e-01 -5.849990844726562500e-01
1.542000000000000000e+03 1.301127338409423828e+01 1.790741157531738281e+01 8.163046240806579590e-01 4.544396400451660156e+00 1.608210206031799316e+00 -1.177149295806884766e+00
1.543000000000000000e+03 1.610900497436523438e+01 -1.321257305145263672e+01 5.810255929827690125e-02 -9.940749406814575195e-02 -1.239148061722517014e-02 1.171573042869567871e+00
1.544000000000000000e+03 1.553117847442626953e+01 -1.406144809722900391e+01 -1.551429331302642822e-01 -2.790764868259429932e-01 -1.302658170461654663e-01 1.118329524993896484e+00
1.545000000000000000e+03 3.579226970672607422e+00 -2.109507560729980469e+01 7.689034342765808105e-01 2.149631023406982422e+00 8.755602836608886719e-01 1.205479741096496582e+00
1.546000000000000000e+03 7.065882873535156250e+01 -1.454032135009765625e+01 1.376264572143554688e+00 1.264391326904296875e+01 4.206053256988525391e+00 -9.646120667457580566e-01
1.547000000000000000e+03 3.714328384399414062e+01 4.123436737060546875e+01 -1.539407372474670410e+00 6.207551360130310059e-01 -2.755956649780273438e-01 3.064840333536267281e-03
1.548000000000000000e+03 2.848770523071289062e+01 -3.977648258209228516e+00 3.869391679763793945e+00 7.625492811203002930e-01 1.389582276344299316e+00 -1.933412432670593262e+00
1.549000000000000000e+03 2.996371459960937500e+01 -3.857847452163696289e+00 3.675618410110473633e+00 2.166526466608047485e-01 1.167681336402893066e+00 -1.480477809906005859e+00
1.550000000000000000e+03 4.108531570434570312e+01 1.774912476539611816e+00 -1.055952906608581543e+00 9.861213684082031250e+00 2.641578197479248047e+00 1.745780706405639648e+00
1.551000000000000000e+03 6.414806365966796875e+01 -1.329764485359191895e+00 -1.184440970420837402e+00 3.865911006927490234e+00 8.044410347938537598e-01 -1.436506271362304688e+00
1.552000000000000000e+03 4.313004302978515625e+01 -2.387006950378417969e+01 5.528218746185302734e-01 4.386288642883300781e+00 1.481733083724975586e+00 -1.220839023590087891e+00
1.553000000000000000e+03 4.416107177734375000e+01 2.895450019836425781e+01 1.160515025258064270e-01 4.150099754333496094e+00 1.279845356941223145e+00 4.306021630764007568e-01
1.554000000000000000e+03 5.756925201416015625e+01 -4.113356399536132812e+01 4.389445185661315918e-01 1.340369284152984619e-01 1.718944311141967773e-01 -1.054299697279930115e-01
1.555000000000000000e+03 1.323529338836669922e+01 2.563318634033203125e+01 4.669487103819847107e-02 3.120663881301879883e+00 9.502076506614685059e-01 -7.487003803253173828e-01
1.556000000000000000e+03 4.060963439941406250e+01 -1.949573326110839844e+01 -2.093525975942611694e-02 9.120909690856933594e+00 2.729992151260375977e+00 3.280754983425140381e-01
1.557000000000000000e+03 5.289891433715820312e+01 3.892857551574707031e+00 -1.080628991127014160e+00 4.572208523750305176e-01 -1.870224475860595703e-01 4.606311395764350891e-02
1.558000000000000000e+03 3.206205749511718750e+01 -3.194088363647460938e+01 -2.313106805086135864e-01 3.887101888656616211e+00 1.096737384796142578e+00 1.849382638931274414e+00
1.559000000000000000e+03 3.413218688964843750e+01 -3.301422882080078125e+01 -1.200444817543029785e+00 5.204967498779296875e+00 1.201356887817382812e+00 8.514008522033691406e-01
1.560000000000000000e+03 6.832710266113281250e+01 -3.190941810607910156e+01 -1.250837683677673340e+00 6.381884098052978516e+00 1.539313912391662598e+00 5.908474922180175781e-01
1.561000000000000000e+03 6.757314300537109375e+01 -3.038478851318359375e+01 -8.726318478584289551e-01 5.646090984344482422e+00 1.432037711143493652e+00 9.611545801162719727e-01
1.562000000000000000e+03 4.898386955261230469e+00 -2.653434181213378906e+01 -6.439813971519470215e-01 2.859847307205200195e+00 6.647598147392272949e-01 1.537222981452941895e+00
1.563000000000000000e+03 3.640794754028320312e+01 -2.845355796813964844e+01 3.728317916393280029e-01 8.324366569519042969e+00 2.609159708023071289e+00 6.186841130256652832e-01
1.564000000000000000e+03 5.739107131958007812e+01 1.258791923522949219e+00 -2.060091257095336914e+00 2.410324066877365112e-01 -5.457176566123962402e-01 -1.674745678901672363e-01
1.565000000000000000e+03 5.606283187866210938e+01 1.597719430923461914e+00 -2.138426780700683594e+00 2.220339775085449219e-01 -5.749177932739257812e-01 5.441756173968315125e-02
1.566000000000000000e+03 4.004397583007812500e+01 -2.282640218734741211e+00 1.000690937042236328e+00 9.938557624816894531e+00 3.281774520874023438e+00 1.925948262214660645e+00
1.567000000000000000e+03 3.427505493164062500e+01 -2.426079273223876953e+00 1.686884164810180664e+00 1.881187438964843750e+00 1.070421457290649414e+00 5.957450866699218750e-01
1.568000000000000000e+03 6.450164794921875000e+01 -3.450815963745117188e+01 -9.231110215187072754e-01 1.948701500892639160e+00 3.076771497726440430e-01 8.454634547233581543e-01
1.569000000000000000e+03 7.596961975097656250e+01 -2.229233932495117188e+01 2.455236762762069702e-01 8.680753707885742188e+00 2.677883148193359375e+00 -8.803779482841491699e-01
1.570000000000000000e+03 5.593347930908203125e+01 -3.405302810668945312e+01 -1.127991557121276855e+00 1.270815283060073853e-01 -3.002730011940002441e-01 -4.357048273086547852e-01
1.571000000000000000e+03 3.269568252563476562e+01 -1.526902580261230469e+01 -5.679900050163269043e-01 2.149951934814453125e+00 4.745885729789733887e-01 -1.246069550514221191e+00
1.572000000000000000e+03 3.582582855224609375e+01 -1.802659225463867188e+01 -2.084289312362670898e+00 1.005229568481445312e+01 2.390401840209960938e+00 -1.151903420686721802e-01
1.573000000000000000e+03 4.691706085205078125e+01 3.079010248184204102e+00 -9.548857212066650391e-01 5.423940420150756836e-01 -1.237474903464317322e-01 2.207648754119873047e+00
1.574000000000000000e+03 4.064796447753906250e+01 4.745382070541381836e-01 -4.179528057575225830e-01 9.959376335144042969e+00 2.862427234649658203e+00 1.595920443534851074e+00
1.575000000000000000e+03 7.190770721435546875e+01 -2.652234649658203125e+01 5.884687900543212891e-01 1.033425998687744141e+01 3.276818752288818359e+00 -9.196984171867370605e-01
1.576000000000000000e+03 3.060720062255859375e+01 -1.566164875030517578e+01 -1.250907421112060547e+00 -1.847329884767532349e-01 -4.306921362876892090e-01 -1.415579319000244141e-01
1.577000000000000000e+03 6.286214828491210938e+01 -6.316186785697937012e-01 -1.335315108299255371e+00 2.613936424255371094e+00 3.835863769054412842e-01 -1.338051676750183105e+00
1.578000000000000000e+03 7.168302917480468750e+01 -2.871814537048339844e+01 -4.040434062480926514e-01 9.594154357910156250e+00 2.757033348083496094e+00 -9.591794610023498535e-01
1.579000000000000000e+03 3.648086166381835938e+01 -1.905105209350585938e+01 -1.191577792167663574e+00 9.806997299194335938e+00 2.584625959396362305e+00 1.563588380813598633e+00
1.580000000000000000e+03 6.477021026611328125e+01 -7.662731409072875977e-02 -1.225007057189941406e+00 4.345564842224121094e+00 9.361672997474670410e-01 -1.427670598030090332e+00
1.581000000000000000e+03 6.150608062744140625e+01 -4.397270828485488892e-02 -1.517389059066772461e+00 1.629800915718078613e+00 3.372355177998542786e-02 -1.071719288825988770e+00
1.582000000000000000e+03 6.224331855773925781e+00 -1.627935981750488281e+01 9.038755893707275391e-01 3.207100152969360352e+00 1.233292698860168457e+00 5.876728892326354980e-01
1.583000000000000000e+03 2.953715896606445312e+01 -1.499865341186523438e+01 -1.043451786041259766e+00 -9.070957452058792114e-02 -3.402484357357025146e-01 -3.414732217788696289e-02
1.584000000000000000e+03 2.918245315551757812e+01 -1.604326248168945312e+01 -1.994017720222473145e+00 -9.368091076612472534e-02 -6.263096332550048828e-01 1.775327920913696289e-01
1.585000000000000000e+03 3.935370635986328125e+01 -1.908941078186035156e+01 -2.337836772203445435e-01 1.000308418273925781e+01 2.930790185928344727e+00 6.893000006675720215e-01
1.586000000000000000e+03 3.770658111572265625e+01 -2.821732139587402344e+01 5.326226949691772461e-01 7.884218215942382812e+00 2.525052309036254883e+00 -1.659883260726928711e-01
1.587000000000000000e+03 3.735408020019531250e+01 -2.700317382812500000e+01 9.163342714309692383e-01 8.495910644531250000e+00 2.823673486709594727e+00 -6.007263064384460449e-02
1.588000000000000000e+03 4.162616729736328125e+01 4.471652507781982422e+00 1.762338913977146149e-02 9.320234298706054688e+00 2.801357507705688477e+00 2.710602045059204102e+00
1.589000000000000000e+03 6.777404785156250000e+01 -3.134982347488403320e+00 -6.298905014991760254e-01 6.689654827117919922e+00 1.817929267883300781e+00 -8.035075068473815918e-01
1.590000000000000000e+03 1.264896774291992188e+01 -1.406418895721435547e+01 4.059609472751617432e-01 1.310394108295440674e-01 1.611001044511795044e-01 1.543436527252197266e+00
1.591000000000000000e+03 1.834838294982910156e+01 3.579369354248046875e+01 -1.350270032882690430e+00 1.885910183191299438e-01 -3.485037088394165039e-01 -3.691867291927337646e-01
1.592000000000000000e+03 1.551600265502929688e+01 3.519983673095703125e+01 -1.110073685646057129e+00 1.114241123199462891e+00 1.250204280950129032e-03 -4.475000500679016113e-01
1.593000000000000000e+03 1.283424949645996094e+01 2.104291152954101562e+01 4.155375659465789795e-01 4.175119876861572266e+00 1.377197146415710449e+00 -9.819295406341552734e-01
1.594000000000000000e+03 6.091819763183593750e+00 -1.778444290161132812e+01 1.643093824386596680e+00 3.926787137985229492e+00 1.670964360237121582e+00 1.182037591934204102e+00
1.595000000000000000e+03 6.042067527770996094e+00 -1.483422851562500000e+01 1.965054571628570557e-01 2.448900461196899414e+00 7.936217784881591797e-01 3.061201274394989014e-01
1.596000000000000000e+03 6.429503440856933594e+00 -3.072494888305664062e+01 -1.310544610023498535e+00 1.108119368553161621e+00 -6.072757020592689514e-02 3.061033785343170166e-01
1.597000000000000000e+03 8.303596496582031250e+00 -3.228198623657226562e+01 -1.160352349281311035e+00 -8.673720061779022217e-02 -3.741268515586853027e-01 2.128980457782745361e-01
1.598000000000000000e+03 6.535984802246093750e+01 -2.082082986831665039e+00 -9.819338917732238770e-01 5.067677497863769531e+00 1.225723147392272949e+00 -1.256748914718627930e+00
1.599000000000000000e+03 3.729125976562500000e+01 -2.005210304260253906e+01 5.037031173706054688e-01 9.897132873535156250e+00 3.120250701904296875e+00 1.282678484916687012e+00
1.600000000000000000e+03 4.824068069458007812e+01 3.785677194595336914e+00 -7.162992954254150391e-01 1.730055063962936401e-01 -1.629881411790847778e-01 1.126373291015625000e+00
1.601000000000000000e+03 2.122435188293457031e+01 -3.154166936874389648e+00 2.214198112487792969e+00 4.141450881958007812e+00 1.906694650650024414e+00 1.418092250823974609e+00
1.602000000000000000e+03 2.138085556030273438e+01 -2.693317890167236328e+00 2.305340290069580078e+00 5.221451759338378906e+00 2.258037567138671875e+00 1.610726118087768555e+00
1.603000000000000000e+03 1.865438842773437500e+01 -3.198362112045288086e+00 2.130823850631713867e+00 3.376358449459075928e-01 7.405378818511962891e-01 6.933068633079528809e-01
1.604000000000000000e+03 2.064415931701660156e+01 -2.442341566085815430e+00 2.943625688552856445e+00 2.202876806259155273e+00 1.543950676918029785e+00 1.707114219665527344e+00
1.605000000000000000e+03 2.205315208435058594e+01 -2.741806507110595703e+00 1.800203204154968262e+00 7.343963623046875000e+00 2.743250131607055664e+00 8.927877992391586304e-02
1.606000000000000000e+03 2.285078048706054688e+01 6.941530704498291016e-01 6.120279431343078613e-01 9.798173904418945312e+00 3.123060703277587891e+00 -1.473989248275756836e+00
1.607000000000000000e+03 2.343021392822265625e+01 -2.510333061218261719e+00 4.127377510070800781e+00 5.828546047210693359e+00 2.986777067184448242e+00 -3.866008281707763672e+00
1.608000000000000000e+03 2.171310043334960938e+01 -2.868493080139160156e+00 1.996685743331909180e+00 6.112226486206054688e+00 2.432673692703247070e+00 8.645229339599609375e-01
1.609000000000000000e+03 1.976446914672851562e+01 -3.381250143051147461e+00 2.468958377838134766e+00 1.228968858718872070e+00 1.109378099441528320e+00 1.217685699462890625e+00
1.610000000000000000e+03 2.119064903259277344e+01 1.584409356117248535e+00 1.307329058647155762e+00 9.310273170471191406e+00 3.185280561447143555e+00 -6.430878639221191406e+00
1.611000000000000000e+03 1.538628005981445312e+01 -4.246386051177978516e+00 1.236946940422058105e+00 -1.274336874485015869e-02 3.672610521316528320e-01 6.100152730941772461e-01
1.612000000000000000e+03 1.670581626892089844e+01 -4.276151657104492188e+00 1.571395754814147949e+00 7.076632976531982422e-02 4.926486313343048096e-01 6.997898817062377930e-01
1.613000000000000000e+03 2.447719573974609375e+01 -1.666819930076599121e+00 6.650268077850341797e+00 1.610274195671081543e+00 2.478162527084350586e+00 -3.511836290359497070e+00
1.614000000000000000e+03 2.393748855590820312e+01 -1.878512501716613770e+00 6.407253742218017578e+00 3.796676397323608398e+00 3.061178922653198242e+00 -4.763361930847167969e+00
1.615000000000000000e+03 9.140035629272460938e+00 -4.036215305328369141e+00 2.082180231809616089e-01 1.429791748523712158e-01 1.053591594099998474e-01 2.780656814575195312e-01
1.616000000000000000e+03 9.817427635192871094e+00 -4.036342144012451172e+00 2.809410989284515381e-01 1.210384219884872437e-01 1.205938607454299927e-01 3.225434422492980957e-01
1.617000000000000000e+03 6.888795852661132812e+00 -3.421602010726928711e+00 3.718936070799827576e-02 1.087068617343902588e-01 4.376886785030364990e-02 7.420768588781356812e-02
1.618000000000000000e+03 8.456835746765136719e+00 -4.065341949462890625e+00 1.483847051858901978e-01 1.552218645811080933e-01 9.108196943998336792e-02 2.227898687124252319e-01
1.619000000000000000e+03 1.381308555603027344e+01 3.578239679336547852e+00 4.313149452209472656e-01 4.889581501483917236e-01 2.760819196701049805e-01 -4.652130976319313049e-02
1.620000000000000000e+03 1.466713142395019531e+01 -3.635797977447509766e+00 1.017583250999450684e+00 -3.567618504166603088e-02 2.945721149444580078e-01 4.552164673805236816e-01
1.621000000000000000e+03 1.606675529479980469e+01 -4.825911045074462891e+00 1.418992161750793457e+00 5.256004258990287781e-02 4.414656758308410645e-01 7.842525839805603027e-01
1.622000000000000000e+03 1.446205997467041016e+01 3.790318489074707031e+00 9.077684879302978516e-01 9.162955284118652344e-01 5.472192168235778809e-01 -4.357853233814239502e-01
1.623000000000000000e+03 1.731698989868164062e+01 3.755839586257934570e+00 2.324194431304931641e+00 2.999796628952026367e+00 1.597197294235229492e+00 -2.271211385726928711e+00
1.624000000000000000e+03 1.869415473937988281e+01 2.057428359985351562e+00 1.615418791770935059e+00 2.753113031387329102e+00 1.310559511184692383e+00 -2.621568679809570312e+00
1.625000000000000000e+03 1.116974067687988281e+01 -4.096806049346923828e+00 4.540717005729675293e-01 7.424678653478622437e-02 1.584955453872680664e-01 4.156527221202850342e-01
1.626000000000000000e+03 1.499711227416992188e+01 2.467226266860961914e+00 -1.656148731708526611e-01 4.708758592605590820e-01 9.157829731702804565e-02 -2.953229472041130066e-02
1.627000000000000000e+03 1.650218582153320312e+01 5.520925521850585938e+00 2.584558486938476562e+00 3.415790796279907227e+00 1.800104737281799316e+00 -2.426717281341552734e+00
1.628000000000000000e+03 1.669607734680175781e+01 3.532590150833129883e+00 1.949173092842102051e+00 2.317778110504150391e+00 1.280085325241088867e+00 -1.735846161842346191e+00
1.629000000000000000e+03 1.322237396240234375e+01 -3.564605951309204102e+00 7.329472899436950684e-01 -1.543067488819360733e-02 2.152549773454666138e-01 4.142753183841705322e-01
1.630000000000000000e+03 1.179862785339355469e+01 -3.470319032669067383e+00 4.980111718177795410e-01 2.236196212470531464e-02 1.561119407415390015e-01 3.561832308769226074e-01
1.631000000000000000e+03 7.771923542022705078e+00 -4.123059749603271484e+00 1.003371998667716980e-01 1.652227491140365601e-01 7.966798543930053711e-02 1.762939244508743286e-01
1.632000000000000000e+03 5.690479755401611328e+00 -4.421058177947998047e+00 4.439851269125938416e-03 1.468454003334045410e-01 4.538557678461074829e-02 2.910182811319828033e-02
1.633000000000000000e+03 3.997726202011108398e+00 -3.897481441497802734e+00 -1.599245890974998474e-02 5.494223535060882568e-02 1.168493274599313736e-02 -5.389560759067535400e-02
1.634000000000000000e+03 3.733021020889282227e+00 -4.991802215576171875e+00 -1.408055704087018967e-02 7.280156761407852173e-02 1.761630363762378693e-02 -6.309884786605834961e-02
1.635000000000000000e+03 7.600119113922119141e+00 -3.367049694061279297e+00 6.771711260080337524e-02 1.104478687047958374e-01 5.344949290156364441e-02 1.142125651240348816e-01
1.636000000000000000e+03 3.733229398727416992e+00 -8.200634956359863281e+00 -8.869491517543792725e-02 2.201406359672546387e-01 3.943371772766113281e-02 -9.558882564306259155e-02
1.637000000000000000e+03 3.783396244049072266e+00 -7.100287914276123047e+00 -6.163065508008003235e-02 1.657698750495910645e-01 3.124176710844039917e-02 -7.427427917718887329e-02
1.638000000000000000e+03 2.788992404937744141e+00 -6.732348442077636719e+00 -2.391976490616798401e-02 1.493256725370883942e-02 -2.696159062907099724e-03 -9.618082642555236816e-02
1.639000000000000000e+03 7.602686405181884766e+00 4.283932209014892578e+00 -1.792243123054504395e-01 -1.664037406444549561e-01 -1.036884114146232605e-01 9.180702567100524902e-01
1.640000000000000000e+03 4.064905166625976562e+00 8.963074684143066406e+00 2.814607620239257812e-01 -6.584168672561645508e-01 -1.130868196487426758e-01 5.005313754081726074e-01
1.641000000000000000e+03 8.302827835083007812e+00 3.410284757614135742e+00 -5.432940721511840820e-01 -1.681985855102539062e-01 -2.134477943181991577e-01 9.249927997589111328e-01
1.642000000000000000e+03 6.064848423004150391e+00 5.456730842590332031e+00 8.223687857389450073e-02 -2.691715359687805176e-01 -5.608039349317550659e-02 8.561826348304748535e-01
1.643000000000000000e+03 8.395977973937988281e+00 4.181764125823974609e+00 -1.709672808647155762e-01 -1.432388424873352051e-01 -9.426183253526687622e-02 8.960407376289367676e-01
1.644000000000000000e+03 3.923184394836425781e+00 6.912209987640380859e+00 1.534408479928970337e-01 -6.027188301086425781e-01 -1.347834020853042603e-01 6.838531494140625000e-01
1.645000000000000000e+03 2.691750049591064453e+00 4.760798931121826172e+00 -7.055635750293731689e-02 -5.471938848495483398e-01 -1.853250712156295776e-01 5.818871855735778809e-01
1.646000000000000000e+03 3.526684045791625977e+00 3.799358606338500977e+00 -1.908877938985824585e-01 -3.479937314987182617e-01 -1.616644561290740967e-01 6.516913771629333496e-01
1.647000000000000000e+03 2.600140094757080078e+00 5.924477577209472656e+00 1.323887240141630173e-02 -7.164572477340698242e-01 -2.109655141830444336e-01 5.913054347038269043e-01
1.648000000000000000e+03 1.326967620849609375e+01 -4.200228691101074219e+00 7.970668673515319824e-01 5.684088449925184250e-03 2.408252954483032227e-01 5.332082509994506836e-01
1.649000000000000000e+03 2.128645181655883789e+00 4.206196308135986328e+00 -7.268531620502471924e-02 -5.131357908248901367e-01 -1.757463365793228149e-01 4.847361147403717041e-01
1.650000000000000000e+03 1.307791900634765625e+01 3.675050973892211914e+00 2.933194935321807861e-01 3.689493536949157715e-01 1.986806541681289673e-01 1.802698671817779541e-01
1.651000000000000000e+03 1.185945892333984375e+01 -4.136868476867675781e+00 5.555297732353210449e-01 5.200408399105072021e-02 1.822601556777954102e-01 4.622602760791778564e-01
1.652000000000000000e+03 1.256039237976074219e+01 -4.171895503997802734e+00 6.722297668457031250e-01 2.405715361237525940e-02 2.088860720396041870e-01 4.962277412414550781e-01
1.653000000000000000e+03 1.398121643066406250e+01 -4.221533775329589844e+00 9.352196455001831055e-01 -1.444964762777090073e-02 2.762309908866882324e-01 5.572643876075744629e-01
1.654000000000000000e+03 1.606445884704589844e+01 -4.257002830505371094e+00 1.401058673858642578e+00 2.154070325195789337e-02 4.267798364162445068e-01 6.517562270164489746e-01
1.655000000000000000e+03 1.231315422058105469e+01 3.767674684524536133e+00 1.832543462514877319e-01 2.213983088731765747e-01 1.213957965373992920e-01 3.410188555717468262e-01
1.656000000000000000e+03 1.152936267852783203e+01 3.851345062255859375e+00 5.173213779926300049e-02 9.231373667716979980e-02 4.321376234292984009e-02 5.104796886444091797e-01
1.657000000000000000e+03 7.740592956542968750e+00 5.095368385314941406e+00 1.191078722476959229e-01 -1.400322914123535156e-01 -6.277327425777912140e-03 8.529042601585388184e-01
1.658000000000000000e+03 2.581136703491210938e+01 -2.122417449951171875e+00 7.152167797088623047e+00 2.180784940719604492e+00 2.799885749816894531e+00 -2.601729154586791992e+00
1.659000000000000000e+03 2.518194961547851562e+01 -3.109529972076416016e+00 5.085596561431884766e+00 2.886994838714599609e+00 2.391777276992797852e+00 -2.520743370056152344e+00
1.660000000000000000e+03 1.914615440368652344e+01 -1.460208034515380859e+01 -8.040592074394226074e-01 1.931762844324111938e-01 -1.832648813724517822e-01 7.888805866241455078e-01
1.661000000000000000e+03 2.227248573303222656e+01 -1.626649856567382812e+01 -1.714280605316162109e+00 3.521124422550201416e-01 -4.086504280567169189e-01 4.859072268009185791e-01
1.662000000000000000e+03 2.241816329956054688e+01 -1.517362117767333984e+01 -1.295000076293945312e+00 4.153441190719604492e-01 -2.638967931270599365e-01 5.440357923507690430e-01
1.663000000000000000e+03 3.955166625976562500e+01 -6.402205467224121094e+00 1.659661412239074707e+00 1.127415657043457031e+01 3.880145311355590820e+00 1.270582318305969238e+00
1.664000000000000000e+03 3.939395141601562500e+01 -7.763679027557373047e+00 1.778313636779785156e+00 1.139684009552001953e+01 3.952545881271362305e+00 6.314390301704406738e-01
1.665000000000000000e+03 2.022057723999023438e+01 -1.487709617614746094e+01 -1.044289946556091309e+00 2.986798286437988281e-01 -2.236830145120620728e-01 6.969615221023559570e-01
1.666000000000000000e+03 2.077186775207519531e+01 1.597469806671142578e+00 1.516862154006958008e+00 7.711771011352539062e+00 2.768589973449707031e+00 -6.099674224853515625e+00
1.667000000000000000e+03 2.059242630004882812e+01 2.289201259613037109e+00 3.486526489257812500e+00 8.789460182189941406e+00 3.682796001434326172e+00 -5.345774173736572266e+00
1.668000000000000000e+03 1.800831222534179688e+01 3.787358760833740234e+00 2.910531282424926758e+00 3.839837312698364258e+00 2.025110721588134766e+00 -2.969472646713256836e+00
1.669000000000000000e+03 3.741655349731445312e+01 -5.201112747192382812e+00 2.157313108444213867e+00 7.290264129638671875e+00 2.834273338317871094e+00 7.673448324203491211e-01
1.670000000000000000e+03 2.582867050170898438e+01 -1.622601890563964844e+01 -2.047402620315551758e+00 1.764824539422988892e-01 -5.612760782241821289e-01 2.512495815753936768e-01
1.671000000000000000e+03 2.471035766601562500e+01 -1.514029884338378906e+01 -1.306864023208618164e+00 3.622338175773620605e-01 -2.833890318870544434e-01 3.752055168151855469e-01
1.672000000000000000e+03 5.924229812622070312e+01 2.070889711380004883e+00 -1.280369877815246582e+00 9.585863351821899414e-01 -9.653507173061370850e-02 -8.167818188667297363e-01
1.673000000000000000e+03 3.634004974365234375e+01 -1.625797080993652344e+01 -1.264621376991271973e+00 8.838621139526367188e+00 2.272200107574462891e+00 -3.390083014965057373e-01
1.674000000000000000e+03 3.916907882690429688e+01 -1.052742862701416016e+01 1.101758599281311035e+00 1.169505500793457031e+01 3.839044094085693359e+00 -2.781715989112854004e-01
1.675000000000000000e+03 3.800535964965820312e+01 -1.433006477355957031e+01 2.251711487770080566e-01 9.875804901123046875e+00 3.030292987823486328e+00 -6.186276674270629883e-01
1.676000000000000000e+03 4.751894760131835938e+01 -2.909633445739746094e+01 1.400526165962219238e-01 1.920406579971313477e+00 6.181377768516540527e-01 -9.008604884147644043e-01
1.677000000000000000e+03 4.952927398681640625e+01 -3.549864196777343750e+01 -5.619048476219177246e-01 1.781610369682312012e+00 3.659116625785827637e-01 -6.404588222503662109e-01
1.678000000000000000e+03 5.101110076904296875e+01 -3.405367660522460938e+01 -4.651133120059967041e-01 1.250604152679443359e+00 2.356472462415695190e-01 -6.032016873359680176e-01
1.679000000000000000e+03 1.134403896331787109e+01 -1.296278953552246094e+01 3.246766626834869385e-01 8.322684168815612793e-01 3.470835387706756592e-01 1.682902455329895020e+00
1.680000000000000000e+03 1.493691158294677734e+01 -1.492019462585449219e+01 -4.204207062721252441e-01 -3.878616094589233398e-01 -2.424846887588500977e-01 9.415956735610961914e-01
1.681000000000000000e+03 5.477532958984375000e+01 1.924073696136474609e+00 -2.267802000045776367e+00 2.635354101657867432e-01 -6.012799739837646484e-01 2.004412710666656494e-01
1.682000000000000000e+03 6.831095695495605469e+00 1.562809848785400391e+01 6.535636186599731445e-01 8.709620237350463867e-01 4.573577046394348145e-01 -6.454337835311889648e-01
1.683000000000000000e+03 3.869060134887695312e+01 -2.333070993423461914e+00 8.675316572189331055e-01 8.413103103637695312e+00 2.784190416336059570e+00 1.606235861778259277e+00
1.684000000000000000e+03 4.323798370361328125e+01 -2.219403076171875000e+01 4.977167248725891113e-01 4.820627212524414062e+00 1.595503211021423340e+00 -1.204481363296508789e+00
1.685000000000000000e+03 4.645810699462890625e+01 -2.815503692626953125e+01 2.508161664009094238e-01 2.209238290786743164e+00 7.380163073539733887e-01 -1.082083225250244141e+00
1.686000000000000000e+03 7.185646820068359375e+01 -2.345438385009765625e+01 7.061766982078552246e-01 1.140835857391357422e+01 3.634360551834106445e+00 -5.224857330322265625e-01
1.687000000000000000e+03 7.228757476806640625e+01 -1.962952423095703125e+01 4.949202835559844971e-01 1.168903255462646484e+01 3.655185937881469727e+00 -6.012370586395263672e-01
1.688000000000000000e+03 4.594757461547851562e+01 2.112472343444824219e+01 5.841382145881652832e-01 5.185564994812011719e+00 1.730911016464233398e+00 1.152119040489196777e+00
1.689000000000000000e+03 4.415147399902343750e+01 1.841596984863281250e+01 5.775068998336791992e-01 6.256484985351562500e+00 2.050197601318359375e+00 1.370645999908447266e+00
1.690000000000000000e+03 4.608821868896484375e+01 2.429606628417968750e+01 4.100808203220367432e-01 4.777340888977050781e+00 1.556226491928100586e+00 7.847372889518737793e-01
1.691000000000000000e+03 4.598215866088867188e+01 2.591666984558105469e+01 3.444939255714416504e-01 4.537624835968017578e+00 1.464635610580444336e+00 6.865523457527160645e-01
1.692000000000000000e+03 1.525422859191894531e+01 1.967092895507812500e+01 1.668415814638137817e-01 6.472946166992187500e+00 1.991936326026916504e+00 -5.723366141319274902e-01
1.693000000000000000e+03 4.028134918212890625e+01 -8.892542123794555664e-01 2.644863426685333252e-01 1.004366970062255859e+01 3.092446804046630859e+00 1.662160992622375488e+00
1.694000000000000000e+03 4.456867599487304688e+01 2.271829032897949219e+01 2.812343537807464600e-01 5.284064769744873047e+00 1.669589757919311523e+00 7.287625670433044434e-01
1.695000000000000000e+03 4.481249237060546875e+01 -2.544966506958007812e+01 5.107132792472839355e-01 3.022240400314331055e+00 1.059886097908020020e+00 -1.221016287803649902e+00
1.696000000000000000e+03 4.573266220092773438e+01 1.961897277832031250e+01 7.102440595626831055e-01 5.458622455596923828e+00 1.850659966468811035e+00 1.391541004180908203e+00
1.697000000000000000e+03 7.117285156250000000e+01 -1.986032676696777344e+01 2.963667213916778564e-01 1.286803150177001953e+01 3.949319601058959961e+00 -5.371657013893127441e-01
1.698000000000000000e+03 7.131044006347656250e+01 -2.110937309265136719e+01 4.796677231788635254e-01 1.247479724884033203e+01 3.886339426040649414e+00 -2.627797126770019531e-01
1.699000000000000000e+03 7.262853240966796875e+01 -2.193124771118164062e+01 5.550652146339416504e-01 1.114976692199707031e+01 3.511449575424194336e+00 -6.086855530738830566e-01
1.700000000000000000e+03 7.666915130615234375e+01 1.576210689544677734e+01 4.172135889530181885e-02 6.830144882202148438e+00 2.061559915542602539e+00 -3.378203809261322021e-01
1.701000000000000000e+03 7.518879699707031250e+01 1.313430786132812500e+01 4.158126190304756165e-02 6.740441322326660156e+00 2.034606933593750000e+00 -5.091820359230041504e-01
1.702000000000000000e+03 7.702007293701171875e+01 1.882195711135864258e+00 -1.302460283041000366e-01 8.087743759155273438e+00 2.387249231338500977e+00 -1.615256629884243011e-02
1.703000000000000000e+03 7.547094726562500000e+01 -7.406194210052490234e-01 -3.016578555107116699e-01 7.934571266174316406e+00 2.289874076843261719e+00 1.830049306154251099e-01
1.704000000000000000e+03 7.573727416992187500e+01 -1.490018081665039062e+01 4.361389577388763428e-01 8.269505500793457031e+00 2.611693143844604492e+00 8.808349817991256714e-02
1.705000000000000000e+03 7.686360931396484375e+01 -1.351406478881835938e+01 2.253327816724777222e-01 7.434882640838623047e+00 2.298064708709716797e+00 3.241073787212371826e-01
1.706000000000000000e+03 7.415492248535156250e+01 -1.174380302429199219e+01 4.324708580970764160e-01 8.996807098388671875e+00 2.828783273696899414e+00 4.762154817581176758e-01
1.707000000000000000e+03 7.295818328857421875e+01 -1.561299610137939453e+01 9.775223731994628906e-01 1.054526901245117188e+01 3.456837415695190430e+00 -3.915862441062927246e-01
1.708000000000000000e+03 7.607015228271484375e+01 -2.339069175720214844e+01 2.775659561157226562e-01 8.728260993957519531e+00 2.701748132705688477e+00 -9.814085960388183594e-01
1.709000000000000000e+03 7.693198394775390625e+01 -2.075566482543945312e+01 1.824487745761871338e-01 7.890573501586914062e+00 2.421906709671020508e+00 -5.955688953399658203e-01
1.710000000000000000e+03 7.390073394775390625e+01 -1.043186950683593750e+01 2.299513518810272217e-01 8.965206146240234375e+00 2.758547306060791016e+00 5.138953328132629395e-01
1.711000000000000000e+03 7.335515594482421875e+01 -1.825764083862304688e+01 6.643630862236022949e-01 1.058476829528808594e+01 3.374739408493041992e+00 -5.994517803192138672e-01
1.712000000000000000e+03 7.334884643554687500e+01 -1.948348617553710938e+01 5.001291036605834961e-01 1.063482093811035156e+01 3.340485095977783203e+00 -7.168489694595336914e-01
1.713000000000000000e+03 7.593756866455078125e+01 -8.181749343872070312e+00 -1.940749771893024445e-02 8.057629585266113281e+00 2.411466598510742188e+00 7.077134251594543457e-01
1.714000000000000000e+03 7.554615020751953125e+01 -4.001682758331298828e+00 -2.563450932502746582e-01 8.053307533264160156e+00 2.339088678359985352e+00 4.823755621910095215e-01
1.715000000000000000e+03 7.565460205078125000e+01 -5.484762191772460938e+00 -1.705953478813171387e-01 8.087853431701660156e+00 2.375177383422851562e+00 5.973057746887207031e-01
1.716000000000000000e+03 7.595355987548828125e+01 2.075866222381591797e+00 -2.127980589866638184e-01 7.845348834991455078e+00 2.289765119552612305e+00 -7.026249915361404419e-02
1.717000000000000000e+03 7.568034362792968750e+01 5.989266395568847656e+00 -1.380459219217300415e-01 7.493976116180419922e+00 2.206779003143310547e+00 -3.810550570487976074e-01
1.718000000000000000e+03 7.568741607666015625e+01 3.208559417724609375e+01 1.906271837651729584e-02 6.180061817169189453e+00 1.859737396240234375e+00 1.709720119833946228e-02
1.719000000000000000e+03 7.593607330322265625e+01 3.350042104721069336e+00 -1.956937015056610107e-01 7.768945217132568359e+00 2.271975517272949219e+00 -1.850418597459793091e-01
1.720000000000000000e+03 7.578112792968750000e+01 7.286912798881530762e-01 -2.541203200817108154e-01 7.896372318267822266e+00 2.292675733566284180e+00 2.818647027015686035e-02
1.721000000000000000e+03 7.490731811523437500e+01 3.344160079956054688e+00 -3.019909262657165527e-01 7.539791107177734375e+00 2.171340227127075195e+00 -2.688861489295959473e-01
1.722000000000000000e+03 7.555372619628906250e+01 7.384218215942382812e+00 -1.017954051494598389e-01 7.323235988616943359e+00 2.166432142257690430e+00 -4.515369832515716553e-01
1.723000000000000000e+03 7.562950897216796875e+01 -2.933351135253906250e+01 -1.916056126356124878e-01 9.414237022399902344e+00 2.766789197921752930e+00 -1.282609581947326660e+00
1.724000000000000000e+03 7.288838958740234375e+01 -2.295648765563964844e+01 7.140487432479858398e-01 1.057677650451660156e+01 3.387247323989868164e+00 -7.325907945632934570e-01
1.725000000000000000e+03 7.670978546142578125e+01 1.713717269897460938e+01 4.271643981337547302e-02 6.726090431213378906e+00 2.030642032623291016e+00 -3.029364347457885742e-01
1.726000000000000000e+03 7.523723602294921875e+01 1.597484016418457031e+01 7.717598229646682739e-02 6.537027835845947266e+00 1.984261035919189453e+00 -4.367363750934600830e-01
1.727000000000000000e+03 7.530222320556640625e+01 1.024651908874511719e+01 -2.348639443516731262e-02 7.006793975830078125e+00 2.094992160797119141e+00 -5.235713720321655273e-01
1.728000000000000000e+03 7.409147644042968750e+01 8.782135009765625000e+00 -8.738246560096740723e-02 6.830873489379882812e+00 2.023047447204589844e+00 -6.189067363739013672e-01
1.729000000000000000e+03 7.573048400878906250e+01 -2.744843673706054688e+01 1.090167909860610962e-01 9.260983467102050781e+00 2.811000108718872070e+00 -1.386748790740966797e+00
1.730000000000000000e+03 7.618753814697265625e+01 -2.579115104675292969e+01 1.346133649349212646e-01 8.875234603881835938e+00 2.702954530715942383e+00 -1.181892395019531250e+00
1.731000000000000000e+03 7.583195495605468750e+01 -2.430749702453613281e+01 3.306437134742736816e-01 8.951519012451171875e+00 2.784648656845092773e+00 -1.114451885223388672e+00
1.732000000000000000e+03 7.376557922363281250e+01 1.621073532104492188e+01 1.392945349216461182e-01 6.228187561035156250e+00 1.910244584083557129e+00 -5.153971314430236816e-01
1.733000000000000000e+03 7.520716857910156250e+01 1.455325984954833984e+01 6.564424186944961548e-02 6.635530948638916016e+00 2.010352611541748047e+00 -4.797874987125396729e-01
1.734000000000000000e+03 7.530503845214843750e+01 1.737199020385742188e+01 9.207794070243835449e-02 6.470979690551757812e+00 1.968917369842529297e+00 -3.858780562877655029e-01
1.735000000000000000e+03 7.557109069824218750e+01 2.135061645507812500e+01 8.628163486719131470e-02 6.317612171173095703e+00 1.921168088912963867e+00 -2.282843142747879028e-01
1.736000000000000000e+03 7.229254913330078125e+01 2.717531204223632812e+01 1.458922624588012695e-01 5.809709072113037109e+00 1.786680340766906738e+00 -6.645064800977706909e-02
1.737000000000000000e+03 7.392489624023437500e+01 2.403466987609863281e+01 1.311170160770416260e-01 6.037264823913574219e+00 1.850514531135559082e+00 -1.741260886192321777e-01
1.738000000000000000e+03 7.498911285400390625e+01 2.736465072631835938e+01 6.722193956375122070e-02 6.117486476898193359e+00 1.855412483215332031e+00 -5.180329084396362305e-02
1.739000000000000000e+03 7.654592895507812500e+01 2.919870758056640625e+01 2.441217005252838135e-02 6.274527072906494141e+00 1.889681696891784668e+00 -7.929480634629726410e-03
1.740000000000000000e+03 7.561196899414062500e+01 2.858123970031738281e+01 4.485492408275604248e-02 6.188377857208251953e+00 1.869969844818115234e+00 -2.127345837652683258e-02
1.741000000000000000e+03 7.536905670166015625e+01 -3.147239685058593750e+01 -3.404328525066375732e-01 9.497182846069335938e+00 2.747025012969970703e+00 -1.052173256874084473e+00
1.742000000000000000e+03 7.401919555664062500e+01 -3.680176162719726562e+01 -4.183193147182464600e-01 8.697962760925292969e+00 2.483892917633056641e+00 -3.888616263866424561e-01
1.743000000000000000e+03 7.470982360839843750e+01 -2.817762374877929688e+01 -1.352360993623733521e-01 9.407794952392578125e+00 2.781767606735229492e+00 -1.448414444923400879e+00
1.744000000000000000e+03 7.624568939208984375e+01 -3.566744232177734375e+01 -3.498088121414184570e-01 1.003285980224609375e+01 2.904915332794189453e+00 -5.076054930686950684e-01
1.745000000000000000e+03 7.466141510009765625e+01 -3.024557495117187500e+01 -3.962684869766235352e-01 9.405592918395996094e+00 2.702797174453735352e+00 -1.287774085998535156e+00
1.746000000000000000e+03 7.596218109130859375e+01 3.050463867187500000e+01 2.393530309200286865e-02 6.217423915863037109e+00 1.872407674789428711e+00 9.109967388212680817e-03
1.747000000000000000e+03 4.460754013061523438e+01 1.163934993743896484e+01 1.828227043151855469e+00 6.452991008758544922e+00 2.484365463256835938e+00 2.799675703048706055e+00
1.748000000000000000e+03 4.365224075317382812e+01 1.434195041656494141e+01 1.143247842788696289e+00 7.317211151123046875e+00 2.538137674331665039e+00 2.179459333419799805e+00
1.749000000000000000e+03 1.506262397766113281e+01 3.336334991455078125e+01 -1.014925241470336914e+00 1.310108304023742676e+00 8.855491131544113159e-02 -5.469384193420410156e-01
1.750000000000000000e+03 7.320476531982421875e+01 -1.693284225463867188e+01 8.347623348236083984e-01 1.057564258575439453e+01 3.423121452331542969e+00 -5.809361338615417480e-01
1.751000000000000000e+03 1.540708351135253906e+01 7.917164802551269531e+00 2.192219972610473633e+00 3.943245410919189453e+00 1.840639591217041016e+00 -2.299193382263183594e+00
1.752000000000000000e+03 1.578584194183349609e+01 9.504466056823730469e+00 1.852555632591247559e+00 5.137187004089355469e+00 2.096922874450683594e+00 -2.508277654647827148e+00
1.753000000000000000e+03 4.602635383605957031e+00 -1.491926479339599609e+01 1.468252837657928467e-01 1.673499703407287598e+00 5.460974574089050293e-01 -1.763563156127929688e-01
1.754000000000000000e+03 4.453069210052490234e+00 2.269425964355468750e+01 1.406614929437637329e-01 6.495398283004760742e-01 2.370603978633880615e-01 -9.966876506805419922e-01
1.755000000000000000e+03 2.787525653839111328e+00 -2.048017120361328125e+01 5.681917667388916016e-01 1.005739688873291016e+00 4.721794426441192627e-01 7.591966390609741211e-01
1.756000000000000000e+03 3.200393915176391602e+00 1.996627235412597656e+01 1.202478557825088501e-01 -2.318685799837112427e-01 -3.348621726036071777e-02 -6.503300070762634277e-01
1.757000000000000000e+03 5.568310260772705078e+00 2.284789657592773438e+01 1.798107177019119263e-01 1.013439178466796875e+00 3.579749763011932373e-01 -1.132806777954101562e+00
1.758000000000000000e+03 5.590489387512207031e+00 2.537032890319824219e+01 2.363013662397861481e-02 1.286401271820068359e+00 3.930094242095947266e-01 -1.192210793495178223e+00
1.759000000000000000e+03 3.297471284866333008e+00 2.717677879333496094e+01 -2.619480341672897339e-02 1.085516095161437988e+00 3.177963793277740479e-01 -8.518630862236022949e-01
1.760000000000000000e+03 4.821105480194091797e+00 2.990996932983398438e+01 -1.412262320518493652e-01 1.681648492813110352e+00 4.621266722679138184e-01 -9.950188994407653809e-01
1.761000000000000000e+03 4.479156970977783203e+00 1.829982185363769531e+01 2.465666085481643677e-01 8.864144980907440186e-02 1.005624160170555115e-01 -6.845821142196655273e-01
1.762000000000000000e+03 4.422657966613769531e+00 1.978090858459472656e+01 1.989477872848510742e-01 2.305649667978286743e-01 1.288538277149200439e-01 -8.050144910812377930e-01
1.763000000000000000e+03 4.429471492767333984e+00 2.555401420593261719e+01 5.930247250944375992e-03 1.036266922950744629e+00 3.126591742038726807e-01 -1.044699192047119141e+00
1.764000000000000000e+03 4.379535198211669922e+00 2.413004684448242188e+01 6.123055145144462585e-02 8.421308398246765137e-01 2.710084021091461182e-01 -1.027983069419860840e+00
1.765000000000000000e+03 3.968394041061401367e+00 1.412946224212646484e+01 3.040642440319061279e-01 -5.428943037986755371e-01 -7.164902240037918091e-02 -1.778380870819091797e-01
1.766000000000000000e+03 4.186428070068359375e+00 -1.074026775360107422e+01 -1.903034299612045288e-01 6.121781468391418457e-01 1.265624165534973145e-01 -1.322622150182723999e-01
1.767000000000000000e+03 3.940848112106323242e+00 -9.409984588623046875e+00 -1.423175632953643799e-01 3.798486888408660889e-01 7.125933468341827393e-02 -1.118912771344184875e-01
1.768000000000000000e+03 3.708705425262451172e+00 -3.031191444396972656e+01 -7.615543007850646973e-01 2.540294647216796875e+00 5.336220860481262207e-01 6.367245912551879883e-01
1.769000000000000000e+03 3.450091361999511719e+00 -3.190740203857421875e+01 -4.005170166492462158e-01 2.635581731796264648e+00 6.705194115638732910e-01 1.673956066370010376e-01
1.770000000000000000e+03 4.894572734832763672e+00 1.153881645202636719e+01 4.247625470161437988e-01 -3.451486825942993164e-01 2.388415299355983734e-02 1.242192536592483521e-01
1.771000000000000000e+03 5.716758728027343750e+00 3.669628524780273438e+01 -3.636411130428314209e-01 2.195613145828247070e+00 5.495916008949279785e-01 -5.771113038063049316e-01
1.772000000000000000e+03 3.852789163589477539e+00 1.157560443878173828e+01 2.894012033939361572e-01 -7.179123163223266602e-01 -1.285533308982849121e-01 1.595682203769683838e-01
1.773000000000000000e+03 4.487297534942626953e+00 -1.352034950256347656e+01 -1.150238960981369019e-01 1.257327079772949219e+00 3.426909446716308594e-01 -1.992372721433639526e-01
1.774000000000000000e+03 4.341109275817871094e+00 -1.213041591644287109e+01 -2.134443670511245728e-01 9.119157791137695312e-01 2.095414251089096069e-01 -1.781920045614242554e-01
1.775000000000000000e+03 5.487111091613769531e+00 -6.302297592163085938e+00 -2.219604328274726868e-02 2.812774777412414551e-01 7.772443443536758423e-02 5.413591861724853516e-02
1.776000000000000000e+03 6.323437213897705078e+00 -3.278789520263671875e+01 -7.956619858741760254e-01 1.155148267745971680e+00 1.078459024429321289e-01 6.948316842317581177e-02
1.777000000000000000e+03 6.140414237976074219e+00 2.974779319763183594e+01 -2.122390419244766235e-01 1.790531635284423828e+00 4.734877645969390869e-01 -1.139730334281921387e+00
1.778000000000000000e+03 4.992941856384277344e+00 3.406252670288085938e+01 -2.192229628562927246e-01 2.088931798934936523e+00 5.609126687049865723e-01 -7.586391568183898926e-01
1.779000000000000000e+03 4.464650344848632812e+01 1.013305282592773438e+01 2.010116577148437500e+00 6.062532901763916016e+00 2.421794891357421875e+00 2.926981687545776367e+00
1.780000000000000000e+03 2.822303533554077148e+00 7.358901023864746094e+00 9.943460673093795776e-02 -8.627406954765319824e-01 -2.289918214082717896e-01 5.575929880142211914e-01
1.781000000000000000e+03 3.898060798645019531e+00 1.029692077636718750e+01 2.841578423976898193e-01 -7.296004295349121094e-01 -1.336327791213989258e-01 3.237550556659698486e-01
1.782000000000000000e+03 5.787787246704101562e+01 2.459884643554687500e+00 -1.307733416557312012e+00 6.576399803161621094e-01 -1.950280368328094482e-01 -5.328426957130432129e-01
1.783000000000000000e+03 3.179484367370605469e+00 -5.644723892211914062e+00 -3.269160166382789612e-02 2.639640122652053833e-02 -1.888559781946241856e-03 -7.918938249349594116e-02
1.784000000000000000e+03 3.593622446060180664e+00 5.774682044982910156e+00 2.628979040309786797e-03 -5.702188611030578613e-01 -1.702769696712493896e-01 7.187899947166442871e-01
1.785000000000000000e+03 5.171050071716308594e+00 4.542069435119628906e+00 -1.410583406686782837e-01 -2.933565974235534668e-01 -1.303244829177856445e-01 8.557682037353515625e-01
1.786000000000000000e+03 4.861812210083007812e+01 -2.835845184326171875e+01 1.514516323804855347e-01 1.263433456420898438e+00 4.244655370712280273e-01 -6.891736388206481934e-01
1.787000000000000000e+03 5.553144931793212891e+00 -3.728264617919921875e+01 4.015411064028739929e-02 1.649885654449462891e+00 5.070118904113769531e-01 -2.415258251130580902e-02
1.788000000000000000e+03 3.524736404418945312e+01 -1.692045783996582031e+01 -1.643191576004028320e+00 7.534613609313964844e+00 1.767426609992980957e+00 -1.454466938972473145e+00
1.789000000000000000e+03 3.812223434448242188e+01 -1.553778266906738281e+01 -2.384847104549407959e-01 1.007441520690917969e+01 2.950779199600219727e+00 -2.604843974113464355e-01
1.790000000000000000e+03 1.741244888305664062e+01 5.850709915161132812e+00 2.887059688568115234e+00 4.943604946136474609e+00 2.349199295043945312e+00 -3.294851303100585938e+00
1.791000000000000000e+03 6.940219116210937500e+01 -7.455264091491699219e+00 7.700571417808532715e-02 8.700274467468261719e+00 2.633184194564819336e+00 -9.341274499893188477e-01
1.792000000000000000e+03 4.720884704589843750e+01 1.924982833862304688e+01 9.954429268836975098e-01 4.917071819305419922e+00 1.773754358291625977e+00 1.507010579109191895e+00
1.793000000000000000e+03 3.185152435302734375e+01 -1.505085277557373047e+01 -5.391002297401428223e-01 1.369174361228942871e+00 2.490222454071044922e-01 -1.029249787330627441e+00
1.794000000000000000e+03 3.093474578857421875e+01 -1.460125923156738281e+01 -1.631560176610946655e-01 5.775208473205566406e-01 1.243094503879547119e-01 -8.180930614471435547e-01
1.795000000000000000e+03 2.591222000122070312e+01 -1.503820991516113281e+01 -1.294962406158447266e+00 2.656063139438629150e-01 -3.088068366050720215e-01 3.112649023532867432e-01
1.796000000000000000e+03 1.784322166442871094e+01 4.778295993804931641e+00 3.046944618225097656e+00 4.549309730529785156e+00 2.278876304626464844e+00 -3.322169303894042969e+00
1.797000000000000000e+03 1.317600917816162109e+01 5.332704544067382812e+00 1.295822620391845703e+00 1.027994751930236816e+00 6.971452236175537109e-01 -4.321703910827636719e-01
1.798000000000000000e+03 1.257061862945556641e+01 1.448369979858398438e+01 1.061593532562255859e+00 3.920664787292480469e+00 1.494677543640136719e+00 -1.281066060066223145e+00
1.799000000000000000e+03 1.487427520751953125e+01 9.169886589050292969e+00 1.872830271720886230e+00 4.111660003662109375e+00 1.795347213745117188e+00 -2.086619615554809570e+00
1.800000000000000000e+03 4.013842773437500000e+01 -1.741643333435058594e+01 3.582847118377685547e-01 1.056268882751464844e+01 3.276292085647583008e+00 -4.938779026269912720e-02
1.801000000000000000e+03 3.921309280395507812e+01 -1.577882003784179688e+01 1.977226734161376953e-01 1.073731136322021484e+01 3.280510425567626953e+00 -2.304059118032455444e-01
1.802000000000000000e+03 4.417029190063476562e+01 2.717774152755737305e+00 -1.840094327926635742e+00 6.093993663787841797e+00 1.276169776916503906e+00 2.891511917114257812e+00
1.803000000000000000e+03 5.021847915649414062e+01 -3.055471992492675781e+01 -2.293603420257568359e-01 1.060577511787414551e+00 2.493651509284973145e-01 -4.850937128067016602e-01
1.804000000000000000e+03 5.118058013916015625e+01 3.219625234603881836e+00 -1.747926473617553711e+00 2.429408282041549683e-01 -4.514956772327423096e-01 1.852434426546096802e-01
1.805000000000000000e+03 7.512804031372070312e+00 -1.460728263854980469e+01 2.324909120798110962e-01 2.718648672103881836e+00 8.853418231010437012e-01 8.928344845771789551e-01
1.806000000000000000e+03 7.055297088623046875e+01 -6.889569759368896484e+00 -1.805289238691329956e-01 8.740880012512207031e+00 2.568105459213256836e+00 -4.180787801742553711e-01
1.807000000000000000e+03 4.248564910888671875e+01 -2.112697410583496094e+01 2.551247477531433105e-01 6.312262058258056641e+00 1.970216155052185059e+00 -1.177019834518432617e+00
1.808000000000000000e+03 4.057033920288085938e+01 -2.475290298461914062e+01 9.783622026443481445e-01 6.528566360473632812e+00 2.252078533172607422e+00 -6.055200695991516113e-01
1.809000000000000000e+03 4.288575363159179688e+01 7.092899799346923828e+00 1.671846628189086914e+00 7.908653736114501953e+00 2.874150037765502930e+00 3.308416843414306641e+00
1.810000000000000000e+03 3.925369644165039062e+01 -9.136647224426269531e+00 1.487022161483764648e+00 1.137070178985595703e+01 3.857317209243774414e+00 3.332479298114776611e-01
1.811000000000000000e+03 3.804734420776367188e+01 -1.182898998260498047e+01 1.068260908126831055e+00 9.734437942504882812e+00 3.240809440612792969e+00 -6.918379068374633789e-01
1.812000000000000000e+03 4.499523162841796875e+01 1.565793132781982422e+01 1.215709447860717773e+00 6.140539169311523438e+00 2.206874608993530273e+00 2.052511215209960938e+00
1.813000000000000000e+03 1.449029541015625000e+01 -1.336716270446777344e+01 2.376591414213180542e-01 -1.126474365592002869e-01 3.750351443886756897e-02 1.371969938278198242e+00
1.814000000000000000e+03 1.239772415161132812e+01 -3.896910858154296875e+01 9.319026768207550049e-02 -3.031893670558929443e-01 -6.299973279237747192e-02 1.562941074371337891e-01
1.815000000000000000e+03 7.256361961364746094e+00 -3.170742034912109375e+01 -1.087824940681457520e+00 3.937838673591613770e-01 -2.082123160362243652e-01 2.364901602268218994e-01
1.816000000000000000e+03 5.616122245788574219e+00 -3.160507583618164062e+01 -8.918787240982055664e-01 1.526559829711914062e+00 1.904043406248092651e-01 2.198720127344131470e-01
1.817000000000000000e+03 5.703045654296875000e+01 4.084563732147216797e+00 -6.623707413673400879e-01 8.330491185188293457e-01 5.120351910591125488e-02 -5.470251441001892090e-01
1.818000000000000000e+03 3.838458633422851562e+01 -2.092185401916503906e+01 8.486151695251464844e-01 9.929678916931152344e+00 3.233488082885742188e+00 9.634072780609130859e-01
1.819000000000000000e+03 3.895078277587890625e+01 -1.690698814392089844e+01 -2.222321182489395142e-01 1.067401313781738281e+01 3.135534286499023438e+00 3.226739466190338135e-01
1.820000000000000000e+03 3.914822006225585938e+01 -2.267775535583496094e+01 1.043487787246704102e+00 8.728595733642578125e+00 2.931624889373779297e+00 4.140065610408782959e-01
1.821000000000000000e+03 7.047179412841796875e+01 -1.315466880798339844e+01 1.227899551391601562e+00 1.211550903320312500e+01 4.003022670745849609e+00 -8.198103904724121094e-01
1.822000000000000000e+03 7.287216949462890625e+01 -1.306899261474609375e+01 8.405496478080749512e-01 1.007778167724609375e+01 3.275499343872070312e+00 6.661138683557510376e-02
1.823000000000000000e+03 7.016204833984375000e+01 -4.623187541961669922e+00 -4.316927194595336914e-01 7.894174575805664062e+00 2.238744497299194336e+00 -3.710967898368835449e-01
1.824000000000000000e+03 4.468169021606445312e+01 1.302949810028076172e+01 1.601332902908325195e+00 6.427859306335449219e+00 2.408757686614990234e+00 2.510093688964843750e+00
1.825000000000000000e+03 7.190622711181640625e+01 -1.575441074371337891e+01 1.097792148590087891e+00 1.159685420989990234e+01 3.808393955230712891e+00 -7.142584919929504395e-01
1.826000000000000000e+03 7.082678222656250000e+01 -1.591663455963134766e+01 1.201331019401550293e+00 1.295235538482666016e+01 4.246106147766113281e+00 -1.010644555091857910e+00
1.827000000000000000e+03 4.502989196777343750e+01 8.669247627258300781e+00 1.888042807579040527e+00 5.366221904754638672e+00 2.176279306411743164e+00 2.888275623321533203e+00
1.828000000000000000e+03 4.583061981201171875e+01 2.756013488769531250e+01 2.215868681669235229e-01 4.325259685516357422e+00 1.364054083824157715e+00 6.319964528083801270e-01
1.829000000000000000e+03 4.439044952392578125e+01 2.733032608032226562e+01 2.853573560714721680e-01 4.419233798980712891e+00 1.411377310752868652e+00 4.074770510196685791e-01
1.830000000000000000e+03 4.930154418945312500e+01 4.826071262359619141e+00 -8.114650845527648926e-02 6.530466675758361816e-01 1.715700477361679077e-01 9.314516186714172363e-01
1.831000000000000000e+03 4.760417175292968750e+01 5.071514129638671875e+00 5.669320225715637207e-01 1.491370201110839844e+00 6.174907088279724121e-01 2.010718107223510742e+00
1.832000000000000000e+03 4.258001327514648438e+01 5.195773601531982422e+00 4.117442965507507324e-01 7.888007164001464844e+00 2.489925384521484375e+00 3.148067474365234375e+00
1.833000000000000000e+03 4.067491149902343750e+01 4.065324306488037109e+00 1.950169056653976440e-01 1.003574943542480469e+01 3.069229841232299805e+00 2.666547060012817383e+00
1.834000000000000000e+03 4.440680313110351562e+01 6.896251201629638672e+00 1.463233470916748047e+00 5.607739925384521484e+00 2.121292114257812500e+00 2.932104587554931641e+00
1.835000000000000000e+03 5.508272171020507812e+00 -2.975212669372558594e+01 -1.343331217765808105e+00 1.728728532791137695e+00 1.156191974878311157e-01 6.413983702659606934e-01
1.836000000000000000e+03 4.289522171020507812e+01 2.848846673965454102e+00 -1.129956841468811035e+00 7.919447898864746094e+00 2.036847352981567383e+00 2.638795375823974609e+00
1.837000000000000000e+03 1.797064018249511719e+01 -3.770529556274414062e+01 -3.617132902145385742e-01 -4.368352591991424561e-01 -2.395645678043365479e-01 1.900052726268768311e-01
1.838000000000000000e+03 1.947683334350585938e+01 -3.640864181518554688e+01 -5.961970686912536621e-01 -2.499711960554122925e-01 -2.538504898548126221e-01 1.211174502968788147e-01
1.839000000000000000e+03 3.288214492797851562e+01 -2.992521286010742188e+00 2.451121807098388672e+00 6.668556928634643555e-01 9.353932738304138184e-01 -1.514043509960174561e-01
1.840000000000000000e+03 3.166768074035644531e+01 -1.074984455108642578e+01 2.191892862319946289e+00 1.938601851463317871e+00 1.239148378372192383e+00 -1.162858843803405762e+00
1.841000000000000000e+03 3.995591735839843750e+01 2.160318851470947266e+00 -4.596014320850372314e-01 9.787623405456542969e+00 2.798406600952148438e+00 2.044330835342407227e+00
1.842000000000000000e+03 2.718510818481445312e+01 -3.879439353942871094e+00 4.208072185516357422e+00 1.451250910758972168e+00 1.697796940803527832e+00 -2.136040687561035156e+00
1.843000000000000000e+03 2.924681854248046875e+01 -5.505693435668945312e+00 3.557127237319946289e+00 7.614475488662719727e-01 1.295572400093078613e+00 -1.804482102394104004e+00
1.844000000000000000e+03 6.258033370971679688e+01 -3.829298019409179688e+01 2.046541720628738403e-01 9.882062673568725586e-01 3.578581213951110840e-01 2.287589460611343384e-01
1.845000000000000000e+03 6.334675598144531250e+01 -3.598743438720703125e+01 -3.260940909385681152e-01 1.191591739654541016e+00 2.596493065357208252e-01 5.136099457740783691e-01
1.846000000000000000e+03 3.723861312866210938e+01 -1.569154357910156250e+01 -5.143411755561828613e-01 9.224516868591308594e+00 2.613052845001220703e+00 -3.694765865802764893e-01
1.847000000000000000e+03 3.717786026000976562e+01 -2.998984527587890625e+01 -7.713598757982254028e-02 7.049006938934326172e+00 2.091561317443847656e+00 4.174018651247024536e-02
1.848000000000000000e+03 1.176045608520507812e+01 1.770664596557617188e+01 8.440017104148864746e-01 3.642811536788940430e+00 1.346043944358825684e+00 -1.173221111297607422e+00
1.849000000000000000e+03 7.288173675537109375e+01 -1.434863567352294922e+01 9.263188242912292480e-01 1.034992980957031250e+01 3.382874727249145508e+00 -2.094143331050872803e-01
1.850000000000000000e+03 3.640747070312500000e+01 -3.343954467773437500e+01 -1.413368344306945801e+00 5.695332050323486328e+00 1.284589171409606934e+00 1.629706472158432007e-01
1.851000000000000000e+03 3.814727020263671875e+01 -3.184407424926757812e+01 -9.447634220123291016e-01 6.027634143829345703e+00 1.524861097335815430e+00 -4.332610666751861572e-01
1.852000000000000000e+03 7.062789154052734375e+01 -2.972545623779296875e+01 -6.927666664123535156e-01 8.868168830871582031e+00 2.452620744705200195e+00 -4.594983458518981934e-01
1.853000000000000000e+03 7.278582763671875000e+01 -2.778234672546386719e+01 -7.705945521593093872e-02 9.638114929199218750e+00 2.868316650390625000e+00 -1.329066395759582520e+00
1.854000000000000000e+03 7.130653381347656250e+01 -8.906383514404296875e+00 5.467484518885612488e-02 9.455199241638183594e+00 2.852962255477905273e+00 -1.669682562351226807e-01
1.855000000000000000e+03 7.160353851318359375e+01 -7.556336879730224609e+00 -1.529916524887084961e-01 8.943784713745117188e+00 2.637238025665283203e+00 -3.697007894515991211e-02
1.856000000000000000e+03 5.027784347534179688e+01 5.750199794769287109e+00 4.303927421569824219e-01 8.277862668037414551e-01 3.774537146091461182e-01 7.460917234420776367e-01
1.857000000000000000e+03 3.729114913940429688e+01 -2.581134319305419922e+00 1.205639004707336426e+00 6.512113571166992188e+00 2.315325736999511719e+00 1.307255864143371582e+00
1.858000000000000000e+03 3.588921737670898438e+01 -3.029465198516845703e+00 1.667680859565734863e+00 4.452074050903320312e+00 1.835926413536071777e+00 1.037437200546264648e+00
1.859000000000000000e+03 4.529223251342773438e+01 3.103339385986328125e+01 -3.239095211029052734e-01 3.944210529327392578e+00 1.086090326309204102e+00 6.568083763122558594e-01
1.860000000000000000e+03 4.493791961669921875e+01 3.306124114990234375e+01 -7.774547338485717773e-01 3.683331727981567383e+00 8.717631101608276367e-01 5.559828281402587891e-01
1.861000000000000000e+03 7.264241790771484375e+01 -2.996749687194824219e+01 -5.667513608932495117e-01 9.234784126281738281e+00 2.600409746170043945e+00 -1.100373983383178711e+00
1.862000000000000000e+03 7.176155853271484375e+01 -1.441053771972656250e+01 1.192147016525268555e+00 1.134189128875732422e+01 3.760211706161499023e+00 -4.751144945621490479e-01
1.863000000000000000e+03 7.160121154785156250e+01 -3.103148460388183594e+01 -9.781360030174255371e-01 8.817573547363281250e+00 2.351831436157226562e+00 -7.333282828330993652e-01
1.864000000000000000e+03 3.171416664123535156e+01 -4.580244064331054688e+00 3.433865070343017578e+00 6.508875489234924316e-01 1.225425720214843750e+00 -9.782412052154541016e-01
1.865000000000000000e+03 2.754060935974121094e+01 -3.882281875610351562e+01 -6.231269836425781250e-01 1.456605315208435059e+00 2.500435113906860352e-01 4.680457115173339844e-01
1.866000000000000000e+03 4.480834579467773438e+01 3.537347030639648438e+01 -1.166299343109130859e+00 3.479368209838867188e+00 6.939206123352050781e-01 3.732397854328155518e-01
1.867000000000000000e+03 4.189342880249023438e+01 3.380173492431640625e+01 -1.051664590835571289e+00 2.767210245132446289e+00 5.146636962890625000e-01 1.627302318811416626e-01
1.868000000000000000e+03 6.560640716552734375e+01 -3.589261627197265625e+01 -6.244904994964599609e-01 3.010160207748413086e+00 7.157009243965148926e-01 7.563221454620361328e-01
1.869000000000000000e+03 1.170826148986816406e+01 2.264151000976562500e+01 3.457963466644287109e-01 3.276771545410156250e+00 1.086770296096801758e+00 -1.090799450874328613e+00
1.870000000000000000e+03 5.232957839965820312e+01 2.701938629150390625e+00 -2.243680715560913086e+00 3.636945784091949463e-01 -5.639958381652832031e-01 2.540779709815979004e-01
1.871000000000000000e+03 1.227662372589111328e+01 2.731648254394531250e+01 -2.251401394605636597e-01 2.563362836837768555e+00 7.014667987823486328e-01 -1.001732945442199707e+00
1.872000000000000000e+03 5.465240955352783203e+00 2.403423309326171875e+01 8.558090031147003174e-02 1.107946515083312988e+00 3.580582141876220703e-01 -1.164975404739379883e+00
1.873000000000000000e+03 5.625823974609375000e+00 -1.205948734283447266e+01 -2.447315752506256104e-01 1.337399959564208984e+00 3.278005123138427734e-01 1.113920137286186218e-01
1.874000000000000000e+03 5.426463127136230469e+00 -1.074319553375244141e+01 -2.301380187273025513e-01 9.721338152885437012e-01 2.225987464189529419e-01 7.779376953840255737e-02
1.875000000000000000e+03 3.892977523803710938e+01 -2.821162796020507812e+01 4.017074406147003174e-01 6.834733486175537109e+00 2.170932292938232422e+00 -7.009806632995605469e-01
1.876000000000000000e+03 1.033099651336669922e+01 -1.279888916015625000e+01 2.389109432697296143e-01 1.214243173599243164e+00 4.359462261199951172e-01 1.705142855644226074e+00
1.877000000000000000e+03 4.560548400878906250e+01 2.924177169799804688e+01 2.243710681796073914e-02 4.103241443634033203e+00 1.237703561782836914e+00 6.532633304595947266e-01
1.878000000000000000e+03 6.696218109130859375e+01 -1.528822302818298340e+00 -1.024489283561706543e+00 5.992870807647705078e+00 1.490514516830444336e+00 -1.015513181686401367e+00
1.879000000000000000e+03 6.655600738525390625e+01 -2.735927104949951172e+00 -7.552622556686401367e-01 6.013689041137695312e+00 1.577527999877929688e+00 -1.057449340820312500e+00
1.880000000000000000e+03 7.316908264160156250e+01 -2.566072845458984375e+01 5.006861090660095215e-01 9.939336776733398438e+00 3.132006645202636719e+00 -1.179898381233215332e+00
1.881000000000000000e+03 7.239102935791015625e+01 -2.454986190795898438e+01 7.205788493156433105e-01 1.052949523925781250e+01 3.375022172927856445e+00 -7.391434907913208008e-01
1.882000000000000000e+03 3.259630584716796875e+01 -3.352053070068359375e+01 -8.966126441955566406e-01 4.198737621307373047e+00 9.906374812126159668e-01 1.431659817695617676e+00
1.883000000000000000e+03 6.924470520019531250e+01 -3.350907516479492188e+01 -1.201827883720397949e+00 6.693513870239257812e+00 1.647505879402160645e+00 1.754852682352066040e-01
1.884000000000000000e+03 4.014144134521484375e+01 -2.059843444824218750e+01 2.911807596683502197e-01 8.869585037231445312e+00 2.748229742050170898e+00 5.050062537193298340e-01
1.885000000000000000e+03 3.963049697875976562e+01 -2.665927886962890625e+01 8.573309183120727539e-01 6.834121704101562500e+00 2.307435750961303711e+00 -7.678136825561523438e-01
1.886000000000000000e+03 4.655857563018798828e+00 -1.631407165527343750e+01 5.783846974372863770e-01 2.019192457199096680e+00 7.792732119560241699e-01 2.338307350873947144e-02
1.887000000000000000e+03 5.946810913085937500e+01 -3.740111160278320312e+01 3.238178044557571411e-02 -1.005154219456017017e-03 9.412988089025020599e-03 -1.484745442867279053e-01
1.888000000000000000e+03 6.431099414825439453e+00 3.282275390625000000e+01 -3.226943612098693848e-01 1.989942669868469238e+00 5.001744627952575684e-01 -9.480713605880737305e-01
1.889000000000000000e+03 6.344548416137695312e+01 6.450432538986206055e-01 -1.230371832847595215e+00 3.330392360687255859e+00 6.300061345100402832e-01 -1.509644985198974609e+00
1.890000000000000000e+03 1.938904380798339844e+01 -3.269484519958496094e+00 2.406916618347167969e+00 7.590599060058593750e-01 9.497929215431213379e-01 9.889239072799682617e-01
1.891000000000000000e+03 2.012166404724121094e+01 -3.496076583862304688e+00 2.462637662887573242e+00 1.746710300445556641e+00 1.262804388999938965e+00 1.359874129295349121e+00
1.892000000000000000e+03 2.222845077514648438e+01 -3.049527645111083984e+00 1.957136273384094238e+00 6.650663852691650391e+00 2.582340002059936523e+00 -4.583901464939117432e-01
1.893000000000000000e+03 1.796517562866210938e+01 -3.826577663421630859e+00 1.912977337837219238e+00 2.594342231750488281e-01 6.517234444618225098e-01 7.440979480743408203e-01
1.894000000000000000e+03 1.730738639831542969e+01 -4.315354347229003906e+00 1.733479619026184082e+00 1.794693917036056519e-01 5.738846659660339355e-01 7.868824601173400879e-01
1.895000000000000000e+03 1.883570671081542969e+01 -4.131122112274169922e+00 2.147520065307617188e+00 7.287952899932861328e-01 8.628946542739868164e-01 1.047983407974243164e+00
1.896000000000000000e+03 2.338401794433593750e+01 -2.096388578414916992e+00 4.823135375976562500e+00 6.575885772705078125e+00 3.419706344604492188e+00 -4.797874450683593750e+00
1.897000000000000000e+03 9.271414756774902344e+00 -4.738830566406250000e+00 2.397641986608505249e-01 1.940203458070755005e-01 1.301353573799133301e-01 3.554678559303283691e-01
1.898000000000000000e+03 9.923652648925781250e+00 -4.728060245513916016e+00 3.121042251586914062e-01 1.736512929201126099e-01 1.457266509532928467e-01 4.168724119663238525e-01
1.899000000000000000e+03 1.669137382507324219e+01 -4.828197956085205078e+00 1.563465952873229980e+00 1.312179565429687500e-01 5.084051489830017090e-01 8.457485437393188477e-01
1.900000000000000000e+03 2.364363098144531250e+01 -2.312839269638061523e+00 4.706494808197021484e+00 5.336029052734375000e+00 3.012757062911987305e+00 -4.144958019256591797e+00
1.901000000000000000e+03 1.540390205383300781e+01 -4.838649749755859375e+00 1.266519546508789062e+00 2.227829396724700928e-02 3.866393566131591797e-01 7.519593238830566406e-01
1.902000000000000000e+03 1.817893981933593750e+01 2.461760520935058594e+00 2.035380125045776367e+00 2.899507761001586914e+00 1.480466365814208984e+00 -2.273981332778930664e+00
1.903000000000000000e+03 1.540377712249755859e+01 3.269385576248168945e+00 9.238387346267700195e-01 1.003950595855712891e+00 5.783367753028869629e-01 -6.136737465858459473e-01
1.904000000000000000e+03 1.604876136779785156e+01 3.381506204605102539e+00 1.453491449356079102e+00 1.485805988311767578e+00 8.817892074584960938e-01 -1.059490561485290527e+00
1.905000000000000000e+03 1.407343482971191406e+01 5.234942436218261719e+00 1.569883942604064941e+00 1.416474819183349609e+00 8.959076404571533203e-01 -8.145645856857299805e-01
1.906000000000000000e+03 1.479526424407958984e+01 3.071254968643188477e+00 4.608592987060546875e-01 6.671660542488098145e-01 3.384076058864593506e-01 -2.535652816295623779e-01
1.907000000000000000e+03 6.393872737884521484e+00 -4.302218437194824219e+00 3.176529705524444580e-02 1.596925407648086548e-01 5.743734911084175110e-02 7.595606893301010132e-02
1.908000000000000000e+03 8.617273330688476562e+00 -4.788100242614746094e+00 1.735087782144546509e-01 2.187705785036087036e-01 1.176838055253028870e-01 3.049288094043731689e-01
1.909000000000000000e+03 1.727215957641601562e+01 -4.857094287872314453e+00 1.693366885185241699e+00 2.344931215047836304e-01 5.783579945564270020e-01 9.079207777976989746e-01
1.910000000000000000e+03 1.785882759094238281e+01 -4.387095928192138672e+00 1.870171189308166504e+00 3.207506239414215088e-01 6.572765111923217773e-01 8.809121251106262207e-01
1.911000000000000000e+03 1.057304096221923828e+01 -4.745573997497558594e+00 3.990784883499145508e-01 1.422716677188873291e-01 1.624050438404083252e-01 4.646242260932922363e-01
1.912000000000000000e+03 1.049102497100830078e+01 -4.059998989105224609e+00 3.595122098922729492e-01 1.020300537347793579e-01 1.384626775979995728e-01 3.748039603233337402e-01
1.913000000000000000e+03 1.513243579864501953e+01 4.107233524322509766e+00 1.461942791938781738e+00 1.297319889068603516e+00 8.277787566184997559e-01 -9.158948659896850586e-01
1.914000000000000000e+03 1.123545360565185547e+01 -4.773603916168212891e+00 4.898946285247802734e-01 1.171568930149078369e-01 1.821154654026031494e-01 5.209476947784423828e-01
1.915000000000000000e+03 5.183397293090820312e+00 -5.420026302337646484e+00 -1.637197658419609070e-02 1.927811950445175171e-01 5.292276293039321899e-02 1.858741603791713715e-02
1.916000000000000000e+03 6.630095958709716797e+00 -5.113856792449951172e+00 3.361732512712478638e-02 2.360988557338714600e-01 8.091485500335693359e-02 1.286159455776214600e-01
1.917000000000000000e+03 7.086216926574707031e+00 -4.202285766601562500e+00 5.813093110918998718e-02 1.668338477611541748e-01 6.748943030834197998e-02 1.226250529289245605e-01
1.918000000000000000e+03 7.963647842407226562e+00 -4.873282909393310547e+00 1.171282380819320679e-01 2.301782667636871338e-01 1.041919514536857605e-01 2.423148751258850098e-01
1.919000000000000000e+03 6.797076225280761719e+00 4.391415596008300781e+00 -1.655483096837997437e-01 -2.079184353351593018e-01 -1.120400205254554749e-01 9.136710166931152344e-01
1.920000000000000000e+03 4.442694187164306641e+00 5.505312442779541016e+00 3.452964592725038528e-03 -4.394180774688720703e-01 -1.307895332574844360e-01 7.895461916923522949e-01
1.921000000000000000e+03 4.353121280670166016e+00 4.620509624481201172e+00 -1.145115271210670471e-01 -3.807582557201385498e-01 -1.485809385776519775e-01 7.913826107978820801e-01
1.922000000000000000e+03 4.829347133636474609e+00 6.251053333282470703e+00 1.414311677217483521e-01 -4.130757451057434082e-01 -8.149337023496627808e-02 7.859107255935668945e-01
1.923000000000000000e+03 1.235725784301757812e+01 4.545938014984130859e+00 7.048691511154174805e-01 4.545907974243164062e-01 3.478379845619201660e-01 1.102635189890861511e-01
1.924000000000000000e+03 5.216394424438476562e+00 5.465299129486083984e+00 4.064776003360748291e-02 -3.287202715873718262e-01 -8.642175048589706421e-02 8.352655768394470215e-01
1.925000000000000000e+03 9.960139274597167969e+00 4.007878303527832031e+00 -1.086037307977676392e-01 -6.969274580478668213e-02 -5.348894372582435608e-02 7.642607092857360840e-01
1.926000000000000000e+03 6.936692714691162109e+00 5.265308856964111328e+00 9.119492769241333008e-02 -1.878799051046371460e-01 -2.900549210608005524e-02 8.677144050598144531e-01
1.927000000000000000e+03 1.074078559875488281e+01 3.930213451385498047e+00 -4.221106693148612976e-02 4.026834212709218264e-04 -1.254251506179571152e-02 6.406285762786865234e-01
1.928000000000000000e+03 9.280483245849609375e+00 4.845333099365234375e+00 1.998141705989837646e-01 -1.230028085410594940e-02 5.625416710972785950e-02 7.426291704177856445e-01
1.929000000000000000e+03 1.191800975799560547e+01 -4.800611019134521484e+00 5.966818928718566895e-01 8.423975110054016113e-02 2.042765021324157715e-01 5.653390884399414062e-01
1.930000000000000000e+03 1.156735324859619141e+01 4.612553119659423828e+00 5.275124907493591309e-01 2.884299755096435547e-01 2.447827309370040894e-01 3.217210471630096436e-01
1.931000000000000000e+03 1.468801212310791016e+01 -4.235445499420166016e+00 1.079843640327453613e+00 -1.579113304615020752e-02 3.192157447338104248e-01 5.871089100837707520e-01
1.932000000000000000e+03 1.261510944366455078e+01 -4.823019504547119141e+00 7.134273052215576172e-01 5.823571607470512390e-02 2.314989119768142700e-01 6.163160800933837891e-01
1.933000000000000000e+03 1.402237129211425781e+01 -4.852415561676025391e+00 9.777174592018127441e-01 1.396633591502904892e-02 2.975051403045654297e-01 6.880923509597778320e-01
1.934000000000000000e+03 7.174906253814697266e+00 6.123592853546142578e+00 3.169267475605010986e-01 -1.338223367929458618e-01 5.493132397532463074e-02 7.721149325370788574e-01
1.935000000000000000e+03 2.450363731384277344e+01 -3.430245399475097656e+00 4.222963333129882812e+00 3.511627912521362305e+00 2.320377349853515625e+00 -2.661481380462646484e+00
1.936000000000000000e+03 2.488667678833007812e+01 -2.375068664550781250e+00 5.774708747863769531e+00 2.452227592468261719e+00 2.468080997467041016e+00 -2.895500898361206055e+00
1.937000000000000000e+03 1.078962898254394531e+01 4.685273647308349609e+00 3.932300209999084473e-01 1.477639824151992798e-01 1.622982025146484375e-01 5.033002495765686035e-01
1.938000000000000000e+03 8.516030311584472656e+00 4.954322338104248047e+00 1.495715230703353882e-01 -7.154361158609390259e-02 2.340837381780147552e-02 8.157162666320800781e-01
1.939000000000000000e+03 2.253322219848632812e+01 -1.415488433837890625e+01 -8.351202011108398438e-01 4.843387305736541748e-01 -1.052344366908073425e-01 6.077939271926879883e-01
1.940000000000000000e+03 3.210039138793945312e+01 -1.417725086212158203e+01 3.303792774677276611e-01 1.747784852981567383e+00 6.234492659568786621e-01 -1.193510413169860840e+00
1.941000000000000000e+03 3.825766754150390625e+01 -1.935299682617187500e+01 -4.737784266471862793e-01 1.017111015319824219e+01 2.909199476242065430e+00 1.434107065200805664e+00
1.942000000000000000e+03 1.946913337707519531e+01 -1.363038921356201172e+01 -4.866838157176971436e-01 2.947553396224975586e-01 -5.757854506373405457e-02 8.585261106491088867e-01
1.943000000000000000e+03 1.707482147216796875e+01 -1.377497577667236328e+01 -2.697315216064453125e-01 -4.611439630389213562e-02 -9.475377947092056274e-02 1.015792846679687500e+00
1.944000000000000000e+03 2.451000595092773438e+01 -1.310871124267578125e+01 -2.221393436193466187e-01 5.596293210983276367e-01 1.012469902634620667e-01 3.167129456996917725e-01
1.945000000000000000e+03 2.546276855468750000e+01 -3.760899066925048828e+00 4.012516498565673828e+00 2.796240568161010742e+00 2.042627096176147461e+00 -2.335493087768554688e+00
1.946000000000000000e+03 4.105186462402343750e+01 -2.223217964172363281e+01 4.926829040050506592e-01 7.388427257537841797e+00 2.364333152770996094e+00 -2.273317575454711914e-01
1.947000000000000000e+03 4.613281250000000000e+01 5.615346431732177734e+00 9.128770232200622559e-01 3.285902976989746094e+00 1.259634017944335938e+00 2.576918601989746094e+00
1.948000000000000000e+03 4.651766586303710938e+01 4.458873271942138672e+00 -2.106409892439842224e-02 2.440077543258666992e+00 7.257040143013000488e-01 2.454269170761108398e+00
1.949000000000000000e+03 4.568172073364257812e+01 6.537385940551757812e+00 1.290211796760559082e+00 4.114190101623535156e+00 1.621320605278015137e+00 2.762714147567749023e+00
1.950000000000000000e+03 4.821446990966796875e+01 -3.003138923645019531e+01 -7.683444023132324219e-02 1.700763463973999023e+00 4.871787130832672119e-01 -8.165839910507202148e-01
1.951000000000000000e+03 2.578655624389648438e+01 -1.386052608489990234e+01 -4.994195997714996338e-01 3.771659135818481445e-01 -3.667610138654708862e-02 2.348340898752212524e-01
1.952000000000000000e+03 2.466614151000976562e+01 -1.407844257354736328e+01 -7.988849878311157227e-01 4.488018453121185303e-01 -1.050249412655830383e-01 4.004138708114624023e-01
1.953000000000000000e+03 6.062705993652343750e+01 1.644306778907775879e+00 -1.249830245971679688e+00 1.519166946411132812e+00 8.080098032951354980e-02 -1.124723076820373535e+00
1.954000000000000000e+03 5.655218124389648438e+01 2.818902254104614258e+00 -1.371602058410644531e+00 4.897402524948120117e-01 -2.645585536956787109e-01 -2.878952026367187500e-01
1.955000000000000000e+03 4.416188049316406250e+01 4.112438678741455078e+00 -3.584960103034973145e-01 5.735143661499023438e+00 1.612994313240051270e+00 3.202229261398315430e+00
1.956000000000000000e+03 3.965431594848632812e+01 -2.163779640197753906e+01 5.993034839630126953e-01 8.572089195251464844e+00 2.751417875289916992e+00 5.525475144386291504e-01
1.957000000000000000e+03 2.618960189819335938e+01 -3.733283758163452148e+00 4.184950828552246094e+00 2.183789968490600586e+00 1.910622239112854004e+00 -2.355918884277343750e+00
1.958000000000000000e+03 1.255543613433837891e+01 -1.294026565551757812e+01 4.193378984928131104e-01 4.130893349647521973e-01 2.497281730175018311e-01 1.698971271514892578e+00
1.959000000000000000e+03 1.373152637481689453e+01 1.169946193695068359e+01 1.403564095497131348e+00 4.140595436096191406e+00 1.663247942924499512e+00 -1.670689582824707031e+00
1.960000000000000000e+03 1.313444614410400391e+01 1.304125213623046875e+01 1.253500580787658691e+00 4.041531085968017578e+00 1.588509559631347656e+00 -1.456908106803894043e+00
1.961000000000000000e+03 1.848772811889648438e+01 -1.331087779998779297e+01 -2.581989169120788574e-01 1.841815561056137085e-01 -2.220520377159118652e-02 9.633846879005432129e-01
1.962000000000000000e+03 3.581715393066406250e+01 -1.511747074127197266e+01 -6.964761614799499512e-01 7.400155544281005859e+00 2.011103868484497070e+00 -1.266758918762207031e+00
1.963000000000000000e+03 2.824995422363281250e+01 -5.072689056396484375e+00 3.635618925094604492e+00 1.025250673294067383e+00 1.398260831832885742e+00 -2.006505966186523438e+00
1.964000000000000000e+03 2.884444618225097656e+01 -6.273902893066406250e+00 3.333000898361206055e+00 1.023259162902832031e+00 1.306877970695495605e+00 -1.869480848312377930e+00
1.965000000000000000e+03 7.352130889892578125e+01 2.835728263854980469e+01 9.413080662488937378e-02 5.950035095214843750e+00 1.813249826431274414e+00 -3.256379067897796631e-02
1.966000000000000000e+03 4.770542144775390625e+01 2.265883827209472656e+01 6.623535156250000000e-01 4.657132148742675781e+00 1.595845818519592285e+00 1.100691080093383789e+00
1.967000000000000000e+03 7.368753814697265625e+01 -2.902549934387207031e+01 -2.761631906032562256e-01 9.479879379272460938e+00 2.761114835739135742e+00 -1.302127003669738770e+00
1.968000000000000000e+03 4.743328094482421875e+01 2.093603134155273438e+01 8.097626566886901855e-01 4.818353176116943359e+00 1.688434839248657227e+00 1.301359891891479492e+00
1.969000000000000000e+03 4.544855117797851562e+01 1.825090217590332031e+01 8.429702520370483398e-01 5.656160354614257812e+00 1.949739217758178711e+00 1.568086266517639160e+00
1.970000000000000000e+03 4.868481826782226562e+01 1.903416824340820312e+01 1.180921435356140137e+00 4.524830341339111328e+00 1.711725592613220215e+00 1.534910559654235840e+00
1.971000000000000000e+03 4.336210632324218750e+01 -2.520225715637207031e+01 5.461350679397583008e-01 4.077671527862548828e+00 1.387141942977905273e+00 -1.269869685173034668e+00
1.972000000000000000e+03 7.448804473876953125e+01 2.143226814270019531e+01 1.288387626409530640e-01 6.167901039123535156e+00 1.889021992683410645e+00 -2.590058445930480957e-01
1.973000000000000000e+03 7.516466522216796875e+01 2.418145942687988281e+01 8.694501966238021851e-02 6.181781768798828125e+00 1.880617976188659668e+00 -1.443737894296646118e-01
1.974000000000000000e+03 7.543443298339843750e+01 1.870186233520507812e+01 8.828669041395187378e-02 6.417742729187011719e+00 1.951808929443359375e+00 -3.353092968463897705e-01
1.975000000000000000e+03 7.521233367919921875e+01 1.169825363159179688e+01 2.045793272554874420e-02 6.860553264617919922e+00 2.064303398132324219e+00 -5.289564728736877441e-01
1.976000000000000000e+03 7.381539154052734375e+01 1.769326972961425781e+01 1.532953530550003052e-01 6.171786308288574219e+00 1.897524476051330566e+00 -4.448364973068237305e-01
1.977000000000000000e+03 7.369973754882812500e+01 1.475655555725097656e+01 1.089810207486152649e-01 6.295443534851074219e+00 1.921327352523803711e+00 -5.741721987724304199e-01
1.978000000000000000e+03 7.382353973388671875e+01 -2.277312088012695312e+01 5.059599876403808594e-01 1.011977577209472656e+01 3.187720775604248047e+00 -8.793184757232666016e-01
1.979000000000000000e+03 7.575709533691406250e+01 -2.100753593444824219e+01 3.578093945980072021e-01 8.694334983825683594e+00 2.715643167495727539e+00 -7.609453201293945312e-01
1.980000000000000000e+03 7.485919952392578125e+01 -2.261349105834960938e+01 4.095572829246520996e-01 9.400786399841308594e+00 2.943103075027465820e+00 -9.693536758422851562e-01
1.981000000000000000e+03 7.430207824707031250e+01 7.356999874114990234e+00 -1.347790211439132690e-01 7.017745494842529297e+00 2.064889907836914062e+00 -5.633362531661987305e-01
1.982000000000000000e+03 7.580912780761718750e+01 4.634957313537597656e+00 -1.691103130578994751e-01 7.641141414642333984e+00 2.241609334945678711e+00 -2.846721410751342773e-01
1.983000000000000000e+03 7.417685699462890625e+01 -7.094624638557434082e-02 -4.303087294101715088e-01 7.711724281311035156e+00 2.184424638748168945e+00 2.281465940177440643e-02
1.984000000000000000e+03 7.485549163818359375e+01 2.579055976867675781e+01 8.731810748577117920e-02 6.117135047912597656e+00 1.861335992813110352e+00 -9.602722525596618652e-02
1.985000000000000000e+03 7.333316040039062500e+01 2.557922554016113281e+01 1.362631916999816895e-01 5.937563419342041016e+00 1.822147965431213379e+00 -1.155619695782661438e-01
1.986000000000000000e+03 7.415589904785156250e+01 -8.205763816833496094e+00 -5.965566635131835938e-02 8.624185562133789062e+00 2.569358825683593750e+00 6.056206822395324707e-01
1.987000000000000000e+03 7.571079254150390625e+01 -6.923666477203369141e+00 -1.158832013607025146e-01 8.103346824645996094e+00 2.396239042282104492e+00 6.682782769203186035e-01
1.988000000000000000e+03 7.386809539794921875e+01 1.026002693176269531e+01 -2.070087380707263947e-02 6.645998001098632812e+00 1.987589120864868164e+00 -6.473941206932067871e-01
1.989000000000000000e+03 7.554919433593750000e+01 -1.340014362335205078e+01 4.409288167953491211e-01 8.331641197204589844e+00 2.631771087646484375e+00 3.537500202655792236e-01
1.990000000000000000e+03 7.220531463623046875e+01 -1.838593101501464844e+01 6.146983504295349121e-01 1.179079341888427734e+01 3.721647500991821289e+00 -7.562878727912902832e-01
1.991000000000000000e+03 7.554285430908203125e+01 -1.186240768432617188e+01 2.926190793514251709e-01 8.286136627197265625e+00 2.573626756668090820e+00 5.344062447547912598e-01
1.992000000000000000e+03 7.399856567382812500e+01 -1.445979690551757812e+01 7.153257131576538086e-01 9.462954521179199219e+00 3.053484201431274414e+00 3.273671120405197144e-02
1.993000000000000000e+03 7.574184417724609375e+01 -1.045880031585693359e+01 1.558647006750106812e-01 8.115303039550781250e+00 2.481350183486938477e+00 6.566511392593383789e-01
1.994000000000000000e+03 7.571357727050781250e+01 -1.891081047058105469e+01 3.719712793827056885e-01 8.580427169799804688e+00 2.685719728469848633e+00 -4.912862181663513184e-01
1.995000000000000000e+03 7.149433135986328125e+01 -3.311458587646484375e+00 -5.700838565826416016e-01 7.833289623260498047e+00 2.178961753845214844e+00 -4.137092828750610352e-02
1.996000000000000000e+03 7.448762512207031250e+01 -5.503242969512939453e+00 -2.645604312419891357e-01 8.215624809265136719e+00 2.385319232940673828e+00 5.224282741546630859e-01
1.997000000000000000e+03 7.500315093994140625e+01 2.286194562911987305e+00 -2.796684801578521729e-01 7.677381992340087891e+00 2.219314098358154297e+00 -1.331888288259506226e-01
1.998000000000000000e+03 7.395806121826171875e+01 -2.690777587890625000e+01 2.667492926120758057e-01 9.598171234130859375e+00 2.959476232528686523e+00 -1.377255678176879883e+00
1.999000000000000000e+03 7.516164398193359375e+01 -8.782785415649414062e+00 1.279489230364561081e-02 8.281745910644531250e+00 2.488362312316894531e+00 7.029554247856140137e-01
2.000000000000000000e+03 7.407633209228515625e+01 -2.584307432174682617e+00 -4.019038081169128418e-01 7.917712211608886719e+00 2.254742383956909180e+00 2.683784961700439453e-01
2.001000000000000000e+03 3.059015655517578125e+01 -1.309400177001953125e+01 9.029280543327331543e-01 9.226711988449096680e-01 5.476797819137573242e-01 -8.011047840118408203e-01
2.002000000000000000e+03 7.449128723144531250e+01 5.967659473419189453e+00 -2.047335356473922729e-01 7.186086177825927734e+00 2.094405651092529297e+00 -4.937271773815155029e-01
2.003000000000000000e+03 7.464419555664062500e+01 4.578459262847900391e+00 -2.514394521713256836e-01 7.372520446777343750e+00 2.136324405670166016e+00 -3.896877169609069824e-01
2.004000000000000000e+03 7.384194946289062500e+01 3.258747482299804688e+01 2.456371858716011047e-02 6.034877300262451172e+00 1.817832350730895996e+00 2.913249470293521881e-02
2.005000000000000000e+03 7.359024047851562500e+01 -3.112342262268066406e+01 -6.586645245552062988e-01 9.240474700927734375e+00 2.574542999267578125e+00 -1.061231374740600586e+00
2.006000000000000000e+03 7.363049316406250000e+01 1.330166339874267578e+01 8.382006734609603882e-02 6.380836486816406250e+00 1.939396977424621582e+00 -6.219001412391662598e-01
2.007000000000000000e+03 7.367802429199218750e+01 1.178926086425781250e+01 3.740063309669494629e-02 6.493048667907714844e+00 1.959134817123413086e+00 -6.453369259834289551e-01
2.008000000000000000e+03 7.514768981933593750e+01 -2.634698295593261719e+01 2.003423571586608887e-01 9.293611526489257812e+00 2.848186016082763672e+00 -1.352696657180786133e+00
2.009000000000000000e+03 7.342521667480468750e+01 2.061533164978027344e+01 1.698658615350723267e-01 6.031797885894775391e+00 1.860499143600463867e+00 -3.208549320697784424e-01
2.010000000000000000e+03 7.262947845458984375e+01 -3.220913696289062500e+01 -8.117083907127380371e-01 8.846832275390625000e+00 2.410537242889404297e+00 -7.082747817039489746e-01
2.011000000000000000e+03 7.541055297851562500e+01 -3.266276550292968750e+01 -4.899565577507019043e-01 9.505662918090820312e+00 2.704711675643920898e+00 -9.066030383110046387e-01
2.012000000000000000e+03 4.538735580444335938e+01 -2.688769912719726562e+01 4.470622539520263672e-01 2.753351449966430664e+00 9.601241350173950195e-01 -1.175321936607360840e+00
2.013000000000000000e+03 9.501254081726074219e+00 2.845219421386718750e+01 -2.904999554157257080e-01 2.124972343444824219e+00 5.503417253494262695e-01 -1.274168491363525391e+00
2.014000000000000000e+03 1.884537315368652344e+01 -1.243698215484619141e+01 -3.896608483046293259e-03 3.100097179412841797e-01 9.183393418788909912e-02 1.017461776733398438e+00
2.015000000000000000e+03 4.660538673400878906e+00 2.845785522460937500e+01 -9.175387024879455566e-02 1.490625143051147461e+00 4.196613729000091553e-01 -1.041563510894775391e+00
2.016000000000000000e+03 5.447476387023925781e+00 -9.714126586914062500e+00 -1.758560985326766968e-01 7.487587928771972656e-01 1.718707978725433350e-01 1.064280942082405090e-01
2.017000000000000000e+03 3.711573028564453125e+01 -1.236208248138427734e+01 9.101877808570861816e-01 8.463137626647949219e+00 2.811997652053833008e+00 -7.265304327011108398e-01
2.018000000000000000e+03 7.459338378906250000e+01 -3.530313873291015625e+01 -5.506002306938171387e-01 9.067465782165527344e+00 2.555059671401977539e+00 -5.732405781745910645e-01
2.019000000000000000e+03 9.603774070739746094e+00 2.450633430480957031e+01 1.307227611541748047e-01 2.313875198364257812e+00 7.333793640136718750e-01 -1.314587831497192383e+00
2.020000000000000000e+03 1.207048892974853516e+01 2.575905418395996094e+01 1.186979003250598907e-02 2.816978454589843750e+00 8.486545085906982422e-01 -1.045642614364624023e+00
2.021000000000000000e+03 1.207924747467041016e+01 1.604353713989257812e+01 9.883314967155456543e-01 3.760377645492553711e+00 1.424612760543823242e+00 -1.194107294082641602e+00
2.022000000000000000e+03 1.044439601898193359e+01 1.749987411499023438e+01 8.373165726661682129e-01 2.772635698318481445e+00 1.082985639572143555e+00 -1.110930442810058594e+00
2.023000000000000000e+03 4.480895042419433594e+00 2.123048400878906250e+01 1.670826524496078491e-01 4.424314200878143311e-01 1.828542202711105347e-01 -9.121272563934326172e-01
2.024000000000000000e+03 4.150898456573486328e+00 1.546442413330078125e+01 3.061118125915527344e-01 -3.474103510379791260e-01 -1.238955557346343994e-02 -3.570804297924041748e-01
2.025000000000000000e+03 5.875618457794189453e+00 2.827206802368164062e+01 -1.184871867299079895e-01 1.623346805572509766e+00 4.514578878879547119e-01 -1.182786226272583008e+00
2.026000000000000000e+03 4.523161888122558594e+00 2.700269508361816406e+01 -3.450391814112663269e-02 1.269355773925781250e+00 3.704555332660675049e-01 -1.058009386062622070e+00
2.027000000000000000e+03 7.186180591583251953e+00 -1.326320171356201172e+01 -1.279465705156326294e-01 2.088032007217407227e+00 5.880256295204162598e-01 6.715738177299499512e-01
2.028000000000000000e+03 6.384419918060302734e+00 3.128188514709472656e+01 -2.829330861568450928e-01 1.894864797592163086e+00 4.835795164108276367e-01 -1.040554165840148926e+00
2.029000000000000000e+03 6.255692005157470703e+00 1.735219573974609375e+01 4.430333971977233887e-01 7.397454977035522461e-01 3.548336625099182129e-01 -7.636964321136474609e-01
2.030000000000000000e+03 4.994497299194335938e+00 1.387188720703125000e+01 4.487680196762084961e-01 -1.136119589209556580e-01 1.005468145012855530e-01 -2.191190719604492188e-01
2.031000000000000000e+03 6.208162784576416016e+00 2.182851028442382812e+01 2.463465780019760132e-01 1.115507960319519043e+00 4.085563719272613525e-01 -1.144408941268920898e+00
2.032000000000000000e+03 5.586221218109130859e+00 1.965806579589843750e+01 2.729343771934509277e-01 6.460148692131042480e-01 2.756847739219665527e-01 -9.217732548713684082e-01
2.033000000000000000e+03 5.640990257263183594e+00 2.093731307983398438e+01 2.558912038803100586e-01 8.234282135963439941e-01 3.237958252429962158e-01 -1.030557036399841309e+00
2.034000000000000000e+03 4.595903778076171875e+01 1.056623458862304688e+01 2.025178432464599609e+00 4.882721900939941406e+00 2.072370052337646484e+00 2.643561363220214844e+00
2.035000000000000000e+03 4.926873207092285156e+00 1.038765144348144531e+01 4.344477355480194092e-01 -3.801860511302947998e-01 1.627850905060768127e-02 2.892387211322784424e-01
2.036000000000000000e+03 4.601091384887695312e+00 -8.210206985473632812e+00 -1.098490133881568909e-01 3.786284327507019043e-01 8.063382655382156372e-02 -2.926862798631191254e-02
2.037000000000000000e+03 5.066507339477539062e+00 9.293806076049804688e+00 4.396330416202545166e-01 -3.826411068439483643e-01 1.709757745265960693e-02 4.573917090892791748e-01
2.038000000000000000e+03 5.836231708526611328e+00 -1.343138790130615234e+01 -1.446227133274078369e-01 1.836438417434692383e+00 5.075446963310241699e-01 1.732547730207443237e-01
2.039000000000000000e+03 4.612529754638671875e+00 7.807374954223632812e+00 2.562081217765808105e-01 -5.174481868743896484e-01 -7.837201654911041260e-02 6.354947090148925781e-01
2.040000000000000000e+03 6.947842597961425781e+00 -1.189474678039550781e+01 -2.156873494386672974e-01 1.549368143081665039e+00 4.001042544841766357e-01 4.977769255638122559e-01
2.041000000000000000e+03 5.527713775634765625e+01 3.152155637741088867e+00 -1.352578759193420410e+00 4.631291627883911133e-01 -2.668348848819732666e-01 -1.208612099289894104e-01
2.042000000000000000e+03 5.341112518310546875e+01 5.059208393096923828e+00 -2.596227228641510010e-01 6.171531081199645996e-01 1.072591170668601990e-01 6.113469228148460388e-02
2.043000000000000000e+03 4.581874370574951172e+00 -7.342692375183105469e+00 -7.085774093866348267e-02 2.957496643066406250e-01 6.746757775545120239e-02 -2.293692342936992645e-02
2.044000000000000000e+03 5.288949012756347656e+00 3.523997879028320312e+01 -3.272975981235504150e-01 2.146113872528076172e+00 5.456448793411254883e-01 -6.688089966773986816e-01
2.045000000000000000e+03 4.103914260864257812e+00 -6.185517787933349609e+00 -2.532464824616909027e-02 1.540761888027191162e-01 3.862546384334564209e-02 -4.035677388310432434e-02
2.046000000000000000e+03 4.518842697143554688e+01 1.695491790771484375e+01 1.040617465972900391e+00 5.910655498504638672e+00 2.085381984710693359e+00 1.802416205406188965e+00
2.047000000000000000e+03 4.883113861083984375e+01 2.069563484191894531e+01 9.778656959533691406e-01 4.498688697814941406e+00 1.642966270446777344e+00 1.339804053306579590e+00
2.048000000000000000e+03 1.451434993743896484e+01 7.648453235626220703e+00 2.095225811004638672e+00 3.020152091979980469e+00 1.534613370895385742e+00 -1.751612067222595215e+00
2.049000000000000000e+03 5.454099655151367188e+01 4.709681987762451172e+00 -4.934449493885040283e-01 6.498335599899291992e-01 4.691657423973083496e-02 -1.687869131565093994e-01
2.050000000000000000e+03 4.063068008422851562e+01 -2.337384796142578125e+01 9.178360104560852051e-01 7.061968803405761719e+00 2.393941402435302734e+00 -2.222359627485275269e-01
2.051000000000000000e+03 6.305139064788818359e+00 -9.706727027893066406e+00 -1.852136254310607910e-01 8.903286457061767578e-01 2.115345001220703125e-01 2.398711740970611572e-01
2.052000000000000000e+03 1.401254463195800781e+01 8.843178749084472656e+00 1.894104599952697754e+00 3.217041730880737305e+00 1.533343911170959473e+00 -1.687400341033935547e+00
2.053000000000000000e+03 1.431813812255859375e+01 1.042288494110107422e+01 1.658257603645324707e+00 4.145569324493408203e+00 1.741148114204406738e+00 -1.899662613868713379e+00
2.054000000000000000e+03 1.064382171630859375e+01 -3.542378616333007812e+01 -4.223155081272125244e-01 -3.054505586624145508e-01 -2.183298170566558838e-01 2.508800923824310303e-01
2.055000000000000000e+03 1.329566478729248047e+01 -3.546253585815429688e+01 -5.849109888076782227e-01 -4.047540128231048584e-01 -2.968994975090026855e-01 3.952451050281524658e-01
2.056000000000000000e+03 1.591263866424560547e+01 6.645133018493652344e+00 2.420674324035644531e+00 3.620124816894531250e+00 1.812239766120910645e+00 -2.344663143157958984e+00
2.057000000000000000e+03 3.478935623168945312e+01 -1.572748947143554688e+01 -1.116276979446411133e+00 5.429205417633056641e+00 1.293878555297851562e+00 -1.484624505043029785e+00
2.058000000000000000e+03 3.703071594238281250e+01 -1.730584335327148438e+01 -9.583778977394104004e-01 9.365406036376953125e+00 2.522108316421508789e+00 4.703022241592407227e-01
2.059000000000000000e+03 6.250627899169921875e+01 2.488861799240112305e+00 -9.479357600212097168e-01 2.782538414001464844e+00 5.503807663917541504e-01 -1.507728457450866699e+00
2.060000000000000000e+03 3.796537780761718750e+01 -1.041953277587890625e+01 1.506290674209594727e+00 9.344093322753906250e+00 3.255115270614624023e+00 -2.879451513290405273e-01
2.061000000000000000e+03 3.624926757812500000e+01 -1.327605438232421875e+01 4.946967363357543945e-01 7.396122455596923828e+00 2.367245674133300781e+00 -1.110315561294555664e+00
2.062000000000000000e+03 4.584629821777343750e+01 1.311639499664306641e+01 1.784640312194824219e+00 5.491980075836181641e+00 2.182986259460449219e+00 2.444345474243164062e+00
2.063000000000000000e+03 4.745073699951171875e+01 2.609869384765625000e+01 3.767843544483184814e-01 4.398457050323486328e+00 1.432572364807128906e+00 8.431084156036376953e-01
2.064000000000000000e+03 4.482210922241210938e+01 1.435493278503417969e+01 1.414101243019104004e+00 6.339257717132568359e+00 2.326007604598999023e+00 2.263817787170410156e+00
2.065000000000000000e+03 4.600228500366210938e+01 1.434579944610595703e+01 1.616948246955871582e+00 5.434347152709960938e+00 2.115388631820678711e+00 2.252128601074218750e+00
2.066000000000000000e+03 7.207785034179687500e+01 -1.709190368652343750e+01 8.971924781799316406e-01 1.173611640930175781e+01 3.789992809295654297e+00 -7.334834933280944824e-01
2.067000000000000000e+03 7.150637817382812500e+01 -1.171124935150146484e+01 6.929175257682800293e-01 1.060859107971191406e+01 3.390452623367309570e+00 -1.726694405078887939e-01
2.068000000000000000e+03 6.112704849243164062e+01 2.927990913391113281e+00 -8.496156334877014160e-01 2.049164533615112305e+00 3.598646521568298340e-01 -1.299390792846679688e+00
2.069000000000000000e+03 6.722300720214843750e+01 -4.105391311645507812e+01 -2.060404419898986816e-02 4.221924781799316406e+00 1.260396242141723633e+00 1.634850651025772095e-01
2.070000000000000000e+03 1.068289661407470703e+01 -6.202660560607910156e+00 4.107128381729125977e-01 2.725346386432647705e-01 2.049742490053176880e-01 6.723154187202453613e-01
2.071000000000000000e+03 5.973223876953125000e+01 3.327061891555786133e+00 -7.716407179832458496e-01 1.458103775978088379e+00 2.059389054775238037e-01 -1.064757943153381348e+00
2.072000000000000000e+03 5.836356353759765625e+01 3.712741374969482422e+00 -7.390467524528503418e-01 1.062501907348632812e+00 9.703654050827026367e-02 -7.893310189247131348e-01
2.073000000000000000e+03 4.353542709350585938e+01 6.036806106567382812e+00 1.037650227546691895e+00 6.682415962219238281e+00 2.316019773483276367e+00 3.058273077011108398e+00
2.074000000000000000e+03 4.637650299072265625e+01 9.272830009460449219e+00 1.993540167808532715e+00 4.189786434173583984e+00 1.854997992515563965e+00 2.544705867767333984e+00
2.075000000000000000e+03 7.342812347412109375e+01 -2.376990509033203125e+01 5.802168250083923340e-01 1.015766429901123047e+01 3.221364498138427734e+00 -9.915161132812500000e-01
2.076000000000000000e+03 5.235446548461914062e+01 5.518634319305419922e+00 4.369241371750831604e-02 7.181143760681152344e-01 2.285420447587966919e-01 2.097753882408142090e-01
2.077000000000000000e+03 7.365714263916015625e+01 -2.166864585876464844e+01 5.330337285995483398e-01 1.019955253601074219e+01 3.219775915145874023e+00 -7.902314662933349609e-01
2.078000000000000000e+03 5.089423751831054688e+01 4.904932498931884766e+00 -3.221163451671600342e-01 5.304663181304931641e-01 6.250498443841934204e-02 4.627373814582824707e-01
2.079000000000000000e+03 2.681926345825195312e+01 -1.336810016632080078e+01 -1.403686404228210449e-01 3.595219850540161133e-01 6.574600934982299805e-02 4.786187410354614258e-02
2.080000000000000000e+03 4.491197204589843750e+01 6.078598499298095703e+00 1.223638296127319336e+00 4.788893222808837891e+00 1.803759455680847168e+00 2.797483444213867188e+00
2.081000000000000000e+03 5.458774948120117188e+01 7.112187862396240234e+00 6.481235027313232422e-01 1.045296192169189453e+00 5.080258846282958984e-01 -8.390916138887405396e-02
2.082000000000000000e+03 7.164096069335937500e+01 -1.306821727752685547e+01 1.018828153610229492e+00 1.101913166046142578e+01 3.611387968063354492e+00 -3.108495175838470459e-01
2.083000000000000000e+03 7.279758453369140625e+01 -1.173443222045898438e+01 5.779396891593933105e-01 9.842597961425781250e+00 3.126161336898803711e+00 1.849016696214675903e-01
2.084000000000000000e+03 1.338484096527099609e+01 3.547156524658203125e+01 -1.039543032646179199e+00 1.494025349617004395e+00 1.363446712493896484e-01 -5.349102616310119629e-01
2.085000000000000000e+03 9.109375953674316406e+00 2.120495796203613281e+01 4.336680471897125244e-01 2.216276168823242188e+00 7.949832677841186523e-01 -1.240016579627990723e+00
2.086000000000000000e+03 3.922128295898437500e+01 -2.453239059448242188e+01 1.137719154357910156e+00 8.125070571899414062e+00 2.778836965560913086e+00 -1.629361212253570557e-01
2.087000000000000000e+03 3.451894378662109375e+01 -3.561756849288940430e+00 2.387212038040161133e+00 2.594271183013916016e+00 1.494444966316223145e+00 4.166553616523742676e-01
2.088000000000000000e+03 3.970637893676757812e+01 -5.043550968170166016e+00 1.565200567245483398e+00 1.090288352966308594e+01 3.740425348281860352e+00 1.662167906761169434e+00
2.089000000000000000e+03 1.149588012695312500e+01 1.399880123138427734e+01 1.150061726570129395e+00 3.067273616790771484e+00 1.265200614929199219e+00 -1.105398416519165039e+00
2.090000000000000000e+03 3.850471496582031250e+01 -6.364678859710693359e+00 2.053808689117431641e+00 9.284892082214355469e+00 3.401610136032104492e+00 8.020066022872924805e-01
2.091000000000000000e+03 1.163307476043701172e+01 1.940050697326660156e+01 6.608370542526245117e-01 3.532469749450683594e+00 1.257992029190063477e+00 -1.171189069747924805e+00
2.092000000000000000e+03 6.684716224670410156e+00 1.834216690063476562e+01 4.831126630306243896e-01 1.059331655502319336e+00 4.627332985401153564e-01 -9.026103019714355469e-01
2.093000000000000000e+03 3.878006744384765625e+01 -8.229434490203857422e-01 1.687901169061660767e-01 8.366382598876953125e+00 2.560551643371582031e+00 1.630582809448242188e+00
2.094000000000000000e+03 3.851887893676757812e+01 -2.938319778442382812e+01 -6.626731902360916138e-02 6.785435199737548828e+00 2.015750408172607422e+00 -5.843508839607238770e-01
2.095000000000000000e+03 3.313265991210937500e+01 -4.097814083099365234e+00 2.890411615371704102e+00 1.395223617553710938e+00 1.285690546035766602e+00 -2.572209537029266357e-01
2.096000000000000000e+03 3.029984283447265625e+01 -4.975644111633300781e+00 3.562441110610961914e+00 6.137021780014038086e-01 1.252843022346496582e+00 -1.562855124473571777e+00
2.097000000000000000e+03 6.906225585937500000e+01 -3.690771865844726562e+01 -5.704452991485595703e-01 5.791088104248046875e+00 1.566192865371704102e+00 2.433089911937713623e-01
2.098000000000000000e+03 7.164945220947265625e+01 -3.350188064575195312e+01 -9.954337477684020996e-01 8.140341758728027344e+00 2.143472433090209961e+00 -3.623986840248107910e-01
2.099000000000000000e+03 4.200850296020507812e+01 3.556160736083984375e+01 -1.375921845436096191e+00 2.618871450424194336e+00 3.728848993778228760e-01 1.466657370328903198e-01
2.100000000000000000e+03 3.341436767578125000e+01 -5.283966064453125000e+00 3.189228057861328125e+00 2.106883049011230469e+00 1.588833332061767578e+00 -4.349386990070343018e-01
2.101000000000000000e+03 5.894813060760498047e+00 1.261649513244628906e+01 5.863067507743835449e-01 1.232426688075065613e-01 2.128648161888122559e-01 -1.007700860500335693e-01
2.102000000000000000e+03 3.983057022094726562e+01 -3.099060440063476562e+01 -5.209542512893676758e-01 5.828192710876464844e+00 1.592171549797058105e+00 -8.269768357276916504e-01
2.103000000000000000e+03 7.184120178222656250e+01 4.103535461425781250e+01 -3.710411489009857178e-02 5.915536403656005859e+00 1.763529777526855469e+00 1.531752292066812515e-02
2.104000000000000000e+03 7.499699401855468750e+01 3.998928833007812500e+01 -2.416435629129409790e-03 6.193185329437255859e+00 1.857230663299560547e+00 3.988659381866455078e-02
2.105000000000000000e+03 7.400264739990234375e+00 1.672536087036132812e+01 6.151811480522155762e-01 1.200372576713562012e+00 5.446661114692687988e-01 -8.051472306251525879e-01
2.106000000000000000e+03 1.162209510803222656e+01 2.104968643188476562e+01 4.905009567737579346e-01 3.429140806198120117e+00 1.175892591476440430e+00 -1.139643073081970215e+00
2.107000000000000000e+03 3.853766632080078125e+01 -2.686208534240722656e+01 8.958585262298583984e-01 7.540666580200195312e+00 2.530957460403442383e+00 -3.857664763927459717e-01
2.108000000000000000e+03 4.716519927978515625e+01 2.949159049987792969e+01 -5.353817343711853027e-02 4.128607749938964844e+00 1.222520828247070312e+00 7.838847637176513672e-01
2.109000000000000000e+03 5.014611244201660156e+00 -3.504938507080078125e+01 -2.646448612213134766e-01 1.867962718009948730e+00 4.809953570365905762e-01 -4.011280089616775513e-02
2.110000000000000000e+03 7.320317077636718750e+01 -6.667627811431884766e+00 -2.465846538543701172e-01 8.551699638366699219e+00 2.491534471511840820e+00 3.913450837135314941e-01
2.111000000000000000e+03 7.014150238037109375e+01 -5.845936775207519531e+00 -2.348995506763458252e-01 8.285396575927734375e+00 2.415149211883544922e+00 -5.116211771965026855e-01
2.112000000000000000e+03 1.128676509857177734e+01 2.898008155822753906e+01 -4.308307468891143799e-01 2.237977027893066406e+00 5.421438813209533691e-01 -1.109227776527404785e+00
2.113000000000000000e+03 1.347220230102539062e+01 3.359870147705078125e+01 -9.661432504653930664e-01 1.585356593132019043e+00 1.857639998197555542e-01 -6.114205718040466309e-01
2.114000000000000000e+03 9.237069129943847656e+00 3.060966110229492188e+01 -4.514098167419433594e-01 2.031998872756958008e+00 4.741767346858978271e-01 -1.162536144256591797e+00
2.115000000000000000e+03 1.187219619750976562e+01 2.420310974121093750e+01 1.878721565008163452e-01 3.066797256469726562e+00 9.764008522033691406e-01 -1.055780768394470215e+00
2.116000000000000000e+03 1.050569057464599609e+01 2.274447441101074219e+01 3.277940452098846436e-01 2.749086380004882812e+00 9.230641126632690430e-01 -1.231680631637573242e+00
2.117000000000000000e+03 4.733845520019531250e+01 2.778395462036132812e+01 2.008123397827148438e-01 4.243461132049560547e+00 1.333281993865966797e+00 8.073951601982116699e-01
2.118000000000000000e+03 6.567641448974609375e+01 1.006460189819335938e+00 -1.109405398368835449e+00 4.845510005950927734e+00 1.120831489562988281e+00 -1.392265439033508301e+00
2.119000000000000000e+03 6.504060363769531250e+01 2.178662776947021484e+00 -1.013447284698486328e+00 4.371091842651367188e+00 1.007293343544006348e+00 -1.489226579666137695e+00
2.120000000000000000e+03 1.319017601013183594e+01 3.802449417114257812e+01 -1.043107032775878906e+00 1.395203113555908203e+00 1.056288033723831177e-01 -3.297304511070251465e-01
2.121000000000000000e+03 7.051213836669921875e+01 -3.504779434204101562e+01 -9.414146542549133301e-01 7.346153736114501953e+00 1.921421766281127930e+00 1.117212325334548950e-01
2.122000000000000000e+03 7.301051330566406250e+01 -3.453452301025390625e+01 -6.997851729393005371e-01 8.552716255187988281e+00 2.355879306793212891e+00 -4.267272353172302246e-01
2.123000000000000000e+03 1.555168628692626953e+01 -3.851148223876953125e+01 -1.366844326257705688e-01 -4.885595738887786865e-01 -1.875731945037841797e-01 2.203486710786819458e-01
2.124000000000000000e+03 4.156643676757812500e+01 -2.717798805236816406e+01 4.941470324993133545e-01 5.317092895507812500e+00 1.743371963500976562e+00 -1.177843093872070312e+00
2.125000000000000000e+03 1.270021724700927734e+01 3.053999710083007812e+01 -6.637749075889587402e-01 2.028063297271728516e+00 4.092864990234375000e-01 -8.686485290527343750e-01
2.126000000000000000e+03 7.382397651672363281e+00 2.951086807250976562e+01 -2.605484426021575928e-01 1.888239860534667969e+00 4.883074164390563965e-01 -1.223317861557006836e+00
2.127000000000000000e+03 3.146503067016601562e+01 -3.879273986816406250e+01 -1.225700020790100098e+00 3.163708686828613281e+00 5.814025998115539551e-01 5.636298656463623047e-01
2.128000000000000000e+03 2.066018104553222656e+01 -3.032989501953125000e+00 2.567347288131713867e+00 2.668528079986572266e+00 1.570762634277343750e+00 1.614360690116882324e+00
2.129000000000000000e+03 2.153407478332519531e+01 -3.255667686462402344e+00 1.968461632728576660e+00 4.917937278747558594e+00 2.065919637680053711e+00 1.041527152061462402e+00
2.130000000000000000e+03 2.098497962951660156e+01 -2.989109754562377930e+00 2.427755594253540039e+00 3.505878686904907227e+00 1.780090332031250000e+00 1.668005108833312988e+00
2.131000000000000000e+03 2.404791450500488281e+01 -3.778431653976440430e+00 3.354825973510742188e+00 3.984839916229248047e+00 2.201899766921997070e+00 -2.280458450317382812e+00
2.132000000000000000e+03 2.278511428833007812e+01 -2.836206912994384766e+00 2.474568843841552734e+00 6.994480133056640625e+00 2.840714693069458008e+00 -2.051079988479614258e+00
2.133000000000000000e+03 1.925952339172363281e+01 -3.700829982757568359e+00 2.288490295410156250e+00 8.335852026939392090e-01 9.366226792335510254e-01 1.060463428497314453e+00
2.134000000000000000e+03 9.409657478332519531e+00 -5.418749809265136719e+00 2.552773952484130859e-01 2.610537409782409668e-01 1.548993438482284546e-01 4.519013762474060059e-01
2.135000000000000000e+03 1.007058620452880859e+01 -6.107740402221679688e+00 3.321861624717712402e-01 2.948656380176544189e-01 1.881155371665954590e-01 6.106070876121520996e-01
2.136000000000000000e+03 1.543995189666748047e+01 -5.443652629852294922e+00 1.269557237625122070e+00 5.214687064290046692e-02 3.965112566947937012e-01 8.765506148338317871e-01
2.137000000000000000e+03 1.669508743286132812e+01 -5.369551181793212891e+00 1.530846476554870605e+00 1.740007996559143066e-01 5.114541649818420410e-01 9.549674391746520996e-01
2.138000000000000000e+03 1.725787734985351562e+01 -5.378128051757812500e+00 1.631678938865661621e+00 2.976008951663970947e-01 5.787839293479919434e-01 1.015975952148437500e+00
2.139000000000000000e+03 1.392809963226318359e+01 4.322708606719970703e+00 1.182106137275695801e+00 9.318810105323791504e-01 6.341961622238159180e-01 -4.092057347297668457e-01
2.140000000000000000e+03 1.129406642913818359e+01 -5.457505226135253906e+00 5.079474449157714844e-01 1.656571328639984131e-01 2.020813673734664917e-01 6.204075813293457031e-01
2.141000000000000000e+03 7.195431232452392578e+00 -6.733976364135742188e+00 1.565768755972385406e-02 4.436647891998291016e-01 1.377967447042465210e-01 2.764314711093902588e-01
2.142000000000000000e+03 8.178762435913085938e+00 -5.609471321105957031e+00 1.297132968902587891e-01 3.129092156887054443e-01 1.327867507934570312e-01 3.315928280353546143e-01
2.143000000000000000e+03 5.452295780181884766e+00 6.955410957336425781e+00 2.747579514980316162e-01 -3.386076986789703369e-01 -1.915493048727512360e-02 7.360873818397521973e-01
2.144000000000000000e+03 1.314453411102294922e+01 4.468924045562744141e+00 9.706953167915344238e-01 6.730536818504333496e-01 4.931246936321258545e-01 -1.552998125553131104e-01
2.145000000000000000e+03 6.213338375091552734e+00 -6.102164745330810547e+00 -6.850024219602346420e-03 3.173502385616302490e-01 9.315006434917449951e-02 1.279762536287307739e-01
2.146000000000000000e+03 1.471868324279785156e+01 -4.850421428680419922e+00 1.119556427001953125e+00 3.814096795395016670e-03 3.370111584663391113e-01 7.139242291450500488e-01
2.147000000000000000e+03 1.614349365234375000e+01 -5.959074974060058594e+00 1.375247120857238770e+00 1.389184594154357910e-01 4.542496800422668457e-01 1.023704648017883301e+00
2.148000000000000000e+03 1.197351360321044922e+01 -5.462470531463623047e+00 6.161652207374572754e-01 1.328276246786117554e-01 2.246978431940078735e-01 6.864192485809326172e-01
2.149000000000000000e+03 7.303866863250732422e+00 -4.983759403228759766e+00 7.510576397180557251e-02 2.391213774681091309e-01 9.426814317703247070e-02 1.897054612636566162e-01
2.150000000000000000e+03 6.323066711425781250e+00 6.408517837524414062e+00 2.707940638065338135e-01 -2.275609821081161499e-01 1.296992041170597076e-02 7.793900370597839355e-01
2.151000000000000000e+03 1.003345966339111328e+01 4.762207984924316406e+00 2.825933396816253662e-01 6.303507089614868164e-02 1.036885231733322144e-01 6.244136095046997070e-01
2.152000000000000000e+03 8.664276123046875000e+00 5.716660976409912109e+00 4.228651523590087891e-01 1.721846126019954681e-02 1.320250779390335083e-01 6.988140344619750977e-01
2.153000000000000000e+03 1.235760974884033203e+01 5.360094070434570312e+00 1.109289407730102539e+00 7.215532660484313965e-01 5.492528080940246582e-01 -1.374503970146179199e-01
2.154000000000000000e+03 2.484125900268554688e+01 -4.042197704315185547e+00 3.674755334854125977e+00 3.206988096237182617e+00 2.064522981643676758e+00 -2.155331373214721680e+00
2.155000000000000000e+03 1.266792583465576172e+01 -5.473662853240966797e+00 7.420939803123474121e-01 8.734820783138275146e-02 2.488326728343963623e-01 7.290086746215820312e-01
2.156000000000000000e+03 7.939068317413330078e+00 5.901243686676025391e+00 3.572866916656494141e-01 -6.147291883826255798e-02 8.874413371086120605e-02 7.443984746932983398e-01
2.157000000000000000e+03 1.157576179504394531e+01 5.392155170440673828e+00 8.946583271026611328e-01 5.222765803337097168e-01 4.250804781913757324e-01 1.199111416935920715e-01
2.158000000000000000e+03 1.331922245025634766e+01 -4.841895580291748047e+00 8.443083167076110840e-01 2.662569284439086914e-02 2.612802088260650635e-01 6.501558423042297363e-01
2.159000000000000000e+03 2.877264022827148438e+01 -7.133100986480712891e+00 3.052312850952148438e+00 1.102477788925170898e+00 1.246437191963195801e+00 -1.709948658943176270e+00
2.160000000000000000e+03 1.336837577819824219e+01 -5.492408752441406250e+00 8.659065961837768555e-01 6.422177702188491821e-02 2.790385186672210693e-01 7.777889370918273926e-01
2.161000000000000000e+03 1.504271793365478516e+01 5.172135353088378906e+00 1.955269575119018555e+00 1.974019885063171387e+00 1.178786873817443848e+00 -1.326919078826904297e+00
2.162000000000000000e+03 1.010083961486816406e+01 5.553458690643310547e+00 6.137700080871582031e-01 2.143947780132293701e-01 2.484494298696517944e-01 4.760772883892059326e-01
2.163000000000000000e+03 2.358633995056152344e+01 -1.417421913146972656e+01 -8.399136066436767578e-01 4.945515692234039307e-01 -1.036086082458496094e-01 4.690177738666534424e-01
2.164000000000000000e+03 2.071422004699707031e+01 -1.293349266052246094e+01 -3.033340275287628174e-01 5.068867802619934082e-01 6.106583401560783386e-02 7.899107933044433594e-01
2.165000000000000000e+03 8.448026657104492188e+00 -1.303322982788085938e+01 -4.186522588133811951e-02 1.977878928184509277e+00 5.808041095733642578e-01 1.073990583419799805e+00
2.166000000000000000e+03 9.465867042541503906e+00 -1.279478359222412109e+01 3.465096652507781982e-02 1.840723395347595215e+00 5.626122951507568359e-01 1.431991696357727051e+00
2.167000000000000000e+03 1.208763408660888672e+01 -1.114046669006347656e+01 4.091147780418395996e-01 5.600672364234924316e-01 2.907546162605285645e-01 1.554124474525451660e+00
2.168000000000000000e+03 1.036534690856933594e+01 -1.192249870300292969e+01 1.626354753971099854e-01 1.179088473320007324e+00 4.025171697139739990e-01 1.541948556900024414e+00
2.169000000000000000e+03 8.224757194519042969e+00 6.710474014282226562e+00 5.715392827987670898e-01 6.019401177763938904e-02 1.895199865102767944e-01 5.992372035980224609e-01
2.170000000000000000e+03 8.646345138549804688e+00 7.567413330078125000e+00 8.103991746902465820e-01 2.920736074447631836e-01 3.307418525218963623e-01 3.752352893352508545e-01
2.171000000000000000e+03 1.131055068969726562e+01 -1.111928272247314453e+01 2.946277856826782227e-01 7.752262949943542480e-01 3.209562301635742188e-01 1.513063192367553711e+00
2.172000000000000000e+03 2.296419143676757812e+01 -1.139299678802490234e+01 3.524508178234100342e-01 8.893854618072509766e-01 3.725508749485015869e-01 3.945184350013732910e-01
2.173000000000000000e+03 1.672265434265136719e+01 -5.889881134033203125e+00 1.476906418800354004e+00 2.315258979797363281e-01 5.125296711921691895e-01 1.057089686393737793e+00
2.174000000000000000e+03 7.419092559814453125e+01 -1.322867774963378906e+01 6.242622733116149902e-01 9.190259933471679688e+00 2.944356679916381836e+00 2.294895052909851074e-01
2.175000000000000000e+03 2.817747688293457031e+01 -1.553400611877441406e+01 -1.746971845626831055e+00 3.734944388270378113e-02 -5.128867030143737793e-01 1.363711208105087280e-01
2.176000000000000000e+03 2.542182350158691406e+01 -1.280921745300292969e+01 1.749168150126934052e-02 5.675753951072692871e-01 1.755201220512390137e-01 1.477873027324676514e-01
2.177000000000000000e+03 6.019097518920898438e+01 4.658718109130859375e+00 -3.869462907314300537e-01 1.890618085861206055e+00 4.511015415191650391e-01 -1.170657634735107422e+00
2.178000000000000000e+03 2.275201416015625000e+01 -1.228964900970458984e+01 -4.141882434487342834e-02 6.937878131866455078e-01 1.957106888294219971e-01 5.475098490715026855e-01
2.179000000000000000e+03 4.858212947845458984e+00 -6.678545951843261719e+00 -5.752383917570114136e-02 2.613276839256286621e-01 6.114115193486213684e-02 3.408439224585890770e-03
2.180000000000000000e+03 2.586516189575195312e+01 -4.290307044982910156e+00 3.759593009948730469e+00 2.363822221755981445e+00 1.837024569511413574e+00 -2.202301979064941406e+00
2.181000000000000000e+03 1.093481445312500000e+01 2.587032127380371094e+01 -1.285064592957496643e-02 2.549779415130615234e+00 7.610785961151123047e-01 -1.212031364440917969e+00
2.182000000000000000e+03 1.586196041107177734e+01 -1.183295345306396484e+01 4.088127315044403076e-01 4.545434564352035522e-02 1.362801194190979004e-01 1.341287016868591309e+00
2.183000000000000000e+03 5.386929702758789062e+01 6.181649208068847656e+00 2.775390744209289551e-01 8.366218805313110352e-01 3.342483043670654297e-01 -8.165350882336497307e-04
2.184000000000000000e+03 5.575022888183593750e+01 4.420634746551513672e+00 -6.371591091156005859e-01 6.881363391876220703e-01 1.529316231608390808e-02 -3.326013386249542236e-01
2.185000000000000000e+03 2.797990226745605469e+01 -6.117249965667724609e+00 3.163265228271484375e+00 1.279071211814880371e+00 1.332700848579406738e+00 -1.889801383018493652e+00
2.186000000000000000e+03 1.364752101898193359e+01 -1.253208827972412109e+01 4.492283165454864502e-01 6.366379559040069580e-02 1.538676321506500244e-01 1.572559475898742676e+00
2.187000000000000000e+03 1.227776050567626953e+01 -1.194451999664306641e+01 3.766496181488037109e-01 5.255283117294311523e-01 2.706533968448638916e-01 1.601866960525512695e+00
2.188000000000000000e+03 8.771149635314941406e+00 1.390718746185302734e+01 9.113114476203918457e-01 1.492287158966064453e+00 7.210795879364013672e-01 -6.469859480857849121e-01
2.189000000000000000e+03 4.915297698974609375e+01 2.490619659423828125e+01 5.824198126792907715e-01 4.347210407257080078e+00 1.478889107704162598e+00 1.025499343872070312e+00
2.190000000000000000e+03 4.205361557006835938e+01 3.477433443069458008e+00 -6.106837987899780273e-01 9.093391418457031250e+00 2.544812202453613281e+00 2.680631399154663086e+00
2.191000000000000000e+03 7.445919036865234375e+01 -3.211140823364257812e+01 -5.308724641799926758e-01 9.306774139404296875e+00 2.632770538330078125e+00 -9.767978787422180176e-01
2.192000000000000000e+03 8.503737449645996094e+00 2.909607315063476562e+01 -2.986398339271545410e-01 2.007229089736938477e+00 5.125767588615417480e-01 -1.262935519218444824e+00
2.193000000000000000e+03 3.772209930419921875e+01 -1.835092544555664062e+01 -6.800190806388854980e-01 1.029893589019775391e+01 2.885674953460693359e+00 6.665030121803283691e-01
2.194000000000000000e+03 4.198133468627929688e+01 -2.381031990051269531e+01 6.520946621894836426e-01 5.811129093170166016e+00 1.938967227935791016e+00 -8.800873756408691406e-01
2.195000000000000000e+03 4.862097167968750000e+01 5.923531532287597656e+00 8.360739946365356445e-01 1.152097821235656738e+00 5.964515209197998047e-01 1.415502548217773438e+00
2.196000000000000000e+03 7.107996368408203125e+01 2.381786727905273438e+01 2.543316185474395752e-01 5.626710414886474609e+00 1.764312624931335449e+00 -1.860549449920654297e-01
2.197000000000000000e+03 7.095313262939453125e+01 1.669559860229492188e+01 2.873688638210296631e-01 5.653752803802490234e+00 1.782336473464965820e+00 -5.550272464752197266e-01
2.198000000000000000e+03 7.231012725830078125e+01 1.643986511230468750e+01 2.131483256816864014e-01 5.918575286865234375e+00 1.839516997337341309e+00 -5.513141155242919922e-01
2.199000000000000000e+03 6.909586334228515625e+01 -6.393935680389404297e-01 -9.616311788558959961e-01 6.716567039489746094e+00 1.726480722427368164e+00 -6.868999004364013672e-01
2.200000000000000000e+03 6.735134124755859375e+01 -5.795600414276123047e-01 -1.059721946716308594e+00 6.022701740264892578e+00 1.488893866539001465e+00 -1.010938763618469238e+00
2.201000000000000000e+03 7.105848693847656250e+01 9.767620086669921875e+00 -3.148223832249641418e-02 5.971889972686767578e+00 1.782122373580932617e+00 -8.714134097099304199e-01
2.202000000000000000e+03 7.277690124511718750e+01 8.621992111206054688e+00 -1.086847856640815735e-01 6.519226074218750000e+00 1.923162341117858887e+00 -7.332612276077270508e-01
2.203000000000000000e+03 7.521813964843750000e+01 -2.525953674316406250e+01 2.973269820213317871e-01 9.166353225708007812e+00 2.839104175567626953e+00 -1.244306445121765137e+00
2.204000000000000000e+03 7.290494537353515625e+01 -7.896127223968505859e+00 -8.038074523210525513e-02 8.848958015441894531e+00 2.630573272705078125e+00 3.459144532680511475e-01
2.205000000000000000e+03 7.391011810302734375e+01 -1.549134254455566406e+01 8.610013127326965332e-01 9.803936004638671875e+00 3.199481010437011719e+00 -2.099700272083282471e-01
2.206000000000000000e+03 7.417823028564453125e+01 -1.659988784790039062e+01 6.710135936737060547e-01 9.776818275451660156e+00 3.134349584579467773e+00 -3.434996008872985840e-01
2.207000000000000000e+03 1.204243278503417969e+01 3.305970382690429688e+01 -8.188328742980957031e-01 1.826394438743591309e+00 3.022684752941131592e-01 -7.938031554222106934e-01
2.208000000000000000e+03 6.181584358215332031e+00 3.431198120117187500e+01 -3.560416698455810547e-01 2.067599296569824219e+00 5.134672522544860840e-01 -7.911984324455261230e-01
2.209000000000000000e+03 7.471369171142578125e+01 -9.858037948608398438e+00 1.390612274408340454e-01 8.606307029724121094e+00 2.623610496520996094e+00 6.471624374389648438e-01
2.210000000000000000e+03 7.380867004394531250e+01 -9.338232040405273438e+00 1.126437634229660034e-01 8.876311302185058594e+00 2.696686744689941406e+00 5.370695590972900391e-01
2.211000000000000000e+03 7.436474609375000000e+01 -4.107024192810058594e+00 -3.143007159233093262e-01 8.069319725036621094e+00 2.326505661010742188e+00 4.223744273185729980e-01
2.212000000000000000e+03 4.404509735107421875e+01 -2.772398376464843750e+01 3.282000720500946045e-01 3.683108329772949219e+00 1.203392505645751953e+00 -1.298398733139038086e+00
2.213000000000000000e+03 7.126837158203125000e+01 6.418357491493225098e-01 -7.609465718269348145e-01 7.100477218627929688e+00 1.901859164237976074e+00 -4.358791410923004150e-01
2.214000000000000000e+03 6.917383575439453125e+01 2.533017873764038086e+00 -7.888702154159545898e-01 6.186011791229248047e+00 1.619142413139343262e+00 -9.200553297996520996e-01
2.215000000000000000e+03 7.238900756835937500e+01 -5.975069403648376465e-01 -5.688402056694030762e-01 7.481452465057373047e+00 2.073783636093139648e+00 -1.332382112741470337e-01
2.216000000000000000e+03 6.900247192382812500e+01 -3.277518033981323242e+00 -5.838273167610168457e-01 7.196548938751220703e+00 1.983816385269165039e+00 -5.862896442413330078e-01
2.217000000000000000e+03 4.273121643066406250e+01 -2.630402946472167969e+01 5.285884737968444824e-01 4.627201557159423828e+00 1.546736955642700195e+00 -1.214755415916442871e+00
2.218000000000000000e+03 7.544438362121582031e+00 -1.010205173492431641e+01 -1.433691978454589844e-01 1.143218159675598145e+00 2.999547123908996582e-01 5.820430517196655273e-01
2.219000000000000000e+03 7.440099334716796875e+01 2.023481369018554688e+01 1.315239518880844116e-01 6.185341358184814453e+00 1.895059585571289062e+00 -3.088279664516448975e-01
2.220000000000000000e+03 7.095992279052734375e+01 2.611728096008300781e+01 2.106002718210220337e-01 5.639273643493652344e+00 1.754962205886840820e+00 -9.128197282552719116e-02
2.221000000000000000e+03 3.813694381713867188e+01 -8.969987869262695312e+00 1.873492836952209473e+00 9.525356292724609375e+00 3.419654846191406250e+00 9.688774123787879944e-03
2.222000000000000000e+03 3.382215499877929688e+01 -1.341353416442871094e+01 6.658174395561218262e-01 3.858394145965576172e+00 1.357263445854187012e+00 -1.349164485931396484e+00
2.223000000000000000e+03 5.385854244232177734e+00 -8.144601821899414062e+00 -1.138415485620498657e-01 5.185418725013732910e-01 1.214101016521453857e-01 8.041957765817642212e-02
2.224000000000000000e+03 4.814320564270019531e+00 -9.163825988769531250e+00 -1.603817939758300781e-01 5.623968243598937988e-01 1.206045001745223999e-01 -1.056877430528402328e-02
2.225000000000000000e+03 8.067538261413574219e+00 2.346843910217285156e+01 2.152577340602874756e-01 1.854270100593566895e+00 6.208583712577819824e-01 -1.315077304840087891e+00
2.226000000000000000e+03 5.677134513854980469e+00 2.683107948303222656e+01 -4.745189100503921509e-02 1.458821535110473633e+00 4.234108924865722656e-01 -1.196677207946777344e+00
2.227000000000000000e+03 3.431269836425781250e+01 -1.454951953887939453e+01 -2.073816657066345215e-01 4.699861049652099609e+00 1.347743749618530273e+00 -1.479959130287170410e+00
2.228000000000000000e+03 5.644173145294189453e+00 1.834105682373046875e+01 3.708974719047546387e-01 5.495123863220214844e-01 2.761229574680328369e-01 -8.123517036437988281e-01
2.229000000000000000e+03 5.664928913116455078e+00 1.632262039184570312e+01 4.613162279129028320e-01 3.921065628528594971e-01 2.560268342494964600e-01 -6.099426746368408203e-01
2.230000000000000000e+03 7.777463912963867188e+00 2.643610572814941406e+01 -5.238749086856842041e-02 1.868839263916015625e+00 5.449355244636535645e-01 -1.348913669586181641e+00
2.231000000000000000e+03 3.903251266479492188e+01 -2.005430412292480469e+01 1.158129125833511353e-01 9.462255477905273438e+00 2.873420476913452148e+00 1.170930624008178711e+00
2.232000000000000000e+03 5.266148090362548828e+00 1.508797454833984375e+01 4.415708184242248535e-01 9.386491030454635620e-02 1.606307178735733032e-01 -4.035518467426300049e-01
2.233000000000000000e+03 5.923182964324951172e+00 1.358749580383300781e+01 5.574860572814941406e-01 2.251305431127548218e-01 2.347849756479263306e-01 -2.593945860862731934e-01
2.234000000000000000e+03 4.894448280334472656e+00 1.269112491607666016e+01 4.333907365798950195e-01 -2.676958739757537842e-01 4.970845580101013184e-02 -3.867867216467857361e-02
2.235000000000000000e+03 6.313368797302246094e+00 1.457842254638671875e+01 6.078296899795532227e-01 5.000132322311401367e-01 3.323528766632080078e-01 -4.315472841262817383e-01
2.236000000000000000e+03 3.066042900085449219e+01 -6.139159202575683594e+00 3.462802648544311523e+00 9.705630540847778320e-01 1.330009698867797852e+00 -1.468130707740783691e+00
2.237000000000000000e+03 7.268505096435546875e+00 8.657704353332519531e+00 7.145818471908569336e-01 8.464232087135314941e-02 2.397672533988952637e-01 3.974294364452362061e-01
2.238000000000000000e+03 4.200198745727539062e+01 -2.502315902709960938e+01 6.611015200614929199e-01 5.617563247680664062e+00 1.883599519729614258e+00 -1.016622185707092285e+00
2.239000000000000000e+03 3.929034423828125000e+01 -2.562509727478027344e+01 1.140807151794433594e+00 7.285897731781005859e+00 2.528011560440063477e+00 -4.170475602149963379e-01
2.240000000000000000e+03 7.496967792510986328e+00 3.473837280273437500e+01 -4.561473727226257324e-01 2.027680158615112305e+00 4.714598357677459717e-01 -7.931484580039978027e-01
2.241000000000000000e+03 1.214514827728271484e+01 1.255236434936523438e+01 1.301389575004577637e+00 3.218776941299438477e+00 1.356050014495849609e+00 -1.212817072868347168e+00
2.242000000000000000e+03 6.093919754028320312e+00 8.729932785034179688e+00 5.459863543510437012e-01 -1.616767942905426025e-01 1.152928695082664490e-01 4.902673065662384033e-01
2.243000000000000000e+03 8.435400962829589844e+00 -1.068696117401123047e+01 -1.137007996439933777e-01 1.252880811691284180e+00 3.417540192604064941e-01 8.373940587043762207e-01
2.244000000000000000e+03 5.947321414947509766e+00 9.493298530578613281e+00 5.854795575141906738e-01 -1.355496495962142944e-01 1.349789798259735107e-01 3.765929937362670898e-01
2.245000000000000000e+03 7.907635211944580078e+00 8.707831382751464844e+00 8.408813476562500000e-01 2.985950708389282227e-01 3.418429195880889893e-01 2.774162888526916504e-01
2.246000000000000000e+03 5.234895229339599609e+00 -7.348065376281738281e+00 -6.490384042263031006e-02 3.850918114185333252e-01 9.605639427900314331e-02 5.718823522329330444e-02
2.247000000000000000e+03 5.287596130371093750e+01 6.686935901641845703e+00 5.536414980888366699e-01 8.704254627227783203e-01 4.272200763225555420e-01 2.465175390243530273e-01
2.248000000000000000e+03 6.382606124877929688e+01 2.014937877655029297e+00 -1.032474756240844727e+00 3.603299856185913086e+00 7.712475061416625977e-01 -1.521007537841796875e+00
2.249000000000000000e+03 5.882711887359619141e+00 -7.160944461822509766e+00 -5.945841968059539795e-02 4.317304491996765137e-01 1.116816103458404541e-01 1.270270794630050659e-01
2.250000000000000000e+03 1.082332324981689453e+01 5.471692562103271484e+00 7.214711904525756836e-01 3.423821926116943359e-01 3.191560208797454834e-01 3.249534964561462402e-01
2.251000000000000000e+03 5.175276184082031250e+01 7.211643695831298828e+00 9.109470248222351074e-01 1.110667228698730469e+00 6.064842939376831055e-01 5.873020887374877930e-01
2.252000000000000000e+03 4.579836654663085938e+01 1.186234283447265625e+01 1.979574799537658691e+00 5.264111995697021484e+00 2.173106193542480469e+00 2.595611333847045898e+00
2.253000000000000000e+03 3.199891281127929688e+01 -5.835677623748779297e+00 3.403205394744873047e+00 1.318670034408569336e+00 1.416562676429748535e+00 -1.054474830627441406e+00
2.254000000000000000e+03 8.619693756103515625e+00 1.604232597351074219e+01 8.034464716911315918e-01 1.740368008613586426e+00 7.631443142890930176e-01 -8.570330739021301270e-01
2.255000000000000000e+03 4.708412933349609375e+01 1.104186820983886719e+01 2.056472539901733398e+00 4.136818408966064453e+00 1.857987165451049805e+00 2.354433298110961914e+00
2.256000000000000000e+03 1.039308547973632812e+01 2.109932518005371094e+01 5.037711262702941895e-01 2.802454471588134766e+00 9.918676614761352539e-01 -1.220667481422424316e+00
2.257000000000000000e+03 2.263019180297851562e+01 -1.320233154296875000e+01 -4.274978637695312500e-01 5.854473710060119629e-01 4.738486185669898987e-02 5.562491416931152344e-01
2.258000000000000000e+03 3.858268737792968750e+01 -5.064357280731201172e+00 1.828321814537048340e+00 9.080851554870605469e+00 3.272752046585083008e+00 1.324569702148437500e+00
2.259000000000000000e+03 3.626469802856445312e+01 -1.133191204071044922e+01 1.480861663818359375e+00 6.971408843994140625e+00 2.535681247711181641e+00 -9.013282656669616699e-01
2.260000000000000000e+03 3.546326828002929688e+01 -1.219867420196533203e+01 1.173855066299438477e+00 6.028448581695556641e+00 2.160691022872924805e+00 -1.073678016662597656e+00
2.261000000000000000e+03 3.735063934326171875e+01 -3.930515766143798828e+00 1.728763341903686523e+00 6.861852169036865234e+00 2.577184677124023438e+00 1.112385511398315430e+00
2.262000000000000000e+03 3.863025283813476562e+01 -3.731123924255371094e+00 1.522810816764831543e+00 8.638003349304199219e+00 3.048244237899780273e+00 1.419250726699829102e+00
2.263000000000000000e+03 4.685055923461914062e+01 -3.014230155944824219e+01 -2.954223752021789551e-02 2.362573862075805664e+00 6.999095082283020020e-01 -1.024655818939208984e+00
2.264000000000000000e+03 4.623754501342773438e+01 -3.447082519531250000e+01 -7.104348540306091309e-01 2.890504360198974609e+00 6.540209054946899414e-01 -9.146335721015930176e-01
2.265000000000000000e+03 1.395608043670654297e+01 6.342672348022460938e+00 1.856425046920776367e+00 1.892070770263671875e+00 1.124548792839050293e+00 -1.114419579505920410e+00
2.266000000000000000e+03 1.082666683197021484e+01 1.564018917083740234e+01 9.714570045471191406e-01 2.862523078918457031e+00 1.150194048881530762e+00 -1.058033227920532227e+00
2.267000000000000000e+03 7.989883899688720703e+00 1.318353080749511719e+01 9.097161889076232910e-01 1.086052417755126953e+00 5.987305641174316406e-01 -4.921869039535522461e-01
2.268000000000000000e+03 7.267200469970703125e+01 -9.137246131896972656e+00 4.296625778079032898e-02 9.193778038024902344e+00 2.771023273468017578e+00 3.248338103294372559e-01
2.269000000000000000e+03 5.559376907348632812e+01 7.971884727478027344e+00 8.016963601112365723e-01 1.344226956367492676e+00 6.437770128250122070e-01 -2.147630155086517334e-01
2.270000000000000000e+03 4.539421463012695312e+01 7.463040828704833984e+00 1.637927174568176270e+00 4.577624320983886719e+00 1.864665389060974121e+00 2.779165506362915039e+00
2.271000000000000000e+03 4.710961532592773438e+01 8.101496696472167969e+00 1.773131370544433594e+00 3.282152175903320312e+00 1.516585111618041992e+00 2.286443233489990234e+00
2.272000000000000000e+03 8.529225349426269531e+00 2.481971740722656250e+01 1.003226414322853088e-01 2.033047199249267578e+00 6.400109529495239258e-01 -1.355718374252319336e+00
2.273000000000000000e+03 7.267362976074218750e+01 -1.041700267791748047e+01 3.084339201450347900e-01 9.523280143737792969e+00 2.949514150619506836e+00 2.984176278114318848e-01
2.274000000000000000e+03 3.833839416503906250e+01 -7.645917415618896484e+00 2.025405645370483398e+00 9.398686408996582031e+00 3.427227497100830078e+00 5.062561631202697754e-01
2.275000000000000000e+03 2.916341972351074219e+01 -1.307412433624267578e+01 5.815017819404602051e-01 3.723960220813751221e-01 2.861693203449249268e-01 -3.829313218593597412e-01
2.276000000000000000e+03 4.987170028686523438e+01 9.008913040161132812e+00 1.761017918586730957e+00 2.031306028366088867e+00 1.137697219848632812e+00 1.408519029617309570e+00
2.277000000000000000e+03 1.128073024749755859e+01 3.044652175903320312e+01 -5.899637341499328613e-01 2.084406614303588867e+00 4.483328461647033691e-01 -1.033053040504455566e+00
2.278000000000000000e+03 2.992026519775390625e+01 -1.229396533966064453e+01 1.280090332031250000e+00 7.914141416549682617e-01 6.214513182640075684e-01 -8.124985098838806152e-01
2.279000000000000000e+03 2.832225990295410156e+01 -1.362939834594726562e+01 5.477466434240341187e-02 2.794266939163208008e-01 1.002604067325592041e-01 -1.537685394287109375e-01
2.280000000000000000e+03 6.803203582763671875e+01 -1.865494966506958008e+00 -8.948706984519958496e-01 6.554667472839355469e+00 1.697939038276672363e+00 -8.053539395332336426e-01
2.281000000000000000e+03 2.848829269409179688e+01 -1.458828353881835938e+01 -6.520832180976867676e-01 1.510175913572311401e-01 -1.503196805715560913e-01 5.273004621267318726e-02
2.282000000000000000e+03 5.074800491333007812e+01 3.008808898925781250e+01 -2.393804863095283508e-02 4.254272937774658203e+00 1.269100427627563477e+00 8.762222528457641602e-01
2.283000000000000000e+03 4.687418746948242188e+01 3.117482185363769531e+01 -3.620818853378295898e-01 4.001939773559570312e+00 1.091957330703735352e+00 7.640502452850341797e-01
2.284000000000000000e+03 5.883044433593750000e+01 5.008605480194091797e+00 -2.548335194587707520e-01 1.461388349533081055e+00 3.619664311408996582e-01 -9.389774203300476074e-01
2.285000000000000000e+03 5.749243927001953125e+01 5.384569168090820312e+00 -1.422748714685440063e-01 1.177764177322387695e+00 3.106468021869659424e-01 -6.779983639717102051e-01
2.286000000000000000e+03 4.432548522949218750e+01 5.319272994995117188e+00 4.818518161773681641e-01 5.567017555236816406e+00 1.814660787582397461e+00 2.931921243667602539e+00
2.287000000000000000e+03 1.312703132629394531e+01 3.210948562622070312e+01 -8.253738284111022949e-01 1.794174432754516602e+00 2.906401753425598145e-01 -7.714344859123229980e-01
2.288000000000000000e+03 6.888910675048828125e+01 -4.651764392852783203e+00 -2.571076154708862305e-01 7.545628070831298828e+00 2.186556100845336914e+00 -7.683069109916687012e-01
2.289000000000000000e+03 7.109929656982421875e+01 -5.933129310607910156e+00 -3.155587017536163330e-01 8.439195632934570312e+00 2.437091112136840820e+00 -8.121886104345321655e-02
2.290000000000000000e+03 7.046515464782714844e+00 -3.824195480346679688e+01 1.447720080614089966e-01 9.485621452331542969e-01 3.280002474784851074e-01 -9.337726235389709473e-02
2.291000000000000000e+03 4.702220535278320312e+01 6.221403121948242188e+00 1.090218186378479004e+00 2.634376049041748047e+00 1.117378234863281250e+00 2.180975437164306641e+00
2.292000000000000000e+03 3.605558395385742188e+01 -4.286767005920410156e+00 2.251506328582763672e+00 4.978215694427490234e+00 2.168916463851928711e+00 6.652425527572631836e-01
2.293000000000000000e+03 3.505088806152343750e+01 -5.967132568359375000e+00 2.877257347106933594e+00 4.102129459381103516e+00 2.093816041946411133e+00 -4.215209931135177612e-02
2.294000000000000000e+03 9.659209251403808594e+00 3.372411727905273438e+01 -6.527737975120544434e-01 1.966060757637023926e+00 3.939861059188842773e-01 -8.997287750244140625e-01
2.295000000000000000e+03 7.319235229492187500e+01 1.072475790977478027e+00 -5.157358646392822266e-01 7.434916973114013672e+00 2.075754404067993164e+00 -2.134419530630111694e-01
2.296000000000000000e+03 2.172882461547851562e+01 3.773138427734375000e+01 -1.707820415496826172e+00 -3.202236890792846680e-01 -6.084132194519042969e-01 -4.541693329811096191e-01
2.297000000000000000e+03 6.736409759521484375e+01 7.907266020774841309e-01 -1.038303494453430176e+00 5.756440162658691406e+00 1.415441036224365234e+00 -1.118505120277404785e+00
2.298000000000000000e+03 7.307865905761718750e+01 7.218077182769775391e+00 -1.930087506771087646e-01 6.722768783569335938e+00 1.958927989006042480e+00 -6.730726361274719238e-01
2.299000000000000000e+03 3.476069641113281250e+01 -4.755194664001464844e+00 2.688211679458618164e+00 3.378516435623168945e+00 1.820018410682678223e+00 2.296857237815856934e-01
2.300000000000000000e+03 3.726789474487304688e+01 -7.435137271881103516e+00 2.307659626007080078e+00 7.661661624908447266e+00 2.990796327590942383e+00 1.841103434562683105e-01
2.301000000000000000e+03 3.538573074340820312e+01 -3.472312545776367188e+01 -1.354039907455444336e+00 5.175705432891845703e+00 1.146499633789062500e+00 5.423166751861572266e-01
2.302000000000000000e+03 3.842711639404296875e+01 -3.416568374633789062e+01 -1.271381616592407227e+00 5.400568485260009766e+00 1.238756060600280762e+00 -2.815243899822235107e-01
2.303000000000000000e+03 7.443616485595703125e+01 -6.896193027496337891e+00 -1.512680798768997192e-01 8.369458198547363281e+00 2.465456962585449219e+00 6.080215573310852051e-01
2.304000000000000000e+03 4.528293991088867188e+01 -3.229331588745117188e+01 -4.263567924499511719e-01 3.219468832015991211e+00 8.379335999488830566e-01 -1.085109591484069824e+00
2.305000000000000000e+03 7.092182159423828125e+01 2.872275924682617188e+01 1.521170884370803833e-01 5.676864147186279297e+00 1.748694300651550293e+00 -7.916746661067008972e-03
2.306000000000000000e+03 4.891954040527343750e+01 2.795067214965820312e+01 2.178778499364852905e-01 4.235905170440673828e+00 1.336134910583496094e+00 9.137771725654602051e-01
2.307000000000000000e+03 6.642207336425781250e+01 -3.824018096923828125e+01 -1.981970220804214478e-01 3.860816001892089844e+00 1.098785638809204102e+00 5.032349228858947754e-01
2.308000000000000000e+03 6.589675140380859375e+01 -9.052718281745910645e-01 -1.140546560287475586e+00 5.304145812988281250e+00 1.249079823493957520e+00 -1.254299521446228027e+00
2.309000000000000000e+03 4.699212265014648438e+01 1.312782955169677734e+01 1.923812150955200195e+00 4.586141109466552734e+00 1.952986001968383789e+00 2.276685953140258789e+00
2.310000000000000000e+03 4.030647277832031250e+01 -2.802424240112304688e+01 4.032130241394042969e-01 6.116608619689941406e+00 1.955946564674377441e+00 -9.471140503883361816e-01
2.311000000000000000e+03 2.127999496459960938e+01 -3.774448776245117188e+01 -4.180884063243865967e-01 -7.349584996700286865e-02 -1.474752724170684814e-01 1.430863291025161743e-01
2.312000000000000000e+03 2.158101463317871094e+01 -3.681752204895019531e+00 1.908983826637268066e+00 4.443813323974609375e+00 1.905839204788208008e+00 8.308445215225219727e-01
2.313000000000000000e+03 2.247352027893066406e+01 -3.561895370483398438e+00 1.994328975677490234e+00 5.515785217285156250e+00 2.253034114837646484e+00 -6.994690895080566406e-01
2.314000000000000000e+03 2.046472930908203125e+01 -3.626816749572753906e+00 2.327374935150146484e+00 2.348578214645385742e+00 1.402786016464233398e+00 1.410463333129882812e+00
2.315000000000000000e+03 1.967057800292968750e+01 -3.808534860610961914e+00 2.335880517959594727e+00 1.285424828529357910e+00 1.086391687393188477e+00 1.223994851112365723e+00
2.316000000000000000e+03 2.365466690063476562e+01 -3.454689264297485352e+00 3.246310472488403320e+00 4.742589473724365234e+00 2.396669864654541016e+00 -2.447648525238037109e+00
2.317000000000000000e+03 2.413245964050292969e+01 -2.446336269378662109e+00 5.410669326782226562e+00 3.540453195571899414e+00 2.685336828231811523e+00 -3.906561136245727539e+00
2.318000000000000000e+03 1.780772209167480469e+01 -4.915042877197265625e+00 1.792364597320556641e+00 3.920411467552185059e-01 6.553217172622680664e-01 9.935336709022521973e-01
2.319000000000000000e+03 2.313194084167480469e+01 -2.833182573318481445e+00 3.036298036575317383e+00 6.437478065490722656e+00 2.842132806777954102e+00 -2.837410211563110352e+00
2.320000000000000000e+03 9.123576164245605469e+00 -9.000354766845703125e+00 7.759262621402740479e-02 7.881805896759033203e-01 2.597319483757019043e-01 8.291327953338623047e-01
2.321000000000000000e+03 7.557360172271728516e+00 -7.520365238189697266e+00 3.724485170096158981e-03 5.947788953781127930e-01 1.795510053634643555e-01 4.001243114471435547e-01
2.322000000000000000e+03 1.778032112121582031e+01 -5.420102119445800781e+00 1.717992544174194336e+00 4.357975423336029053e-01 6.461369991302490234e-01 1.070145487785339355e+00
2.323000000000000000e+03 1.608773803710937500e+01 -5.396167278289794922e+00 1.402984023094177246e+00 1.052910834550857544e-01 4.524825513362884521e-01 9.191644191741943359e-01
2.324000000000000000e+03 2.002968215942382812e+01 -1.184921741485595703e+01 1.152355074882507324e-01 5.480046272277832031e-01 1.989720463752746582e-01 9.196119308471679688e-01
2.325000000000000000e+03 1.203359603881835938e+01 -6.115252971649169922e+00 6.327103376388549805e-01 1.684679538011550903e-01 2.403534948825836182e-01 7.898288369178771973e-01
2.326000000000000000e+03 1.064657878875732422e+01 -5.444463729858398438e+00 4.165634512901306152e-01 1.977959424257278442e-01 1.843078136444091797e-01 5.685599446296691895e-01
2.327000000000000000e+03 7.822488307952880859e+00 -6.511656284332275391e+00 7.353251427412033081e-02 4.345232546329498291e-01 1.524167358875274658e-01 3.636045157909393311e-01
2.328000000000000000e+03 6.029924869537353516e+00 7.664762496948242188e+00 4.025788903236389160e-01 -2.300140559673309326e-01 5.176945403218269348e-02 6.340243220329284668e-01
2.329000000000000000e+03 7.546940326690673828e+00 -5.756572246551513672e+00 7.493148744106292725e-02 3.233164250850677490e-01 1.194743737578392029e-01 2.609921395778656006e-01
2.330000000000000000e+03 6.892812728881835938e+00 -5.924297809600830078e+00 3.658628091216087341e-02 3.289184570312500000e-01 1.096514239907264709e-01 1.994300931692123413e-01
2.331000000000000000e+03 6.548970222473144531e+00 -6.958569526672363281e+00 -1.495840866118669510e-02 4.384676516056060791e-01 1.270527839660644531e-01 2.047960162162780762e-01
2.332000000000000000e+03 1.281501388549804688e+01 7.263121128082275391e+00 1.680770754814147949e+00 1.710036754608154297e+00 1.017242312431335449e+00 -8.329420685768127441e-01
2.333000000000000000e+03 6.758172988891601562e+00 7.228602886199951172e+00 4.822200238704681396e-01 -1.239992305636405945e-01 1.074662432074546814e-01 6.560477018356323242e-01
2.334000000000000000e+03 9.384726524353027344e+00 5.606760501861572266e+00 5.142940878868103027e-01 1.411975026130676270e-01 1.966474801301956177e-01 5.990473628044128418e-01
2.335000000000000000e+03 7.513610839843750000e+00 6.961360454559326172e+00 5.148894786834716797e-01 -1.857758313417434692e-02 1.488935649394989014e-01 6.382613182067871094e-01
2.336000000000000000e+03 2.376989173889160156e+01 -4.128460884094238281e+00 2.725208759307861328e+00 4.142426967620849609e+00 2.060290813446044922e+00 -1.800287127494812012e+00
2.337000000000000000e+03 1.476365280151367188e+01 -5.486495018005371094e+00 1.133196234703063965e+00 4.257909208536148071e-02 3.527325689792633057e-01 8.528935909271240234e-01
2.338000000000000000e+03 1.625806236267089844e+01 -6.501832962036132812e+00 1.327490925788879395e+00 2.017796933650970459e-01 4.587812125682830811e-01 1.122004032135009766e+00
2.339000000000000000e+03 1.976532745361328125e+01 -1.271489524841308594e+01 -1.506530493497848511e-01 4.104998707771301270e-01 7.795404642820358276e-02 9.086570739746093750e-01
2.340000000000000000e+03 8.848097801208496094e+00 6.439670562744140625e+00 6.214110255241394043e-01 1.520229130983352661e-01 2.320301830768585205e-01 5.529410839080810547e-01
2.341000000000000000e+03 1.407028675079345703e+01 -5.502963542938232422e+00 9.991115331649780273e-01 4.068307951092720032e-02 3.119383752346038818e-01 8.131726384162902832e-01
2.342000000000000000e+03 1.551213455200195312e+01 -6.062115669250488281e+00 1.246489763259887695e+00 1.049717962741851807e-01 4.054384529590606689e-01 1.010968446731567383e+00
2.343000000000000000e+03 1.340728664398193359e+01 -6.151105403900146484e+00 8.678669333457946777e-01 9.719187021255493164e-02 2.895176410675048828e-01 8.981373310089111328e-01
2.344000000000000000e+03 1.483282756805419922e+01 -6.157067298889160156e+00 1.119307279586791992e+00 7.585136592388153076e-02 3.585475981235504150e-01 9.758083224296569824e-01
2.345000000000000000e+03 1.200577354431152344e+01 7.117630481719970703e+00 1.434249401092529297e+00 1.228229999542236328e+00 7.987437844276428223e-01 -4.299158155918121338e-01
2.346000000000000000e+03 1.225809860229492188e+01 6.226582050323486328e+00 1.318333506584167480e+00 9.946939349174499512e-01 6.939082145690917969e-01 -2.968441247940063477e-01
2.347000000000000000e+03 2.914916419982910156e+01 -9.771812438964843750e+00 2.236225366592407227e+00 9.872872233390808105e-01 9.670537710189819336e-01 -1.131755471229553223e+00
2.348000000000000000e+03 5.985490322113037109e+00 1.153880500793457031e+01 5.799787640571594238e-01 6.226774677634239197e-02 1.926739662885665894e-01 3.435323387384414673e-02
2.349000000000000000e+03 1.188229274749755859e+01 8.986264228820800781e+00 1.570927500724792480e+00 1.878483414649963379e+00 1.034823298454284668e+00 -8.092808723449707031e-01
2.350000000000000000e+03 6.656223773956298828e+00 1.304671287536621094e+01 6.941110491752624512e-01 4.660847783088684082e-01 3.480587303638458252e-01 -2.491546869277954102e-01
2.351000000000000000e+03 7.280532073974609375e+01 -3.079289674758911133e+00 -4.975295364856719971e-01 7.903383731842041016e+00 2.221756219863891602e+00 1.452705115079879761e-01
2.352000000000000000e+03 3.377571105957031250e+01 -6.483111381530761719e+00 3.134570837020874023e+00 2.899139881134033203e+00 1.810113191604614258e+00 -5.246545672416687012e-01
2.353000000000000000e+03 1.665963172912597656e+01 -1.240883159637451172e+01 2.105461359024047852e-01 3.453001752495765686e-02 7.352284342050552368e-02 1.232765674591064453e+00
2.354000000000000000e+03 2.521976852416992188e+01 -4.635212421417236328e+00 3.162605762481689453e+00 2.826936483383178711e+00 1.796862721443176270e+00 -2.019087553024291992e+00
2.355000000000000000e+03 2.701962089538574219e+01 -6.262176513671875000e+00 2.930894613265991211e+00 1.542553424835205078e+00 1.342034459114074707e+00 -1.781285524368286133e+00
2.356000000000000000e+03 2.710902404785156250e+01 -4.827905654907226562e+00 3.527028083801269531e+00 1.613815903663635254e+00 1.542253136634826660e+00 -2.149038314819335938e+00
2.357000000000000000e+03 6.692489147186279297e+00 2.081624794006347656e+01 3.425206840038299561e-01 1.221217393875122070e+00 4.691214263439178467e-01 -1.135168552398681641e+00
2.358000000000000000e+03 1.072159290313720703e+01 2.432424354553222656e+01 1.664028614759445190e-01 2.662841558456420898e+00 8.487733006477355957e-01 -1.236180543899536133e+00
2.359000000000000000e+03 7.069321632385253906e+00 2.429444885253906250e+01 1.069374978542327881e-01 1.561507821083068848e+00 5.005335807800292969e-01 -1.290969848632812500e+00
2.360000000000000000e+03 1.132731151580810547e+01 -1.200399971008300781e+01 3.168235123157501221e-01 7.789633274078369141e-01 3.287360370159149170e-01 1.628301262855529785e+00
2.361000000000000000e+03 9.890176773071289062e+00 -9.088302612304687500e+00 1.702358573675155640e-01 7.499813437461853027e-01 2.760651707649230957e-01 9.835768342018127441e-01
2.362000000000000000e+03 1.365148639678955078e+01 7.437906265258789062e+00 1.943552851676940918e+00 2.262281417846679688e+00 1.261750340461730957e+00 -1.288604259490966797e+00
2.363000000000000000e+03 7.216431427001953125e+01 1.502569866180419922e+01 1.830804198980331421e-01 5.933979988098144531e+00 1.835118174552917480e+00 -6.392892599105834961e-01
2.364000000000000000e+03 1.280552101135253906e+01 1.124023532867431641e+01 1.492467999458312988e+00 3.281022787094116211e+00 1.432047247886657715e+00 -1.369984030723571777e+00
2.365000000000000000e+03 4.632728195190429688e+01 7.204649448394775391e+00 1.582997202873229980e+00 3.705401420593261719e+00 1.586519598960876465e+00 2.583146810531616211e+00
2.366000000000000000e+03 1.154353332519531250e+01 6.167262554168701172e+00 1.168529272079467773e+00 7.184293270111083984e-01 5.660876035690307617e-01 -6.453032791614532471e-02
2.367000000000000000e+03 1.261672306060791016e+01 9.574857711791992188e+00 1.646644473075866699e+00 2.544373750686645508e+00 1.257305502891540527e+00 -1.170160770416259766e+00
2.368000000000000000e+03 1.915827560424804688e+01 -1.160774421691894531e+01 2.440964132547378540e-01 4.497110843658447266e-01 2.081422507762908936e-01 1.047415375709533691e+00
2.369000000000000000e+03 1.754570770263671875e+01 -1.290579319000244141e+01 -2.664259821176528931e-02 8.747249096632003784e-02 1.824896782636642456e-02 1.080579876899719238e+00
2.370000000000000000e+03 5.354204559326171875e+01 7.832345962524414062e+00 9.651830792427062988e-01 1.214009523391723633e+00 6.537577509880065918e-01 1.937002837657928467e-01
2.371000000000000000e+03 5.490852355957031250e+01 5.974140644073486328e+00 1.329793632030487061e-01 9.104688167572021484e-01 3.130344450473785400e-01 -2.005437314510345459e-01
2.372000000000000000e+03 3.526700592041015625e+01 -1.396378421783447266e+01 1.309013813734054565e-01 5.979243278503417969e+00 1.833043336868286133e+00 -1.313057780265808105e+00
2.373000000000000000e+03 1.270620727539062500e+01 -1.091015148162841797e+01 4.750071167945861816e-01 3.947676420211791992e-01 2.609324157238006592e-01 1.515944719314575195e+00
2.374000000000000000e+03 1.313023090362548828e+01 -1.163222217559814453e+01 4.712928235530853271e-01 3.664189279079437256e-01 2.513135075569152832e-01 1.627386927604675293e+00
2.375000000000000000e+03 2.963025283813476562e+01 -6.274399280548095703e+00 3.386006832122802734e+00 8.013149499893188477e-01 1.256196498870849609e+00 -1.682822346687316895e+00
2.376000000000000000e+03 2.731214904785156250e+01 -7.857389450073242188e+00 2.432465314865112305e+00 1.305763006210327148e+00 1.121468544006347656e+00 -1.382035970687866211e+00
2.377000000000000000e+03 1.167737960815429688e+01 -9.437578201293945312e+00 4.146339595317840576e-01 5.464545488357543945e-01 2.883265614509582520e-01 1.291246533393859863e+00
2.378000000000000000e+03 3.748640441894531250e+01 -6.367814540863037109e+00 2.273622512817382812e+00 7.754986763000488281e+00 3.008582830429077148e+00 6.740013957023620605e-01
2.379000000000000000e+03 7.334209442138671875e+01 3.340550184249877930e+00 -4.333540201187133789e-01 7.199747085571289062e+00 2.029917955398559570e+00 -4.390496015548706055e-01
2.380000000000000000e+03 6.911737823486328125e+01 -1.951178908348083496e+00 -8.116561174392700195e-01 6.996626853942871094e+00 1.855491280555725098e+00 -5.901195406913757324e-01
2.381000000000000000e+03 7.247323608398437500e+01 -1.760270833969116211e+00 -6.030532717704772949e-01 7.696906089782714844e+00 2.128155946731567383e+00 1.090973429381847382e-02
2.382000000000000000e+03 2.185216522216796875e+01 -1.218156814575195312e+01 -2.441643550992012024e-02 7.013993859291076660e-01 2.030948847532272339e-01 6.485366225242614746e-01
2.383000000000000000e+03 5.023329544067382812e+01 2.381292724609375000e+01 7.217579483985900879e-01 4.279881000518798828e+00 1.500491738319396973e+00 1.089692234992980957e+00
2.384000000000000000e+03 3.396688461303710938e+01 -1.185297012329101562e+01 1.579359412193298340e+00 4.023601055145263672e+00 1.680888175964355469e+00 -1.148628830909729004e+00
2.385000000000000000e+03 5.615416717529296875e+01 5.798809051513671875e+00 5.890597030520439148e-02 9.837720394134521484e-01 3.128033876419067383e-01 -4.423424005508422852e-01
2.386000000000000000e+03 5.668141555786132812e+01 7.129283905029296875e+00 4.812090098857879639e-01 1.292839765548706055e+00 5.322146415710449219e-01 -4.769228100776672363e-01
2.387000000000000000e+03 6.636298179626464844e+00 -1.065128612518310547e+01 -2.106336653232574463e-01 1.178984642028808594e+00 2.905052900314331055e-01 3.737618029117584229e-01
2.388000000000000000e+03 2.960323905944824219e+01 -7.130549907684326172e+00 3.226381063461303711e+00 9.729614853858947754e-01 1.259802699089050293e+00 -1.605422377586364746e+00
2.389000000000000000e+03 2.796800804138183594e+01 -7.053512573242187500e+00 2.895139932632446289e+00 1.194302797317504883e+00 1.226832866668701172e+00 -1.651511907577514648e+00
2.390000000000000000e+03 7.431344604492187500e+01 2.268617248535156250e+01 1.246296092867851257e-01 6.113772869110107422e+00 1.871520757675170898e+00 -2.148495465517044067e-01
2.391000000000000000e+03 7.333889007568359375e+01 5.882905483245849609e+00 -2.466189712285995483e-01 6.924087047576904297e+00 2.003240346908569336e+00 -5.967163443565368652e-01
2.392000000000000000e+03 6.795214843750000000e+01 2.295229434967041016e+00 -8.871415257453918457e-01 5.757462978363037109e+00 1.461096525192260742e+00 -1.105789661407470703e+00
2.393000000000000000e+03 7.089891815185546875e+01 1.800359725952148438e+01 2.955812215805053711e-01 5.609982013702392578e+00 1.771668910980224609e+00 -5.057590603828430176e-01
2.394000000000000000e+03 7.193426513671875000e+01 1.351347255706787109e+01 1.439197063446044922e-01 5.963333606719970703e+00 1.832175970077514648e+00 -7.118348479270935059e-01
2.395000000000000000e+03 7.340331268310546875e+01 -5.473916530609130859e+00 -2.970344424247741699e-01 8.292311668395996094e+00 2.398583173751831055e+00 3.961069285869598389e-01
2.396000000000000000e+03 7.321162414550781250e+01 -4.357687950134277344e+00 -3.981363475322723389e-01 8.099416732788085938e+00 2.310384035110473633e+00 2.999148964881896973e-01
2.397000000000000000e+03 7.136624908447265625e+01 -1.911140203475952148e+00 -6.561996340751647949e-01 7.533039093017578125e+00 2.063051700592041016e+00 -1.551073938608169556e-01
2.398000000000000000e+03 3.678118133544921875e+01 -1.011165618896484375e+01 1.799195170402526855e+00 7.632455825805664062e+00 2.829495191574096680e+00 -5.726736783981323242e-01
2.399000000000000000e+03 3.326594543457031250e+01 -1.241552162170410156e+01 1.399301648139953613e+00 3.360473394393920898e+00 1.427932500839233398e+00 -1.196922421455383301e+00
2.400000000000000000e+03 6.384464740753173828e+00 2.349570465087890625e+01 1.568729132413864136e-01 1.364248394966125488e+00 4.563364088535308838e-01 -1.246572732925415039e+00
2.401000000000000000e+03 9.092285156250000000e+00 1.762015342712402344e+01 7.284827828407287598e-01 2.094331979751586914e+00 8.468443751335144043e-01 -1.033554911613464355e+00
2.402000000000000000e+03 7.948862075805664062e+00 1.951620292663574219e+01 5.588532090187072754e-01 1.686663269996643066e+00 6.736549139022827148e-01 -1.116723775863647461e+00
2.403000000000000000e+03 6.752130031585693359e+00 1.957900810241699219e+01 4.095802307128906250e-01 1.171031594276428223e+00 4.741835296154022217e-01 -1.028149485588073730e+00
2.404000000000000000e+03 6.160638427734375000e+01 4.318694114685058594e+00 -4.816755950450897217e-01 2.473484516143798828e+00 5.975427031517028809e-01 -1.374889135360717773e+00
2.405000000000000000e+03 6.058077239990234375e+01 6.077737808227539062e+00 -2.043811418116092682e-02 2.236078262329101562e+00 6.646920442581176758e-01 -1.183954715728759766e+00
2.406000000000000000e+03 3.243457412719726562e+01 -7.095962047576904297e+00 3.274409055709838867e+00 1.947552323341369629e+00 1.566588401794433594e+00 -1.043140053749084473e+00
2.407000000000000000e+03 3.270705795288085938e+01 -1.289903831481933594e+01 1.132299780845642090e+00 2.765497684478759766e+00 1.169339179992675781e+00 -1.199683427810668945e+00
2.408000000000000000e+03 6.309030532836914062e+01 3.953190088272094727e+00 -6.360905170440673828e-01 3.269738197326660156e+00 7.900942564010620117e-01 -1.487844824790954590e+00
2.409000000000000000e+03 7.048553466796875000e+01 1.138627147674560547e+01 1.041252613067626953e-01 5.692456245422363281e+00 1.738974452018737793e+00 -8.573293685913085938e-01
2.410000000000000000e+03 6.180464744567871094e+00 -8.071495056152343750e+00 -7.609046250581741333e-02 5.750844478607177734e-01 1.496981978416442871e-01 2.028364539146423340e-01
2.411000000000000000e+03 5.507128715515136719e+00 -8.945563316345214844e+00 -1.215010285377502441e-01 6.065608263015747070e-01 1.455179452896118164e-01 1.281699240207672119e-01
2.412000000000000000e+03 5.931483268737792969e+00 1.044419574737548828e+01 6.161483526229858398e-01 -6.303176283836364746e-02 1.659349799156188965e-01 2.158015370368957520e-01
2.413000000000000000e+03 7.115169048309326172e+00 7.974897384643554688e+00 5.811923146247863770e-01 2.267915057018399239e-03 1.750380694866180420e-01 5.110889077186584473e-01
2.414000000000000000e+03 7.874561309814453125e+00 7.852004051208496094e+00 7.406384348869323730e-01 1.783674210309982300e-01 2.757017612457275391e-01 4.404324293136596680e-01
2.415000000000000000e+03 7.880950450897216797e+00 3.119271278381347656e+01 -4.015890955924987793e-01 1.986404061317443848e+00 4.754444658756256104e-01 -1.116357684135437012e+00
2.416000000000000000e+03 4.750180816650390625e+01 9.985537528991699219e+00 1.997818350791931152e+00 3.504758596420288086e+00 1.650773048400878906e+00 2.187965869903564453e+00
2.417000000000000000e+03 5.071529769897460938e+01 7.989404678344726562e+00 1.387884855270385742e+00 1.416050195693969727e+00 8.411805033683776855e-01 9.549425244331359863e-01
2.418000000000000000e+03 2.167498779296875000e+01 -1.309609889984130859e+01 -3.778966367244720459e-01 5.534825325012207031e-01 5.267576500773429871e-02 6.987326741218566895e-01
2.419000000000000000e+03 6.435333251953125000e+01 3.292305707931518555e+00 -7.727274894714355469e-01 3.884290933609008789e+00 9.334690570831298828e-01 -1.496361374855041504e+00
2.420000000000000000e+03 7.248200988769531250e+01 2.220804595947265625e+01 2.071642130613327026e-01 5.853291988372802734e+00 1.818136811256408691e+00 -2.731803953647613525e-01
2.421000000000000000e+03 9.849967002868652344e+00 2.597436332702636719e+01 -1.477049943059682846e-02 2.304967403411865234e+00 6.870591044425964355e-01 -1.309339761734008789e+00
2.422000000000000000e+03 1.117670822143554688e+01 1.194361209869384766e+01 1.323052048683166504e+00 2.434356689453125000e+00 1.127222657203674316e+00 -9.451820850372314453e-01
2.423000000000000000e+03 3.576522445678710938e+01 -9.742789268493652344e+00 2.187340974807739258e+00 5.952998161315917969e+00 2.442101716995239258e+00 -6.290398240089416504e-01
2.424000000000000000e+03 3.236092758178710938e+01 -1.345436668395996094e+01 7.058947682380676270e-01 2.134682655334472656e+00 8.521732091903686523e-01 -1.196561574935913086e+00
2.425000000000000000e+03 6.804853820800781250e+01 2.909280586242675781e+01 2.039150446653366089e-01 5.358520984649658203e+00 1.668730854988098145e+00 7.273927330970764160e-02
2.426000000000000000e+03 7.279962921142578125e+01 2.130130958557128906e+01 1.968424171209335327e-01 5.914291858673095703e+00 1.833340167999267578e+00 -3.086363375186920166e-01
2.427000000000000000e+03 3.624199676513671875e+01 -5.517976284027099609e+00 2.458681344985961914e+00 5.557495117187500000e+00 2.404853105545043945e+00 4.196972846984863281e-01
2.428000000000000000e+03 3.545490646362304688e+01 -7.223834991455078125e+00 2.737930774688720703e+00 5.052365779876708984e+00 2.337089061737060547e+00 -1.838836073875427246e-01
2.429000000000000000e+03 2.201902008056640625e+01 -1.132023715972900391e+01 3.051619529724121094e-01 8.572907447814941406e-01 3.487358093261718750e-01 6.245249509811401367e-01
2.430000000000000000e+03 7.435877323150634766e+00 -8.696650505065917969e+00 -8.081345260143280029e-02 8.221813440322875977e-01 2.224103659391403198e-01 4.473795294761657715e-01
2.431000000000000000e+03 7.227750396728515625e+01 6.717589497566223145e-01 -6.455538272857666016e-01 7.321097850799560547e+00 2.002663135528564453e+00 -2.883090972900390625e-01
2.432000000000000000e+03 4.900020217895507812e+01 1.723993682861328125e+01 1.489719748497009277e+00 4.211462020874023438e+00 1.710354566574096680e+00 1.660354495048522949e+00
2.433000000000000000e+03 5.009008026123046875e+01 2.045698356628417969e+01 1.140908598899841309e+00 4.203395843505859375e+00 1.603291392326354980e+00 1.359040617942810059e+00
2.434000000000000000e+03 7.239388275146484375e+01 3.654136180877685547e+00 -4.857452511787414551e-01 6.922272205352783203e+00 1.930958151817321777e+00 -5.635729432106018066e-01
2.435000000000000000e+03 6.679656219482421875e+01 1.771778225898742676e+00 -9.911855459213256836e-01 5.335604190826416016e+00 1.303325533866882324e+00 -1.252812743186950684e+00
2.436000000000000000e+03 7.207779693603515625e+01 -6.333338260650634766e+00 -2.647139430046081543e-01 8.466842651367187500e+00 2.460638523101806641e+00 1.048886179924011230e-01
2.437000000000000000e+03 7.244585418701171875e+01 -5.123843669891357422e+00 -3.726155757904052734e-01 8.226880073547363281e+00 2.356279373168945312e+00 2.000640034675598145e-01
2.438000000000000000e+03 7.221499633789062500e+01 5.684120655059814453e+00 -3.267205357551574707e-01 6.654530525207519531e+00 1.898342967033386230e+00 -6.962649226188659668e-01
2.439000000000000000e+03 7.043289947509765625e+01 3.600375747680664062e+01 -4.462210834026336670e-02 5.755362033843994141e+00 1.713222026824951172e+00 6.967091560363769531e-02
2.440000000000000000e+03 6.799624633789062500e+01 3.247512817382812500e+01 8.373103290796279907e-02 5.456542015075683594e+00 1.662081956863403320e+00 1.105834618210792542e-01
2.441000000000000000e+03 2.500517272949218750e+01 -1.187867355346679688e+01 4.255396425724029541e-01 7.141695022583007812e-01 3.419127464294433594e-01 8.016574382781982422e-02
2.442000000000000000e+03 2.357562637329101562e+01 -1.323303318023681641e+01 -4.159020185470581055e-01 5.921933054924011230e-01 5.288738012313842773e-02 4.910390675067901611e-01
2.443000000000000000e+03 4.131523132324218750e+01 -2.972276306152343750e+01 -1.172020807862281799e-01 5.239220142364501953e+00 1.536605477333068848e+00 -1.179185986518859863e+00
2.444000000000000000e+03 9.960643768310546875e+00 2.738237380981445312e+01 -1.992387324571609497e-01 2.224806547164916992e+00 6.076703667640686035e-01 -1.276809573173522949e+00
2.445000000000000000e+03 6.638743877410888672e+00 2.534836769104003906e+01 3.393087908625602722e-02 1.520158410072326660e+00 4.662267565727233887e-01 -1.288176774978637695e+00
2.446000000000000000e+03 3.471844100952148438e+01 -1.125000667572021484e+01 1.769839525222778320e+00 5.000481605529785156e+00 2.031096458435058594e+00 -1.045226216316223145e+00
2.447000000000000000e+03 9.009200096130371094e+00 2.741152381896972656e+01 -1.633931398391723633e-01 2.092923879623413086e+00 5.788592100143432617e-01 -1.328185319900512695e+00
2.448000000000000000e+03 1.106395721435546875e+01 2.744943237304687500e+01 -2.190011441707611084e-01 2.388623714447021484e+00 6.508867740631103516e-01 -1.185492396354675293e+00
2.449000000000000000e+03 5.795683670043945312e+01 6.669977664947509766e+00 2.755504548549652100e-01 1.510675072669982910e+00 5.358676910400390625e-01 -7.456147670745849609e-01
2.450000000000000000e+03 7.333147430419921875e+01 2.251374244689941406e+01 1.645292639732360840e-01 5.984804630279541016e+00 1.844800233840942383e+00 -2.482048869132995605e-01
2.451000000000000000e+03 7.977842330932617188e+00 3.302784347534179688e+01 -4.850170016288757324e-01 1.998846173286437988e+00 4.541487693786621094e-01 -9.518878459930419922e-01
2.452000000000000000e+03 8.237622261047363281e+00 -1.180614376068115234e+01 -1.386896520853042603e-01 1.616436362266540527e+00 4.433240294456481934e-01 8.875460028648376465e-01
2.453000000000000000e+03 9.370748519897460938e+00 -1.185045909881591797e+01 -1.243341341614723206e-02 1.475811362266540527e+00 4.390133917331695557e-01 1.285464048385620117e+00
2.454000000000000000e+03 7.003881931304931641e+00 2.803920364379882812e+01 -1.472919881343841553e-01 1.782392978668212891e+00 4.905302822589874268e-01 -1.277734041213989258e+00
2.455000000000000000e+03 3.815032196044921875e+01 -2.561391258239746094e+01 1.369343638420104980e+00 8.648788452148437500e+00 3.005439519882202148e+00 -5.441653355956077576e-02
2.456000000000000000e+03 6.816226196289062500e+01 -8.113011717796325684e-01 -1.022804379463195801e+00 6.420947551727294922e+00 1.619442939758300781e+00 -8.587641716003417969e-01
2.457000000000000000e+03 7.022695159912109375e+01 -3.305825471878051758e+00 -5.771433115005493164e-01 7.606298446655273438e+00 2.108746528625488281e+00 -3.364054262638092041e-01
2.458000000000000000e+03 7.486833953857421875e+01 -1.732779312133789062e+01 6.061878204345703125e-01 9.187880516052246094e+00 2.938220262527465820e+00 -3.932772278785705566e-01
2.459000000000000000e+03 6.957934570312500000e+01 2.752234458923339844e+01 2.182811647653579712e-01 5.498481750488281250e+00 1.715028762817382812e+00 -1.171501167118549347e-02
2.460000000000000000e+03 4.832478332519531250e+01 1.464579391479492188e+01 1.820011138916015625e+00 4.121613025665283203e+00 1.782487154006958008e+00 1.952126622200012207e+00
2.461000000000000000e+03 5.008865356445312500e+01 2.610595893859863281e+01 4.817082285881042480e-01 4.252836704254150391e+00 1.420363545417785645e+00 1.005405902862548828e+00
2.462000000000000000e+03 4.883587265014648438e+01 2.630030822753906250e+01 3.932664692401885986e-01 4.330693721771240234e+00 1.417188048362731934e+00 9.539769291877746582e-01
2.463000000000000000e+03 1.039548492431640625e+01 1.936721420288085938e+01 6.343827247619628906e-01 2.815826892852783203e+00 1.035062909126281738e+00 -1.176192641258239746e+00
2.464000000000000000e+03 1.039112567901611328e+01 3.700844573974609375e+01 -7.765896916389465332e-01 1.806168317794799805e+00 3.088735938072204590e-01 -5.611687898635864258e-01
2.465000000000000000e+03 8.870008468627929688e+00 3.547578430175781250e+01 -6.154446601867675781e-01 1.994571685791015625e+00 4.137381017208099365e-01 -7.101086974143981934e-01
2.466000000000000000e+03 8.047796249389648438e+00 2.774097824096679688e+01 -1.540485024452209473e-01 1.929000377655029297e+00 5.324855446815490723e-01 -1.321729660034179688e+00
2.467000000000000000e+03 8.801679611206054688e+00 2.615763282775878906e+01 -3.755903616547584534e-02 2.064589500427246094e+00 6.081091165542602539e-01 -1.348744511604309082e+00
2.468000000000000000e+03 7.146249389648437500e+01 3.125728607177734375e+01 7.908335328102111816e-02 5.754686355590820312e+00 1.750130891799926758e+00 4.404950514435768127e-02
2.469000000000000000e+03 6.963317108154296875e+01 3.052121734619140625e+01 1.267882585525512695e-01 5.564634323120117188e+00 1.707426786422729492e+00 5.815038457512855530e-02
2.470000000000000000e+03 4.792504882812500000e+01 7.030082225799560547e+00 1.413781285285949707e+00 2.161516427993774414e+00 1.072589278221130371e+00 1.999841690063476562e+00
2.471000000000000000e+03 4.890377426147460938e+01 7.961493015289306641e+00 1.658310413360595703e+00 1.997345209121704102e+00 1.096696615219116211e+00 1.608429670333862305e+00
2.472000000000000000e+03 4.969004440307617188e+01 6.874985694885253906e+00 1.084263801574707031e+00 1.309181451797485352e+00 7.180336117744445801e-01 1.157110333442687988e+00
2.473000000000000000e+03 4.719097137451171875e+01 1.426324462890625000e+01 1.787197709083557129e+00 4.653632164001464844e+00 1.932248950004577637e+00 2.159468650817871094e+00
2.474000000000000000e+03 4.776827621459960938e+01 1.257158565521240234e+01 2.013299942016601562e+00 4.047239303588867188e+00 1.818161845207214355e+00 2.160222530364990234e+00
2.475000000000000000e+03 4.959159088134765625e+01 1.542074489593505859e+01 1.784662008285522461e+00 3.752462387084960938e+00 1.661137342453002930e+00 1.692863464355468750e+00
2.476000000000000000e+03 1.762336158752441406e+01 4.127234268188476562e+01 -1.297724962234497070e+00 4.892151057720184326e-01 -2.425529360771179199e-01 -5.367393791675567627e-02
2.477000000000000000e+03 2.206664466857910156e+01 -4.171443462371826172e+00 1.795645713806152344e+00 4.448420524597167969e+00 1.873219847679138184e+00 1.392844170331954956e-01
2.478000000000000000e+03 2.081566429138183594e+01 -3.708350181579589844e+00 2.203793525695800781e+00 2.957607507705688477e+00 1.548420310020446777e+00 1.340998411178588867e+00
2.479000000000000000e+03 2.118318939208984375e+01 -3.707999944686889648e+00 2.027044534683227539e+00 3.745601654052734375e+00 1.731793880462646484e+00 1.179476261138916016e+00
2.480000000000000000e+03 2.201180839538574219e+01 -3.653709650039672852e+00 1.806925654411315918e+00 5.145702838897705078e+00 2.085788726806640625e+00 2.041531652212142944e-01
2.481000000000000000e+03 2.255357360839843750e+01 -4.198116302490234375e+00 1.931858658790588379e+00 4.635771274566650391e+00 1.970288991928100586e+00 -5.562952160835266113e-01
2.482000000000000000e+03 1.726010894775390625e+01 -5.873225688934326172e+00 1.568413496017456055e+00 3.326323330402374268e-01 5.703137516975402832e-01 1.088347911834716797e+00
2.483000000000000000e+03 1.776438522338867188e+01 -5.902883529663085938e+00 1.622364044189453125e+00 4.883432686328887939e-01 6.332122087478637695e-01 1.140491604804992676e+00
2.484000000000000000e+03 8.422083854675292969e+00 -6.317889690399169922e+00 1.373344808816909790e-01 3.881942033767700195e-01 1.576586067676544189e-01 4.259692430496215820e-01
2.485000000000000000e+03 1.678691864013671875e+01 -6.375356197357177734e+00 1.427217364311218262e+00 2.570951282978057861e-01 5.052937269210815430e-01 1.127898335456848145e+00
2.486000000000000000e+03 1.210786914825439453e+01 -6.734563350677490234e+00 6.216742396354675293e-01 2.222413420677185059e-01 2.531746625900268555e-01 8.955568075180053711e-01
2.487000000000000000e+03 2.507162666320800781e+01 -5.467259407043457031e+00 2.668729066848754883e+00 2.650705575942993164e+00 1.595830440521240234e+00 -1.676020860671997070e+00
2.488000000000000000e+03 6.920194149017333984e+00 -7.862253189086914062e+00 -5.572890490293502808e-02 6.058876514434814453e-01 1.650476306676864624e-01 2.904827594757080078e-01
2.489000000000000000e+03 1.002589321136474609e+01 -5.414699077606201172e+00 3.397626876831054688e-01 2.249060124158859253e-01 1.694006174802780151e-01 5.074313879013061523e-01
2.490000000000000000e+03 9.800581932067871094e+00 -6.577702045440673828e+00 3.062336146831512451e-01 3.612298667430877686e-01 2.002390474081039429e-01 6.346485018730163574e-01
2.491000000000000000e+03 1.415571784973144531e+01 -6.918550968170166016e+00 9.593086838722229004e-01 1.238277032971382141e-01 3.249409198760986328e-01 1.079115986824035645e+00
2.492000000000000000e+03 1.320528411865234375e+01 8.522929191589355469e+00 1.822237968444824219e+00 2.477459907531738281e+00 1.289909362792968750e+00 -1.257943272590637207e+00
2.493000000000000000e+03 2.665888404846191406e+01 -5.513101577758789062e+00 3.146396875381469727e+00 1.727617621421813965e+00 1.462204337120056152e+00 -1.958026528358459473e+00
2.494000000000000000e+03 1.274203395843505859e+01 -6.740272521972656250e+00 7.312020659446716309e-01 1.785290241241455078e-01 2.729193270206451416e-01 9.462906122207641602e-01
2.495000000000000000e+03 1.271489524841308594e+01 -6.117285251617431641e+00 7.386273145675659180e-01 1.364480555057525635e-01 2.625226080417633057e-01 8.486242294311523438e-01
2.496000000000000000e+03 9.450361251831054688e+00 6.356283187866210938e+00 7.378622889518737793e-01 2.898382246494293213e-01 3.083101511001586914e-01 4.510796070098876953e-01
2.497000000000000000e+03 1.106205940246582031e+01 9.921573638916015625e+00 1.449772834777832031e+00 1.776009202003479004e+00 9.677346348762512207e-01 -6.703199148178100586e-01
2.498000000000000000e+03 1.015362071990966797e+01 6.443641662597656250e+00 9.176701307296752930e-01 4.554112851619720459e-01 4.119244217872619629e-01 2.612580358982086182e-01
2.499000000000000000e+03 2.769613265991210938e+01 -1.273717498779296875e+01 5.216199159622192383e-01 3.799991309642791748e-01 2.704856991767883301e-01 -1.901118159294128418e-01
2.500000000000000000e+03 2.581571388244628906e+01 -1.142480278015136719e+01 7.499651908874511719e-01 7.799847722053527832e-01 4.589850008487701416e-01 -1.786822676658630371e-01
2.501000000000000000e+03 1.516449165344238281e+01 -1.120226097106933594e+01 5.597111582756042480e-01 6.090984493494033813e-02 1.861862987279891968e-01 1.442338109016418457e+00
2.502000000000000000e+03 9.000013351440429688e+00 -6.162819862365722656e+00 2.051462084054946899e-01 3.546507954597473145e-01 1.679390966892242432e-01 4.843008816242218018e-01
2.503000000000000000e+03 1.412133312225341797e+01 -6.184030532836914062e+00 9.982776045799255371e-01 8.255308866500854492e-02 3.242492079734802246e-01 9.485543370246887207e-01
2.504000000000000000e+03 1.565438938140869141e+01 -6.685829639434814453e+00 1.225477457046508789e+00 1.320736259222030640e-01 4.072653055191040039e-01 1.115876913070678711e+00
2.505000000000000000e+03 2.716933059692382812e+01 -7.126479625701904297e+00 2.646572113037109375e+00 1.415829300880432129e+00 1.218720436096191406e+00 -1.574359893798828125e+00
2.506000000000000000e+03 1.246951961517333984e+01 8.207036972045898438e+00 1.744675397872924805e+00 1.930142521858215332e+00 1.102445363998413086e+00 -9.192168712615966797e-01
2.507000000000000000e+03 9.258632659912109375e+00 2.292950248718261719e+01 2.900476455688476562e-01 2.252334833145141602e+00 7.627147436141967773e-01 -1.307923674583435059e+00
2.508000000000000000e+03 7.152905273437500000e+01 1.664706349372863770e+00 -6.458191275596618652e-01 7.014160633087158203e+00 1.910502552986145020e+00 -4.875580370426177979e-01
2.509000000000000000e+03 7.199593353271484375e+01 2.650898694992065430e+00 -5.744211673736572266e-01 6.976078987121582031e+00 1.920497417449951172e+00 -5.207944512367248535e-01
2.510000000000000000e+03 3.046309471130371094e+01 -7.264431953430175781e+00 3.230192184448242188e+00 1.124458789825439453e+00 1.306395292282104492e+00 -1.436220407485961914e+00
2.511000000000000000e+03 7.128294372558593750e+01 -5.933648347854614258e-01 -7.353942394256591797e-01 7.257786750793457031e+00 1.956717729568481445e+00 -3.163548111915588379e-01
2.512000000000000000e+03 7.138771057128906250e+01 -4.707409858703613281e+00 -4.331264793872833252e-01 8.125764846801757812e+00 2.307791471481323242e+00 -4.853983595967292786e-02
2.513000000000000000e+03 3.203136825561523438e+01 -1.236481189727783203e+01 1.463805079460144043e+00 2.079894304275512695e+00 1.063109755516052246e+00 -1.140160322189331055e+00
2.514000000000000000e+03 2.093340873718261719e+01 -1.204003429412841797e+01 4.086933284997940063e-02 6.294983029365539551e-01 2.011103034019470215e-01 8.078026771545410156e-01
2.515000000000000000e+03 1.759780883789062500e+01 -1.101356315612792969e+01 4.871429204940795898e-01 2.674641609191894531e-01 2.263821214437484741e-01 1.238825678825378418e+00
2.516000000000000000e+03 1.797196197509765625e+01 -1.209175395965576172e+01 1.803700029850006104e-01 2.177249491214752197e-01 1.194284856319427490e-01 1.131216645240783691e+00
2.517000000000000000e+03 1.584501266479492188e+01 -9.382792472839355469e+00 8.561864495277404785e-01 2.073311209678649902e-01 3.190552592277526855e-01 1.368377208709716797e+00
2.518000000000000000e+03 1.385250854492187500e+01 -1.111784076690673828e+01 5.680226087570190430e-01 1.518116295337677002e-01 2.159502655267715454e-01 1.543413996696472168e+00
2.519000000000000000e+03 1.521742820739746094e+01 -1.256985282897949219e+01 3.208886981010437012e-01 -6.722629815340042114e-02 7.609872519969940186e-02 1.379016995429992676e+00
2.520000000000000000e+03 1.191423892974853516e+01 1.067809867858886719e+01 1.481121897697448730e+00 2.527837514877319336e+00 1.202687859535217285e+00 -1.034319162368774414e+00
2.521000000000000000e+03 9.234056472778320312e+00 7.017078399658203125e+00 8.403481841087341309e-01 3.462647795677185059e-01 3.559838831424713135e-01 3.652997910976409912e-01
2.522000000000000000e+03 5.429022789001464844e+00 8.359545707702636719e+00 4.139102995395660400e-01 -3.239787220954895020e-01 2.697947621345520020e-02 5.649416446685791016e-01
2.523000000000000000e+03 7.248380279541015625e+01 4.595699787139892578e+00 -3.935683667659759521e-01 6.833173274993896484e+00 1.931881427764892578e+00 -6.244310140609741211e-01
2.524000000000000000e+03 2.356487083435058594e+01 -1.239219093322753906e+01 -1.770673878490924835e-02 7.006195783615112305e-01 2.048738449811935425e-01 4.016012251377105713e-01
2.525000000000000000e+03 2.112392997741699219e+01 -1.120812034606933594e+01 3.046253025531768799e-01 7.864710688591003418e-01 3.273289203643798828e-01 7.601119875907897949e-01
2.526000000000000000e+03 1.446704673767089844e+01 -1.185831928253173828e+01 4.641475081443786621e-01 6.786838173866271973e-02 1.596047729253768921e-01 1.480273127555847168e+00
2.527000000000000000e+03 2.790456390380859375e+01 -1.136356544494628906e+01 1.246856331825256348e+00 6.325299143791198730e-01 5.638158917427062988e-01 -5.476247668266296387e-01
2.528000000000000000e+03 6.678451538085937500e+00 8.799464225769042969e+00 6.336222887039184570e-01 -4.155323840677738190e-03 1.888400763273239136e-01 4.327665269374847412e-01
2.529000000000000000e+03 2.629857063293457031e+01 -1.236912441253662109e+01 4.190378785133361816e-01 5.469287037849426270e-01 2.897899746894836426e-01 -4.050774872303009033e-02
2.530000000000000000e+03 7.150049591064453125e+01 8.301744461059570312e+00 -1.531432271003723145e-01 6.206072807312011719e+00 1.815878868103027344e+00 -8.485558032989501953e-01
2.531000000000000000e+03 6.953486633300781250e+01 1.819518470764160156e+01 3.955018222332000732e-01 5.301608085632324219e+00 1.709132909774780273e+00 -5.015796422958374023e-01
2.532000000000000000e+03 3.464171600341796875e+01 -1.286924648284912109e+01 9.115744829177856445e-01 5.091046810150146484e+00 1.800786375999450684e+00 -1.276867628097534180e+00
2.533000000000000000e+03 1.047010040283203125e+01 1.334819221496582031e+01 1.153823494911193848e+00 2.356911182403564453e+00 1.053220391273498535e+00 -8.876084685325622559e-01
2.534000000000000000e+03 7.017240905761718750e+01 1.417068290710449219e+01 2.583385407924652100e-01 5.508005619049072266e+00 1.729903221130371094e+00 -7.507445216178894043e-01
2.535000000000000000e+03 3.653710937500000000e+01 -6.708514213562011719e+00 2.559589862823486328e+00 6.303410053253173828e+00 2.658900022506713867e+00 1.381744891405105591e-01
2.536000000000000000e+03 1.011145401000976562e+01 -7.265211582183837891e+00 3.066885769367218018e-01 4.257259368896484375e-01 2.197243571281433105e-01 7.646303176879882812e-01
2.537000000000000000e+03 6.916227340698242188e+00 -9.296097755432128906e+00 -1.476789563894271851e-01 8.667775988578796387e-01 2.157295942306518555e-01 3.421869874000549316e-01
2.538000000000000000e+03 7.221381664276123047e+00 1.393809127807617188e+01 7.560730576515197754e-01 8.484122157096862793e-01 4.813455939292907715e-01 -4.732776284217834473e-01
2.539000000000000000e+03 9.164475440979003906e+00 1.942714691162109375e+01 6.170299649238586426e-01 2.225595235824584961e+00 8.527875542640686035e-01 -1.171232819557189941e+00
2.540000000000000000e+03 7.816086769104003906e+00 1.802050781250000000e+01 5.697990655899047852e-01 1.484017252922058105e+00 6.161448955535888672e-01 -9.710469245910644531e-01
2.541000000000000000e+03 3.420535659790039062e+01 -7.659272193908691406e+00 2.960344791412353516e+00 3.632488012313842773e+00 1.977849841117858887e+00 -6.733728051185607910e-01
2.542000000000000000e+03 7.245221614837646484e+00 2.244883346557617188e+01 2.613216340541839600e-01 1.578588604927062988e+00 5.519730448722839355e-01 -1.260880351066589355e+00
2.543000000000000000e+03 7.873380184173583984e+00 1.489381980895996094e+01 8.017013072967529297e-01 1.247226476669311523e+00 6.146783232688903809e-01 -6.559467315673828125e-01
2.544000000000000000e+03 7.019461059570312500e+01 8.874271512031555176e-01 -8.437198996543884277e-01 6.754522323608398438e+00 1.773240804672241211e+00 -6.302524805068969727e-01
2.545000000000000000e+03 6.197114944458007812e+01 5.804431438446044922e+00 -1.804132610559463501e-01 2.782422542572021484e+00 7.806027531623840332e-01 -1.339886307716369629e+00
2.546000000000000000e+03 1.019859600067138672e+01 9.119543075561523438e+00 1.287939667701721191e+00 1.190518736839294434e+00 7.435375452041625977e-01 -3.017303347587585449e-01
2.547000000000000000e+03 3.541322708129882812e+01 -1.060939311981201172e+01 1.921486020088195801e+00 5.741329193115234375e+00 2.298844575881958008e+00 -8.167927265167236328e-01
2.548000000000000000e+03 3.695975494384765625e+01 -8.673043251037597656e+00 2.256492614746093750e+00 7.470190525054931641e+00 2.918004989624023438e+00 -1.008769720792770386e-01
2.549000000000000000e+03 6.622690582275390625e+01 2.927053928375244141e+00 -8.901615142822265625e-01 4.947910785675048828e+00 1.217324852943420410e+00 -1.376951694488525391e+00
2.550000000000000000e+03 6.916815948486328125e+01 1.201369643211364746e+00 -9.077404737472534180e-01 6.421300888061523438e+00 1.654068112373352051e+00 -8.296617865562438965e-01
2.551000000000000000e+03 1.019570732116699219e+01 1.119431877136230469e+01 1.245552897453308105e+00 1.697446703910827637e+00 8.828998804092407227e-01 -5.940822958946228027e-01
2.552000000000000000e+03 7.122353553771972656e+00 1.135821437835693359e+01 7.608610987663269043e-01 4.444851279258728027e-01 3.616038858890533447e-01 -5.693175643682479858e-02
2.553000000000000000e+03 4.991573715209960938e+01 1.114381027221679688e+01 1.991239786148071289e+00 2.663218021392822266e+00 1.396337389945983887e+00 1.570681929588317871e+00
2.554000000000000000e+03 7.112863922119140625e+01 5.259120464324951172e+00 -4.137233495712280273e-01 6.423334598541259766e+00 1.802883267402648926e+00 -8.012059330940246582e-01
2.555000000000000000e+03 2.849764060974121094e+01 -1.214475154876708984e+01 1.019543647766113281e+00 5.763773322105407715e-01 4.787762761116027832e-01 -5.047996044158935547e-01
2.556000000000000000e+03 7.022756195068359375e+01 -1.945584058761596680e+00 -7.569315433502197266e-01 7.295799255371093750e+00 1.961660265922546387e+00 -3.696551620960235596e-01
2.557000000000000000e+03 1.042794227600097656e+01 -1.102786445617675781e+01 1.621310561895370483e-01 9.862739443778991699e-01 3.445214927196502686e-01 1.390429973602294922e+00
2.558000000000000000e+03 1.074799728393554688e+01 -9.254794120788574219e+00 2.749754190444946289e-01 6.510459184646606445e-01 2.778064012527465820e-01 1.130750417709350586e+00
2.559000000000000000e+03 5.643124389648437500e+01 8.814956665039062500e+00 9.717283844947814941e-01 1.606080412864685059e+00 7.733426094055175781e-01 -2.983218431472778320e-01
2.560000000000000000e+03 5.246751022338867188e+01 8.391046524047851562e+00 1.339837670326232910e+00 1.347159743309020996e+00 8.060991764068603516e-01 5.508566498756408691e-01
2.561000000000000000e+03 7.220568084716796875e+01 -3.617720794677734375e+01 -6.992982029914855957e-01 7.804091930389404297e+00 2.131438255310058594e+00 -1.157280057668685913e-01
2.562000000000000000e+03 4.898173141479492188e+01 1.172936344146728516e+01 2.048278093338012695e+00 3.099851846694946289e+00 1.544438958168029785e+00 1.815407156944274902e+00
2.563000000000000000e+03 2.966636276245117188e+01 -7.997394084930419922e+00 2.912804365158081055e+00 1.142197728157043457e+00 1.216500639915466309e+00 -1.457804441452026367e+00
2.564000000000000000e+03 3.191946792602539062e+01 -8.960963249206542969e+00 2.836414575576782227e+00 2.013546705245971680e+00 1.454988360404968262e+00 -1.204478144645690918e+00
2.565000000000000000e+03 4.814584732055664062e+01 8.981610298156738281e+00 1.923831343650817871e+00 2.811533927917480469e+00 1.420609593391418457e+00 2.006635189056396484e+00
2.566000000000000000e+03 5.139525985717773438e+01 2.536864852905273438e+01 6.025894284248352051e-01 4.185832023620605469e+00 1.436526417732238770e+00 1.024968028068542480e+00
2.567000000000000000e+03 6.957642364501953125e+01 1.968959045410156250e+01 3.903179168701171875e-01 5.342118740081787109e+00 1.719730973243713379e+00 -4.028487205505371094e-01
2.568000000000000000e+03 4.876879882812500000e+01 -3.127982521057128906e+01 -2.425654977560043335e-01 1.687905073165893555e+00 4.336018562316894531e-01 -7.387233972549438477e-01
2.569000000000000000e+03 6.983860778808593750e+01 2.485655212402343750e+01 2.864028811454772949e-01 5.465397357940673828e+00 1.725540161132812500e+00 -1.207566484808921814e-01
2.570000000000000000e+03 7.043240356445312500e+01 2.251773071289062500e+01 3.064992725849151611e-01 5.520039558410644531e+00 1.747961640357971191e+00 -2.426759153604507446e-01
2.571000000000000000e+03 3.124410820007324219e+01 -7.953111171722412109e+00 3.114236831665039062e+00 1.489403605461120605e+00 1.381092190742492676e+00 -1.294715166091918945e+00
2.572000000000000000e+03 2.825438308715820312e+01 -9.020715713500976562e+00 2.297936439514160156e+00 1.037804961204528809e+00 1.000722408294677734e+00 -1.193351864814758301e+00
2.573000000000000000e+03 5.038316345214843750e+01 1.793559265136718750e+01 1.485399723052978516e+00 3.856820821762084961e+00 1.602666139602661133e+00 1.424470067024230957e+00
2.574000000000000000e+03 8.431804656982421875e+00 1.217098331451416016e+01 9.744747877120971680e-01 1.089253187179565430e+00 6.191183924674987793e-01 -3.755886554718017578e-01
2.575000000000000000e+03 7.431673049926757812e+00 1.239901256561279297e+01 8.010381460189819336e-01 6.538586020469665527e-01 4.364690184593200684e-01 -2.343534082174301147e-01
2.576000000000000000e+03 4.757440185546875000e+01 1.683903694152832031e+01 1.414930939674377441e+00 4.736155986785888672e+00 1.845326066017150879e+00 1.823399186134338379e+00
2.577000000000000000e+03 1.053252601623535156e+01 3.197191810607910156e+01 -6.629347801208496094e-01 1.977276921272277832e+00 3.943026363849639893e-01 -9.956704378128051758e-01
2.578000000000000000e+03 5.160688018798828125e+01 2.275473594665527344e+01 9.353473782539367676e-01 4.093070507049560547e+00 1.508525371551513672e+00 1.124804615974426270e+00
2.579000000000000000e+03 6.974008941650390625e+01 1.666264343261718750e+01 3.617615401744842529e-01 5.353368759155273438e+00 1.714539170265197754e+00 -6.126978397369384766e-01
2.580000000000000000e+03 6.088790130615234375e+01 7.638430595397949219e+00 3.105764389038085938e-01 2.534539461135864258e+00 8.535347580909729004e-01 -1.096999168395996094e+00
2.581000000000000000e+03 5.094542694091796875e+01 1.578826999664306641e+01 1.756885170936584473e+00 3.434131860733032227e+00 1.557305097579956055e+00 1.433743715286254883e+00
2.582000000000000000e+03 5.125994873046875000e+01 1.910355377197265625e+01 1.361536264419555664e+00 3.810349702835083008e+00 1.551565766334533691e+00 1.269763708114624023e+00
2.583000000000000000e+03 7.025852966308593750e+01 7.838694572448730469e+00 -1.900657713413238525e-01 5.899546146392822266e+00 1.712844014167785645e+00 -9.563506841659545898e-01
2.584000000000000000e+03 6.553867340087890625e+01 4.220018863677978516e+00 -6.597090363502502441e-01 4.401647567749023438e+00 1.122581601142883301e+00 -1.442503213882446289e+00
2.585000000000000000e+03 6.347790145874023438e+01 5.571767330169677734e+00 -3.163249194622039795e-01 3.477196931838989258e+00 9.482616186141967773e-01 -1.420780658721923828e+00
2.586000000000000000e+03 5.057154846191406250e+01 2.786528587341308594e+01 2.758277058601379395e-01 4.235846519470214844e+00 1.353502154350280762e+00 9.633985757827758789e-01
2.587000000000000000e+03 7.831121921539306641e+00 2.109208679199218750e+01 3.769189715385437012e-01 1.715027689933776855e+00 6.275839805603027344e-01 -1.218693256378173828e+00
2.588000000000000000e+03 9.463480949401855469e+00 1.258361911773681641e+01 1.100750923156738281e+00 1.626880288124084473e+00 8.182893991470336914e-01 -6.008638143539428711e-01
2.589000000000000000e+03 4.152941894531250000e+01 -3.256532669067382812e+01 -7.822220325469970703e-01 4.829635620117187500e+00 1.214224100112915039e+00 -1.008813619613647461e+00
2.590000000000000000e+03 4.263464736938476562e+01 -3.127517700195312500e+01 -3.619615137577056885e-01 4.495282649993896484e+00 1.239996314048767090e+00 -1.197013139724731445e+00
2.591000000000000000e+03 7.440280151367187500e+01 -2.041133117675781250e+01 4.482368826866149902e-01 9.727746963500976562e+00 3.052794933319091797e+00 -7.548260688781738281e-01
2.592000000000000000e+03 4.809570312500000000e+01 -3.364659500122070312e+01 -4.969569444656372070e-01 2.249689579010009766e+00 5.258197784423828125e-01 -8.203042149543762207e-01
2.593000000000000000e+03 7.086544799804687500e+01 1.926753234863281250e+01 3.107272982597351074e-01 5.584184646606445312e+00 1.768473625183105469e+00 -4.335742592811584473e-01
2.594000000000000000e+03 5.134115219116210938e+01 2.051251602172851562e+01 1.224686503410339355e+00 3.923094749450683594e+00 1.544334292411804199e+00 1.243796467781066895e+00
2.595000000000000000e+03 5.056358718872070312e+01 2.159504699707031250e+01 1.002431154251098633e+00 4.159704208374023438e+00 1.548640608787536621e+00 1.216120243072509766e+00
2.596000000000000000e+03 6.870603179931640625e+01 3.863166868686676025e-01 -9.617832899093627930e-01 6.389684677124023438e+00 1.628370404243469238e+00 -8.433110117912292480e-01
2.597000000000000000e+03 9.691329956054687500e+00 1.486970043182373047e+01 9.675639271736145020e-01 2.124550819396972656e+00 9.276344180107116699e-01 -8.840292096138000488e-01
2.598000000000000000e+03 5.307582855224609375e+01 9.366271018981933594e+00 1.439222216606140137e+00 1.551295280456542969e+00 8.971552848815917969e-01 5.182464122772216797e-01
2.599000000000000000e+03 7.453951263427734375e+01 -1.842214012145996094e+01 5.421012639999389648e-01 9.617555618286132812e+00 3.047897100448608398e+00 -5.977000594139099121e-01
2.600000000000000000e+03 6.822668457031250000e+01 3.584712982177734375e+01 -4.636253044009208679e-02 5.533900737762451172e+00 1.646261453628540039e+00 1.163467317819595337e-01
2.601000000000000000e+03 7.350067138671875000e+01 3.753050613403320312e+01 -3.104167990386486053e-02 6.016756057739257812e+00 1.795714259147644043e+00 4.450463876128196716e-02
2.602000000000000000e+03 5.502677536010742188e+01 9.199546813964843750e+00 1.202805399894714355e+00 1.524514675140380859e+00 8.181959986686706543e-01 2.253747731447219849e-02
2.603000000000000000e+03 8.207135200500488281e+00 3.844312667846679688e+01 -5.816001892089843750e-01 2.001314878463745117e+00 4.259144067764282227e-01 -4.180240333080291748e-01
2.604000000000000000e+03 3.339712905883789062e+01 -3.560085678100585938e+01 -1.316181659698486328e+00 4.271602630615234375e+00 8.866262435913085938e-01 8.649723529815673828e-01
2.605000000000000000e+03 2.121082115173339844e+01 -4.143999099731445312e+00 1.937075972557067871e+00 3.499701499938964844e+00 1.631033301353454590e+00 9.825095534324645996e-01
2.606000000000000000e+03 2.331099128723144531e+01 -3.845181465148925781e+00 2.504804849624633789e+00 4.702350139617919922e+00 2.162146568298339844e+00 -1.607114434242248535e+00
2.607000000000000000e+03 1.830005836486816406e+01 -4.991924762725830078e+00 1.875341534614562988e+00 5.762668848037719727e-01 7.354825139045715332e-01 1.071154236793518066e+00
2.608000000000000000e+03 1.920210838317871094e+01 -4.639054298400878906e+00 2.055828809738159180e+00 1.052542924880981445e+00 9.325115084648132324e-01 1.168057918548583984e+00
2.609000000000000000e+03 1.827422904968261719e+01 -5.483084201812744141e+00 1.760600328445434570e+00 6.369783878326416016e-01 7.192736268043518066e-01 1.138155460357666016e+00
2.610000000000000000e+03 1.774457550048828125e+01 -6.369312763214111328e+00 1.539112806320190430e+00 5.029789209365844727e-01 6.126275062561035156e-01 1.178526639938354492e+00
2.611000000000000000e+03 2.420319175720214844e+01 -4.773923397064208984e+00 2.716667413711547852e+00 3.429195880889892578e+00 1.843758940696716309e+00 -1.652845978736877441e+00
2.612000000000000000e+03 2.426260757446289062e+01 -4.223309040069580078e+00 3.106148481369018555e+00 3.577246189117431641e+00 2.005018472671508789e+00 -1.993863821029663086e+00
2.613000000000000000e+03 8.142927169799804688e+00 -7.217497348785400391e+00 7.062155753374099731e-02 5.235558748245239258e-01 1.782532334327697754e-01 4.713245630264282227e-01
2.614000000000000000e+03 8.849934577941894531e+00 -9.777772903442382812e+00 6.654776632785797119e-03 9.852312803268432617e-01 2.975658178329467773e-01 8.676577806472778320e-01
2.615000000000000000e+03 1.340580844879150391e+01 -6.804892539978027344e+00 8.270596265792846680e-01 1.476786136627197266e-01 2.924214899539947510e-01 1.013519287109375000e+00
2.616000000000000000e+03 2.250210762023925781e+01 -9.273183822631835938e+00 9.347487092018127441e-01 1.418183088302612305e+00 7.058795094490051270e-01 3.404095470905303955e-01
2.617000000000000000e+03 2.626840209960937500e+01 -4.873021602630615234e+00 3.368649959564208984e+00 2.133085489273071289e+00 1.650520563125610352e+00 -2.085677385330200195e+00
2.618000000000000000e+03 1.647219657897949219e+01 -7.014161109924316406e+00 1.292814016342163086e+00 2.350079268217086792e-01 4.583465754985809326e-01 1.196699500083923340e+00
2.619000000000000000e+03 1.218799972534179688e+01 -7.292283058166503906e+00 5.978471636772155762e-01 2.732275426387786865e-01 2.613224089145660400e-01 9.751052260398864746e-01
2.620000000000000000e+03 1.080769824981689453e+01 -7.042658805847167969e+00 4.107323288917541504e-01 3.608181774616241455e-01 2.314651608467102051e-01 8.183658123016357422e-01
2.621000000000000000e+03 8.610201835632324219e+00 9.273747444152832031e+00 9.914001822471618652e-01 5.975505709648132324e-01 4.766852259635925293e-01 6.916435062885284424e-02
2.622000000000000000e+03 1.494325351715087891e+01 -6.891911506652832031e+00 1.085830450057983398e+00 1.278659105300903320e-01 3.641089200973510742e-01 1.122806787490844727e+00
2.623000000000000000e+03 1.716179275512695312e+01 -1.166706657409667969e+01 3.569078445434570312e-01 1.686780154705047607e-01 1.576757580041885376e-01 1.232718348503112793e+00
2.624000000000000000e+03 9.474156379699707031e+00 -1.090288543701171875e+01 1.087527722120285034e-02 1.238597273826599121e+00 3.748417496681213379e-01 1.177659749984741211e+00
2.625000000000000000e+03 2.025971984863281250e+01 -1.103984451293945312e+01 3.715439140796661377e-01 6.966525316238403320e-01 3.204589486122131348e-01 9.298921823501586914e-01
2.626000000000000000e+03 1.636517333984375000e+01 -7.842334747314453125e+00 1.141470551490783691e+00 2.464545816183090210e-01 4.163775444030761719e-01 1.278479576110839844e+00
2.627000000000000000e+03 2.560972404479980469e+01 -5.218275547027587891e+00 3.028597593307495117e+00 2.411473035812377930e+00 1.632021188735961914e+00 -1.878509640693664551e+00
2.628000000000000000e+03 2.590215301513671875e+01 -5.876089572906494141e+00 2.728013038635253906e+00 2.105746746063232422e+00 1.450127840042114258e+00 -1.710738062858581543e+00
2.629000000000000000e+03 1.080806350708007812e+01 7.890875339508056641e+00 1.322712063789367676e+00 1.036955595016479492e+00 7.079002857208251953e-01 -2.241841852664947510e-01
2.630000000000000000e+03 9.335230827331542969e+00 1.025036048889160156e+01 1.177622199058532715e+00 1.112955570220947266e+00 6.871733069419860840e-01 -2.791606187820434570e-01
2.631000000000000000e+03 1.126515674591064453e+01 6.899953365325927734e+00 1.231456398963928223e+00 8.601327538490295410e-01 6.274767518043518066e-01 -1.302475333213806152e-01
2.632000000000000000e+03 1.344428634643554688e+01 -8.073891639709472656e+00 7.704153060913085938e-01 2.300224751234054565e-01 3.001313209533691406e-01 1.230569005012512207e+00
2.633000000000000000e+03 1.454281616210937500e+01 -9.318839073181152344e+00 7.806205749511718750e-01 1.971135586500167847e-01 2.933202385902404785e-01 1.392121076583862305e+00
2.634000000000000000e+03 7.039647674560546875e+01 2.270606040954589844e+00 -7.170333266258239746e-01 6.575950145721435547e+00 1.757674932479858398e+00 -7.332289218902587891e-01
2.635000000000000000e+03 2.614808464050292969e+01 -6.612990856170654297e+00 2.534419298171997070e+00 1.839544653892517090e+00 1.312189221382141113e+00 -1.580369472503662109e+00
2.636000000000000000e+03 2.713045692443847656e+01 -1.185609149932861328e+01 8.448898196220397949e-01 5.739006400108337402e-01 4.256371259689331055e-01 -3.311865031719207764e-01
2.637000000000000000e+03 8.003877639770507812e+00 -8.218091964721679688e+00 3.703633323311805725e-03 6.948583126068115234e-01 2.095685750246047974e-01 5.412809848785400391e-01
2.638000000000000000e+03 8.514042854309082031e+00 -8.761258125305175781e+00 1.429164316505193710e-02 8.122440576553344727e-01 2.479607015848159790e-01 6.792239546775817871e-01
2.639000000000000000e+03 6.503422546386718750e+01 5.714978694915771484e+00 -3.666966855525970459e-01 4.126007556915283203e+00 1.127793192863464355e+00 -1.403411626815795898e+00
2.640000000000000000e+03 7.090956115722656250e+01 3.438338994979858398e+00 -6.044749617576599121e-01 6.560118198394775391e+00 1.786692976951599121e+00 -7.467941641807556152e-01
2.641000000000000000e+03 2.669425773620605469e+01 -8.095549583435058594e+00 2.220530748367309570e+00 1.441895842552185059e+00 1.098728060722351074e+00 -1.280900120735168457e+00
2.642000000000000000e+03 1.271257114410400391e+01 -7.356690883636474609e+00 6.896639466285705566e-01 2.303830087184906006e-01 2.760140895843505859e-01 1.055009961128234863e+00
2.643000000000000000e+03 1.217302608489990234e+01 -1.047514533996582031e+01 4.232266545295715332e-01 5.515949726104736328e-01 2.924464941024780273e-01 1.482555866241455078e+00
2.644000000000000000e+03 4.842482376098632812e+01 1.071780300140380859e+01 2.035053491592407227e+00 3.142014741897583008e+00 1.553120493888854980e+00 1.946226716041564941e+00
2.645000000000000000e+03 1.642624473571777344e+01 -8.830952644348144531e+00 9.691094756126403809e-01 2.471223324537277222e-01 3.648695349693298340e-01 1.339260697364807129e+00
2.646000000000000000e+03 5.164514160156250000e+01 1.111326789855957031e+01 1.853389382362365723e+00 2.164628505706787109e+00 1.205405354499816895e+00 1.066274642944335938e+00
2.647000000000000000e+03 6.844024658203125000e+01 1.209091472625732422e+01 2.425308972597122192e-01 5.106727123260498047e+00 1.604777336120605469e+00 -9.303957223892211914e-01
2.648000000000000000e+03 6.910285949707031250e+01 1.066676712036132812e+01 1.079672053456306458e-01 5.314666748046875000e+00 1.626790285110473633e+00 -9.832541942596435547e-01
2.649000000000000000e+03 3.459289169311523438e+01 -8.804501533508300781e+00 2.648175477981567383e+00 4.241017341613769531e+00 2.066757678985595703e+00 -6.945127844810485840e-01
2.650000000000000000e+03 2.212046813964843750e+01 -1.053208160400390625e+01 5.404736995697021484e-01 1.018069505691528320e+00 4.675629734992980957e-01 5.480133891105651855e-01
2.651000000000000000e+03 2.379562950134277344e+01 -1.165721416473388672e+01 3.524367809295654297e-01 8.396511673927307129e-01 3.576263785362243652e-01 2.855082452297210693e-01
2.652000000000000000e+03 3.248697662353515625e+01 -1.160411643981933594e+01 1.809213042259216309e+00 2.547542333602905273e+00 1.307026624679565430e+00 -1.151833534240722656e+00
2.653000000000000000e+03 8.977207183837890625e+00 -8.381611824035644531e+00 1.015575751662254333e-01 6.757729053497314453e-01 2.331991493701934814e-01 7.403154969215393066e-01
2.654000000000000000e+03 9.538368225097656250e+00 -6.044068336486816406e+00 2.597013115882873535e-01 3.163311183452606201e-01 1.728097200393676758e-01 5.247361660003662109e-01
2.655000000000000000e+03 3.001661682128906250e+01 -1.063246154785156250e+01 2.097708463668823242e+00 1.111721158027648926e+00 9.628288149833679199e-01 -1.081117033958435059e+00
2.656000000000000000e+03 2.128157424926757812e+01 -1.043678188323974609e+01 5.456334948539733887e-01 9.451409578323364258e-01 4.472323358058929443e-01 7.429357767105102539e-01
2.657000000000000000e+03 3.257809829711914062e+01 -9.953628540039062500e+00 2.472699642181396484e+00 2.582386493682861328e+00 1.516525864601135254e+00 -1.114516496658325195e+00
2.658000000000000000e+03 3.300900268554687500e+01 -8.227865219116210938e+00 2.957309484481811523e+00 2.660406112670898438e+00 1.685314655303955078e+00 -9.608198404312133789e-01
2.659000000000000000e+03 3.092211723327636719e+01 -9.793317794799804688e+00 2.476049661636352539e+00 1.468603134155273438e+00 1.183395862579345703e+00 -1.207650423049926758e+00
2.660000000000000000e+03 3.490311431884765625e+01 -9.830096244812011719e+00 2.296753168106079102e+00 4.923357009887695312e+00 2.166033029556274414e+00 -8.217195272445678711e-01
2.661000000000000000e+03 5.728205871582031250e+01 8.267248153686523438e+00 7.825514078140258789e-01 1.661126017570495605e+00 7.331032156944274902e-01 -5.086016058921813965e-01
2.662000000000000000e+03 1.142446517944335938e+01 -1.027614688873291016e+01 3.391480147838592529e-01 6.483402848243713379e-01 2.962464988231658936e-01 1.386494994163513184e+00
2.663000000000000000e+03 7.187388610839843750e+01 6.937094688415527344e+00 -2.428025007247924805e-01 6.449923038482666016e+00 1.862136244773864746e+00 -7.829200625419616699e-01
2.664000000000000000e+03 6.807850646972656250e+01 2.014758110046386719e+01 4.825516939163208008e-01 5.074147224426269531e+00 1.667009592056274414e+00 -3.386246562004089355e-01
2.665000000000000000e+03 6.807157135009765625e+01 1.839893150329589844e+01 4.953999221324920654e-01 5.026475429534912109e+00 1.656562566757202148e+00 -4.516264796257019043e-01
2.666000000000000000e+03 6.668629455566406250e+01 1.681746864318847656e+01 6.037089824676513672e-01 4.668164730072021484e+00 1.581562042236328125e+00 -5.404754281044006348e-01
2.667000000000000000e+03 5.925859069824218750e+01 6.350442409515380859e+00 1.003169938921928406e-01 1.835124850273132324e+00 5.806325078010559082e-01 -9.742638468742370605e-01
2.668000000000000000e+03 6.825602722167968750e+01 1.229151248931884766e+00 -9.612591266632080078e-01 6.025115013122558594e+00 1.519156813621520996e+00 -9.916309118270874023e-01
2.669000000000000000e+03 1.884400558471679688e+01 -9.852969169616699219e+00 7.372832894325256348e-01 6.022593379020690918e-01 4.018628001213073730e-01 1.155676841735839844e+00
2.670000000000000000e+03 1.593176364898681641e+01 -7.291811943054199219e+00 1.185497522354125977e+00 2.010244131088256836e-01 4.159565865993499756e-01 1.205073952674865723e+00
2.671000000000000000e+03 7.831884384155273438e+00 9.968773841857910156e+00 9.234842061996459961e-01 5.029239654541015625e-01 4.279224574565887451e-01 7.556721568107604980e-02
2.672000000000000000e+03 6.977731323242187500e+01 9.227214813232421875e+00 -5.181866139173507690e-02 5.630880355834960938e+00 1.673718452453613281e+00 -9.764837026596069336e-01
2.673000000000000000e+03 8.100023269653320312e+00 -9.352524757385253906e+00 -6.324526667594909668e-02 9.340305328369140625e-01 2.612355947494506836e-01 6.603994965553283691e-01
2.674000000000000000e+03 9.691928863525390625e+00 -9.991084098815917969e+00 6.958700716495513916e-02 9.496747255325317383e-01 3.057785332202911377e-01 1.061892509460449219e+00
2.675000000000000000e+03 6.670780944824218750e+01 2.743360710144042969e+01 3.046404123306274414e-01 5.148974418640136719e+00 1.636084556579589844e+00 8.113210648298263550e-02
2.676000000000000000e+03 6.898225402832031250e+01 2.340383148193359375e+01 3.654755651950836182e-01 5.302911281585693359e+00 1.700516104698181152e+00 -1.773472726345062256e-01
2.677000000000000000e+03 7.016451263427734375e+01 -5.316480398178100586e-01 -8.591419458389282227e-01 7.004899501800537109e+00 1.843727231025695801e+00 -5.209133625030517578e-01
2.678000000000000000e+03 6.355147171020507812e+01 7.197858333587646484e+00 3.458180464804172516e-03 3.540199518203735352e+00 1.063097357749938965e+00 -1.303674817085266113e+00
2.679000000000000000e+03 8.283618927001953125e+00 1.097984313964843750e+01 9.970182776451110840e-01 8.538517355918884277e-01 5.552610158920288086e-01 -1.854667216539382935e-01
2.680000000000000000e+03 3.017337226867675781e+01 -8.878154754638671875e+00 2.731600999832153320e+00 1.234552264213562012e+00 1.189846038818359375e+00 -1.350281715393066406e+00
2.681000000000000000e+03 2.793915939331054688e+01 -7.848937034606933594e+00 2.583609342575073242e+00 1.145762920379638672e+00 1.118811726570129395e+00 -1.462406754493713379e+00
2.682000000000000000e+03 1.025397968292236328e+01 2.954673767089843750e+01 -4.374879300594329834e-01 2.114488601684570312e+00 5.031002163887023926e-01 -1.179736852645874023e+00
2.683000000000000000e+03 7.198648071289062500e+01 2.090789222717285156e+01 2.457719445228576660e-01 5.747806549072265625e+00 1.798073530197143555e+00 -3.280097544193267822e-01
2.684000000000000000e+03 5.236801528930664062e+01 1.014383029937744141e+01 1.674552679061889648e+00 1.797062397003173828e+00 1.041484475135803223e+00 7.669458389282226562e-01
2.685000000000000000e+03 5.396014785766601562e+01 8.972196578979492188e+00 1.268445611000061035e+00 1.449321269989013672e+00 8.153300881385803223e-01 2.517609000205993652e-01
2.686000000000000000e+03 5.888648223876953125e+01 9.801096916198730469e+00 9.184048771858215332e-01 2.324200391769409180e+00 9.727815985679626465e-01 -6.183155775070190430e-01
2.687000000000000000e+03 3.076024055480957031e+01 -1.154268360137939453e+01 1.748714685440063477e+00 1.309541225433349609e+00 9.174767732620239258e-01 -1.033380746841430664e+00
2.688000000000000000e+03 5.230987548828125000e+01 2.732221221923828125e+01 3.941942751407623291e-01 4.216489315032958984e+00 1.383205056190490723e+00 9.448233842849731445e-01
2.689000000000000000e+03 5.156591796875000000e+01 9.156308174133300781e+00 1.574316382408142090e+00 1.654882311820983887e+00 9.687595963478088379e-01 8.841996192932128906e-01
2.690000000000000000e+03 6.836246490478515625e+01 2.607204818725585938e+01 3.089070916175842285e-01 5.296081542968750000e+00 1.681496620178222656e+00 -2.771234884858131409e-02
2.691000000000000000e+03 6.993814086914062500e+01 2.111172866821289062e+01 3.512614965438842773e-01 5.427083492279052734e+00 1.733503460884094238e+00 -3.213228285312652588e-01
2.692000000000000000e+03 4.345932769775390625e+01 -3.286935806274414062e+01 -7.149075865745544434e-01 4.009304523468017578e+00 9.883191585540771484e-01 -1.115111827850341797e+00
2.693000000000000000e+03 7.434191894531250000e+01 -1.950426101684570312e+01 4.960228800773620605e-01 9.782986640930175781e+00 3.083703041076660156e+00 -6.337102055549621582e-01
2.694000000000000000e+03 5.259449768066406250e+01 1.502508068084716797e+01 1.764176130294799805e+00 2.987674474716186523e+00 1.425555229187011719e+00 1.080977320671081543e+00
2.695000000000000000e+03 7.285736083984375000e+01 2.363080978393554688e+01 1.772277355194091797e-01 5.888238430023193359e+00 1.819639801979064941e+00 -1.982313841581344604e-01
2.696000000000000000e+03 5.013790130615234375e+01 1.369995689392089844e+01 1.955225467681884766e+00 3.192390680313110352e+00 1.544284820556640625e+00 1.599525690078735352e+00
2.697000000000000000e+03 4.885105514526367188e+01 1.313369369506835938e+01 1.985633134841918945e+00 3.524775981903076172e+00 1.653122782707214355e+00 1.858410120010375977e+00
2.698000000000000000e+03 5.138093185424804688e+01 1.437557220458984375e+01 1.872030735015869141e+00 3.044984579086303711e+00 1.475104570388793945e+00 1.317952156066894531e+00
2.699000000000000000e+03 6.829084777832031250e+01 1.343467712402343750e+01 3.638537824153900146e-01 5.012811660766601562e+00 1.612999677658081055e+00 -8.272523283958435059e-01
2.700000000000000000e+03 7.064875793457031250e+01 1.553659343719482422e+01 2.843835055828094482e-01 5.577475070953369141e+00 1.758557558059692383e+00 -6.439384818077087402e-01
2.701000000000000000e+03 1.277667808532714844e+01 4.099716567993164062e+01 -9.964231848716735840e-01 1.385093927383422852e+00 1.166012138128280640e-01 -1.149621307849884033e-01
2.702000000000000000e+03 6.409181213378906250e+01 3.282281875610351562e+01 7.474114745855331421e-02 5.124980449676513672e+00 1.559916377067565918e+00 2.309954911470413208e-01
2.703000000000000000e+03 4.538289260864257812e+01 -2.926615333557128906e+01 6.415487825870513916e-02 2.975498199462890625e+00 9.118959307670593262e-01 -1.185800075531005859e+00
2.704000000000000000e+03 6.955818176269531250e+01 1.279491233825683594e+01 2.216075509786605835e-01 5.414286136627197266e+00 1.690768003463745117e+00 -8.477162718772888184e-01
2.705000000000000000e+03 2.117825126647949219e+01 -4.615879535675048828e+00 1.829239249229431152e+00 3.113308191299438477e+00 1.482764244079589844e+00 9.054176807403564453e-01
2.706000000000000000e+03 1.961944389343261719e+01 -4.241547107696533203e+00 2.172984361648559570e+00 1.324265837669372559e+00 1.049175024032592773e+00 1.224440574645996094e+00
2.707000000000000000e+03 2.080855560302734375e+01 -4.085580348968505859e+00 2.071344614028930664e+00 2.850535869598388672e+00 1.476564168930053711e+00 1.244472265243530273e+00
2.708000000000000000e+03 2.041967201232910156e+01 -4.001272201538085938e+00 2.199652910232543945e+00 2.263798236846923828e+00 1.339035391807556152e+00 1.326553583145141602e+00
2.709000000000000000e+03 1.878842735290527344e+01 -4.583092212677001953e+00 2.029515981674194336e+00 7.708834409713745117e-01 8.401198387145996094e-01 1.097723126411437988e+00
2.710000000000000000e+03 2.004682159423828125e+01 -3.905933856964111328e+00 2.269603013992309570e+00 1.744986772537231445e+00 1.204376935958862305e+00 1.309194684028625488e+00
2.711000000000000000e+03 2.362102317810058594e+01 -4.608616352081298828e+00 2.423293113708496094e+00 3.876844167709350586e+00 1.890041232109069824e+00 -1.388701677322387695e+00
2.712000000000000000e+03 1.834562683105468750e+01 -4.491316795349121094e+00 1.959774494171142578e+00 5.144299268722534180e-01 7.422613501548767090e-01 9.976921081542968750e-01
2.713000000000000000e+03 1.824884986877441406e+01 -5.959133148193359375e+00 1.666643261909484863e+00 6.510084867477416992e-01 6.952955126762390137e-01 1.168720126152038574e+00
2.714000000000000000e+03 1.689955902099609375e+01 -6.806360721588134766e+00 1.366864323616027832e+00 3.158972561359405518e-01 5.048284530639648438e-01 1.185649275779724121e+00
2.715000000000000000e+03 1.727537727355957031e+01 -6.336673736572265625e+00 1.489653468132019043e+00 3.838490545749664307e-01 5.620507597923278809e-01 1.154044985771179199e+00
2.716000000000000000e+03 2.398569488525390625e+01 -5.980974197387695312e+00 2.022369861602783203e+00 2.874914169311523438e+00 1.469185233116149902e+00 -9.725501537322998047e-01
2.717000000000000000e+03 2.405816078186035156e+01 -5.360241889953613281e+00 2.286730289459228516e+00 3.163881778717041016e+00 1.635183691978454590e+00 -1.243459582328796387e+00
2.718000000000000000e+03 2.456927490234375000e+01 -6.880181789398193359e+00 1.920584678649902344e+00 2.300122737884521484e+00 1.266212224960327148e+00 -9.681192040443420410e-01
2.719000000000000000e+03 1.268938636779785156e+01 -8.442042350769042969e+00 6.142802238464355469e-01 3.178330659866333008e-01 2.796339988708496094e-01 1.224955439567565918e+00
2.720000000000000000e+03 1.119817352294921875e+01 -7.702805042266845703e+00 4.272920191287994385e-01 3.931801915168762207e-01 2.461416572332382202e-01 9.603515267372131348e-01
2.721000000000000000e+03 2.531912040710449219e+01 -1.053744983673095703e+01 1.029971837997436523e+00 1.006306648254394531e+00 6.108835339546203613e-01 -2.608186900615692139e-01
2.722000000000000000e+03 2.638856506347656250e+01 -7.392804622650146484e+00 2.358289241790771484e+00 1.622971415519714355e+00 1.194378256797790527e+00 -1.405972719192504883e+00
2.723000000000000000e+03 8.993322372436523438e+00 -7.532678127288818359e+00 1.353864222764968872e-01 5.480445623397827148e-01 2.050292938947677612e-01 6.302466988563537598e-01
2.724000000000000000e+03 3.408145523071289062e+01 -1.030228233337402344e+01 2.273948431015014648e+00 3.985557556152343750e+00 1.877851843833923340e+00 -9.625464081764221191e-01
2.725000000000000000e+03 9.323751449584960938e+00 8.387072563171386719e+00 1.074471354484558105e+00 6.476008296012878418e-01 5.166216492652893066e-01 8.069981634616851807e-02
2.726000000000000000e+03 2.458924102783203125e+01 -5.505675315856933594e+00 2.424976110458374023e+00 2.944622755050659180e+00 1.610879659652709961e+00 -1.468018293380737305e+00
2.727000000000000000e+03 2.349665260314941406e+01 -5.187443256378173828e+00 2.115398168563842773e+00 3.525346279144287109e+00 1.692223310470581055e+00 -9.944521188735961914e-01
2.728000000000000000e+03 1.861128807067871094e+01 -1.058286762237548828e+01 5.636906623840332031e-01 4.880870878696441650e-01 3.155333399772644043e-01 1.166676044464111328e+00
2.729000000000000000e+03 9.937941551208496094e+00 7.437639236450195312e+00 1.050726056098937988e+00 6.314294934272766113e-01 5.046466588973999023e-01 1.251738220453262329e-01
2.730000000000000000e+03 1.526600456237792969e+01 -7.628605365753173828e+00 1.061083197593688965e+00 1.461344659328460693e-01 3.621653020381927490e-01 1.228092670440673828e+00
2.731000000000000000e+03 1.706694412231445312e+01 -1.054781341552734375e+01 6.343465447425842285e-01 2.609130144119262695e-01 2.685778737068176270e-01 1.306886315345764160e+00
2.732000000000000000e+03 1.833742523193359375e+01 -1.132322120666503906e+01 3.699942529201507568e-01 3.464893698692321777e-01 2.149450927972793579e-01 1.152579784393310547e+00
2.733000000000000000e+03 1.942304992675781250e+01 -1.082449626922607422e+01 4.596908092498779297e-01 5.892722606658935547e-01 3.146889209747314453e-01 1.048349738121032715e+00
2.734000000000000000e+03 2.563308715820312500e+01 -7.760641574859619141e+00 1.990858793258666992e+00 1.713800907135009766e+00 1.111397862434387207e+00 -1.068318486213684082e+00
2.735000000000000000e+03 1.325564289093017578e+01 -1.041829395294189453e+01 5.545229911804199219e-01 3.476970791816711426e-01 2.706660330295562744e-01 1.521773219108581543e+00
2.736000000000000000e+03 1.452059078216552734e+01 -1.054067039489746094e+01 6.335158944129943848e-01 1.625183820724487305e-01 2.388102859258651733e-01 1.473444938659667969e+00
2.737000000000000000e+03 2.217564773559570312e+01 -9.821290969848632812e+00 7.662402391433715820e-01 1.203936934471130371e+00 5.910531878471374512e-01 5.072815418243408203e-01
2.738000000000000000e+03 2.302976608276367188e+01 -1.052436828613281250e+01 6.247277259826660156e-01 1.097060441970825195e+00 5.165364742279052734e-01 3.185640871524810791e-01
2.739000000000000000e+03 1.582854843139648438e+01 -1.056761169433593750e+01 6.462562084197998047e-01 1.420674920082092285e-01 2.364971041679382324e-01 1.386264801025390625e+00
2.740000000000000000e+03 1.177988910675048828e+01 -7.920568943023681641e+00 5.165884494781494141e-01 3.733228445053100586e-01 2.669734060764312744e-01 1.072489023208618164e+00
2.741000000000000000e+03 6.487674713134765625e+01 7.295158863067626953e+00 -8.268023282289505005e-02 4.031621932983398438e+00 1.184682488441467285e+00 -1.315180778503417969e+00
2.742000000000000000e+03 6.858363342285156250e+01 8.615293502807617188e+00 -7.747236639261245728e-02 5.312956333160400391e+00 1.570645213127136230e+00 -1.072623729705810547e+00
2.743000000000000000e+03 2.758144187927246094e+01 -1.054128170013427734e+01 1.584976792335510254e+00 8.004459142684936523e-01 7.156268358230590820e-01 -7.266920208930969238e-01
2.744000000000000000e+03 2.724354553222656250e+01 -9.602224349975585938e+00 1.848110556602478027e+00 9.942631125450134277e-01 8.527120947837829590e-01 -8.978833556175231934e-01
2.745000000000000000e+03 1.645894050598144531e+01 -1.114940547943115234e+01 5.266789197921752930e-01 1.298382729291915894e-01 1.969551593065261841e-01 1.343041181564331055e+00
2.746000000000000000e+03 1.779649925231933594e+01 -1.036637401580810547e+01 6.526498198509216309e-01 3.554003834724426270e-01 3.024150729179382324e-01 1.248761773109436035e+00
2.747000000000000000e+03 9.253668785095214844e+00 -6.775060176849365234e+00 2.211354225873947144e-01 4.180163145065307617e-01 1.917455196380615234e-01 6.018160581588745117e-01
2.748000000000000000e+03 8.526004791259765625e+00 -7.841907501220703125e+00 8.195841312408447266e-02 6.215531229972839355e-01 2.110534608364105225e-01 5.901594758033752441e-01
2.749000000000000000e+03 8.698989868164062500e+00 -6.965917587280273438e+00 1.391937881708145142e-01 4.857706129550933838e-01 1.874893158674240112e-01 5.363587737083435059e-01
2.750000000000000000e+03 2.143190002441406250e+01 -9.694591522216796875e+00 7.557004094123840332e-01 1.140254855155944824e+00 5.687865614891052246e-01 6.686421632766723633e-01
2.751000000000000000e+03 2.761193275451660156e+01 -8.435691833496093750e+00 2.313531160354614258e+00 1.139723539352416992e+00 1.035976409912109375e+00 -1.284224510192871094e+00
2.752000000000000000e+03 2.620265197753906250e+01 -1.001914882659912109e+01 1.408735036849975586e+00 1.031946301460266113e+00 7.322043776512145996e-01 -5.916291475296020508e-01
2.753000000000000000e+03 5.590592193603515625e+01 1.091596889495849609e+01 1.411850214004516602e+00 1.961738467216491699e+00 1.012076616287231445e+00 2.174711041152477264e-02
2.754000000000000000e+03 5.684711074829101562e+01 9.696876525878906250e+00 1.101916313171386719e+00 1.850919008255004883e+00 8.858506083488464355e-01 -2.984704971313476562e-01
2.755000000000000000e+03 6.832826995849609375e+01 1.660647010803222656e+01 4.610086381435394287e-01 5.044069290161132812e+00 1.651523351669311523e+00 -5.938544869422912598e-01
2.756000000000000000e+03 6.636096191406250000e+01 2.062354087829589844e+01 5.812840461730957031e-01 4.800991535186767578e+00 1.614682674407958984e+00 -2.381651699542999268e-01
2.757000000000000000e+03 6.686985778808593750e+01 1.515031623840332031e+01 5.477089285850524902e-01 4.665275096893310547e+00 1.563895225524902344e+00 -6.781159043312072754e-01
2.758000000000000000e+03 6.702375793457031250e+01 9.296417236328125000e+00 5.886508524417877197e-02 4.728548049926757812e+00 1.436223983764648438e+00 -1.160213828086853027e+00
2.759000000000000000e+03 5.949028015136718750e+01 9.045732498168945312e+00 7.186238765716552734e-01 2.310548782348632812e+00 9.087517857551574707e-01 -8.165236115455627441e-01
2.760000000000000000e+03 3.326042175292968750e+01 -1.090219402313232422e+01 2.118190526962280273e+00 3.272967338562011719e+00 1.617347359657287598e+00 -1.104349732398986816e+00
2.761000000000000000e+03 6.883769989013671875e+01 3.991022586822509766e+00 -6.544724702835083008e-01 5.883767604827880859e+00 1.568788528442382812e+00 -1.050351500511169434e+00
2.762000000000000000e+03 6.750321960449218750e+01 3.533093452453613281e+00 -7.753707766532897949e-01 5.394726753234863281e+00 1.385806798934936523e+00 -1.216050624847412109e+00
2.763000000000000000e+03 2.923800086975097656e+01 -1.143885421752929688e+01 1.548207640647888184e+00 7.706987857818603516e-01 6.956719160079956055e-01 -7.963722944259643555e-01
2.764000000000000000e+03 5.475725936889648438e+01 1.046418380737304688e+01 1.479709029197692871e+00 1.847087621688842773e+00 9.980390071868896484e-01 2.755303978919982910e-01
2.765000000000000000e+03 5.132225418090820312e+01 1.708762168884277344e+01 1.630938172340393066e+00 3.570407867431640625e+00 1.560403823852539062e+00 1.374915838241577148e+00
2.766000000000000000e+03 5.835380935668945312e+01 7.905351638793945312e+00 5.843334794044494629e-01 1.802891850471496582e+00 7.161676287651062012e-01 -7.288857698440551758e-01
2.767000000000000000e+03 7.160863494873046875e+01 2.206453514099121094e+01 2.588379383087158203e-01 5.689388751983642578e+00 1.784467935562133789e+00 -2.795747518539428711e-01
2.768000000000000000e+03 6.695866394042968750e+01 4.847855091094970703e+00 -5.566279292106628418e-01 5.061676025390625000e+00 1.351514339447021484e+00 -1.286731600761413574e+00
2.769000000000000000e+03 5.075542068481445312e+01 1.011285018920898438e+01 1.835069298744201660e+00 2.049679040908813477e+00 1.165424466133117676e+00 1.203001379966735840e+00
2.770000000000000000e+03 1.168965530395507812e+01 8.101689338684082031e+00 1.524650573730468750e+00 1.472371459007263184e+00 8.991066217422485352e-01 -5.444202423095703125e-01
2.771000000000000000e+03 5.084709167480468750e+01 1.225738906860351562e+01 1.964712977409362793e+00 2.652920246124267578e+00 1.385289907455444336e+00 1.362258195877075195e+00
2.772000000000000000e+03 5.198074340820312500e+01 1.309265422821044922e+01 1.887860774993896484e+00 2.643174886703491211e+00 1.359310746192932129e+00 1.126794695854187012e+00
2.773000000000000000e+03 5.243349075317382812e+01 1.835567092895507812e+01 1.464693307876586914e+00 3.565578937530517578e+00 1.509081721305847168e+00 1.155446410179138184e+00
2.774000000000000000e+03 5.286967849731445312e+01 2.425287055969238281e+01 7.692996263504028320e-01 4.084319591522216797e+00 1.456085681915283203e+00 1.004789590835571289e+00
2.775000000000000000e+03 6.904314422607421875e+01 7.294607639312744141e+00 -2.412607371807098389e-01 5.549837589263916016e+00 1.592573046684265137e+00 -1.065351486206054688e+00
2.776000000000000000e+03 7.067997741699218750e+01 6.504450321197509766e+00 -3.247762024402618408e-01 6.145823001861572266e+00 1.746314048767089844e+00 -9.016168713569641113e-01
2.777000000000000000e+03 7.323032379150390625e+01 3.087541198730468750e+01 4.949563369154930115e-02 5.956495285034179688e+00 1.801797270774841309e+00 1.538542471826076508e-02
2.778000000000000000e+03 6.591548156738281250e+01 9.020220756530761719e+00 9.514939785003662109e-02 4.393896579742431641e+00 1.346713781356811523e+00 -1.192439794540405273e+00
2.779000000000000000e+03 6.363017654418945312e+01 2.691368103027343750e+01 4.086470603942871094e-01 4.785178184509277344e+00 1.558147549629211426e+00 2.274995595216751099e-01
2.780000000000000000e+03 6.839267730712890625e+01 2.183112335205078125e+01 4.325366616249084473e-01 5.175743579864501953e+00 1.682484149932861328e+00 -2.390071004629135132e-01
2.781000000000000000e+03 6.949806213378906250e+01 5.959012031555175781e+00 -4.025753140449523926e-01 5.837834358215332031e+00 1.630577683448791504e+00 -1.023851633071899414e+00
2.782000000000000000e+03 7.005503845214843750e+01 4.581820964813232422e+00 -5.448148250579833984e-01 6.168109416961669922e+00 1.686988472938537598e+00 -9.084372520446777344e-01
2.783000000000000000e+03 6.845610046386718750e+01 1.488776779174804688e+01 4.105557799339294434e-01 5.044261932373046875e+00 1.636445283889770508e+00 -7.231542468070983887e-01
2.784000000000000000e+03 6.560791778564453125e+01 1.366879367828369141e+01 5.889418125152587891e-01 4.320917606353759766e+00 1.472957849502563477e+00 -7.945207953453063965e-01
2.785000000000000000e+03 3.219822692871093750e+01 -4.129660415649414062e+01 -1.372518897056579590e+00 3.392981052398681641e+00 6.061386466026306152e-01 1.845523566007614136e-01
2.786000000000000000e+03 3.691644287109375000e+01 -4.101816558837890625e+01 -1.762646675109863281e+00 4.452125072479248047e+00 8.068435788154602051e-01 3.927074372768402100e-02
2.787000000000000000e+03 2.204665184020996094e+01 -3.588827896118164062e+01 -6.478531956672668457e-01 -1.903795171529054642e-03 -1.949270963668823242e-01 1.175810173153877258e-01
2.788000000000000000e+03 4.967821121215820312e+01 -3.269271087646484375e+01 -3.602299690246582031e-01 1.519144535064697266e+00 3.476743698120117188e-01 -6.754916906356811523e-01
2.789000000000000000e+03 2.246051979064941406e+01 -4.789695262908935547e+00 1.815464496612548828e+00 3.872766256332397461e+00 1.706469297409057617e+00 -2.424963265657424927e-01
2.790000000000000000e+03 1.876400947570800781e+01 -5.063633441925048828e+00 1.905417203903198242e+00 8.356219530105590820e-01 8.223117589950561523e-01 1.148442745208740234e+00
2.791000000000000000e+03 2.000086975097656250e+01 -4.312310218811035156e+00 2.157603502273559570e+00 1.737304687500000000e+00 1.168472409248352051e+00 1.262114286422729492e+00
2.792000000000000000e+03 2.077068901062011719e+01 -4.476828098297119141e+00 1.953965544700622559e+00 2.679959535598754883e+00 1.390177488327026367e+00 1.159020781517028809e+00
2.793000000000000000e+03 2.161567687988281250e+01 -4.695575237274169922e+00 1.775511860847473145e+00 3.526028156280517578e+00 1.590462088584899902e+00 5.629832148551940918e-01
2.794000000000000000e+03 1.919719886779785156e+01 -5.108151912689208984e+00 1.926530361175537109e+00 1.093823671340942383e+00 9.061062335968017578e-01 1.194950342178344727e+00
2.795000000000000000e+03 1.821043395996093750e+01 -6.425163745880126953e+00 1.554447889328002930e+00 6.620264053344726562e-01 6.649423241615295410e-01 1.207965493202209473e+00
2.796000000000000000e+03 2.162321853637695312e+01 -4.167840480804443359e+00 1.804455757141113281e+00 4.035177230834960938e+00 1.751889824867248535e+00 6.538537740707397461e-01
2.797000000000000000e+03 2.205307960510253906e+01 -4.676860332489013672e+00 1.746473193168640137e+00 3.905121803283691406e+00 1.695478439331054688e+00 1.575222462415695190e-01
2.798000000000000000e+03 1.682634162902832031e+01 -7.462267875671386719e+00 1.250099539756774902e+00 3.209472894668579102e-01 4.713140428066253662e-01 1.241482138633728027e+00
2.799000000000000000e+03 9.410996437072753906e+00 -7.964336395263671875e+00 1.721615791320800781e-01 6.020649075508117676e-01 2.322679460048675537e-01 7.461639642715454102e-01
2.800000000000000000e+03 1.166095447540283203e+01 -7.404924869537353516e+00 5.353333353996276855e-01 3.082079589366912842e-01 2.530623674392700195e-01 9.366447329521179199e-01
2.801000000000000000e+03 2.534140777587890625e+01 -6.888927459716796875e+00 2.155714273452758789e+00 2.077177286148071289e+00 1.269867420196533203e+00 -1.235083460807800293e+00
2.802000000000000000e+03 2.522307395935058594e+01 -6.093295574188232422e+00 2.441533803939819336e+00 2.413155794143676758e+00 1.456406950950622559e+00 -1.501317620277404785e+00
2.803000000000000000e+03 2.293885040283203125e+01 -5.005053997039794922e+00 1.902708530426025391e+00 3.744959592819213867e+00 1.694300413131713867e+00 -5.615416169166564941e-01
2.804000000000000000e+03 1.397611427307128906e+01 -7.611802101135253906e+00 8.967131972312927246e-01 1.492110043764114380e-01 3.137772381305694580e-01 1.186262726783752441e+00
2.805000000000000000e+03 2.046438217163085938e+01 -1.028649902343750000e+01 5.833591818809509277e-01 8.714713454246520996e-01 4.364491701126098633e-01 8.906484246253967285e-01
2.806000000000000000e+03 1.690514755249023438e+01 -8.311268806457519531e+00 1.082955479621887207e+00 3.326520323753356934e-01 4.246822595596313477e-01 1.295318961143493652e+00
2.807000000000000000e+03 2.395186233520507812e+01 -1.022916030883789062e+01 8.545200824737548828e-01 1.149589180946350098e+00 6.012327671051025391e-01 3.880266100168228149e-02
2.808000000000000000e+03 2.065706443786621094e+01 -9.584403038024902344e+00 7.721949219703674316e-01 1.044271826744079590e+00 5.449399948120117188e-01 8.731803297996520996e-01
2.809000000000000000e+03 2.848064804077148438e+01 -1.069553565979003906e+01 1.716287136077880859e+00 8.504310846328735352e-01 7.700154781341552734e-01 -8.539301753044128418e-01
2.810000000000000000e+03 1.331412601470947266e+01 -7.453836441040039062e+00 7.786176800727844238e-01 2.038823962211608887e-01 2.947500348091125488e-01 1.105087041854858398e+00
2.811000000000000000e+03 9.478705406188964844e+00 -7.365857124328613281e+00 2.007144242525100708e-01 5.117174386978149414e-01 2.137295454740524292e-01 7.020241618156433105e-01
2.812000000000000000e+03 1.092010974884033203e+01 -8.377147674560546875e+00 3.563230037689208984e-01 5.258438587188720703e-01 2.646500468254089355e-01 1.032580494880676270e+00
2.813000000000000000e+03 2.479578018188476562e+01 -9.700400352478027344e+00 1.167266130447387695e+00 1.268684983253479004e+00 7.307853102684020996e-01 -3.117843866348266602e-01
2.814000000000000000e+03 2.690785026550292969e+01 -8.768733978271484375e+00 2.048402786254882812e+00 1.208481550216674805e+00 9.770652651786804199e-01 -1.074301123619079590e+00
2.815000000000000000e+03 2.208422851562500000e+01 -8.834238052368164062e+00 1.020689845085144043e+00 1.482558846473693848e+00 7.509746551513671875e-01 4.289697706699371338e-01
2.816000000000000000e+03 2.340906333923339844e+01 -5.803813457489013672e+00 1.847705602645874023e+00 3.115779876708984375e+00 1.489045619964599609e+00 -6.537665128707885742e-01
2.817000000000000000e+03 1.255796432495117188e+01 -9.807927131652832031e+00 5.206419229507446289e-01 3.987461626529693604e-01 2.758164107799530029e-01 1.398237705230712891e+00
2.818000000000000000e+03 1.387126827239990234e+01 -9.868242263793945312e+00 6.639535427093505859e-01 2.145170122385025024e-01 2.635411620140075684e-01 1.458039402961730957e+00
2.819000000000000000e+03 2.618346595764160156e+01 -8.532677650451660156e+00 1.929509758949279785e+00 1.358335494995117188e+00 9.863535761833190918e-01 -9.866998791694641113e-01
2.820000000000000000e+03 2.371657562255859375e+01 -8.266507148742675781e+00 1.345747351646423340e+00 1.827582836151123047e+00 9.519990682601928711e-01 -2.385232895612716675e-01
2.821000000000000000e+03 5.585860061645507812e+01 1.430675220489501953e+01 1.586747050285339355e+00 2.665059804916381836e+00 1.275542020797729492e+00 3.947409987449645996e-01
2.822000000000000000e+03 6.649006652832031250e+01 6.211642742156982422e+00 -3.434941768646240234e-01 4.736382961273193359e+00 1.317866563796997070e+00 -1.315913677215576172e+00
2.823000000000000000e+03 6.780773925781250000e+01 6.740118026733398438e+00 -2.956089079380035400e-01 5.194437026977539062e+00 1.469648480415344238e+00 -1.180610418319702148e+00
2.824000000000000000e+03 5.768418502807617188e+01 9.324933052062988281e+00 9.577575325965881348e-01 1.945514321327209473e+00 8.709815740585327148e-01 -4.501794576644897461e-01
2.825000000000000000e+03 6.362622451782226562e+01 8.680884361267089844e+00 2.485205382108688354e-01 3.590491533279418945e+00 1.151703596115112305e+00 -1.185212969779968262e+00
2.826000000000000000e+03 6.615940093994140625e+01 7.609888553619384766e+00 -1.176242157816886902e-01 4.506095886230468750e+00 1.316541552543640137e+00 -1.284999370574951172e+00
2.827000000000000000e+03 5.724156570434570312e+01 2.640414047241210938e+01 5.837771892547607422e-01 4.242228507995605469e+00 1.447801709175109863e+00 6.548515558242797852e-01
2.828000000000000000e+03 5.264484405517578125e+01 1.196001434326171875e+01 1.828434824943542480e+00 2.246128559112548828e+00 1.222368955612182617e+00 8.707303404808044434e-01
2.829000000000000000e+03 5.275051116943359375e+01 2.131674575805664062e+01 1.151713609695434570e+00 3.847205400466918945e+00 1.499675750732421875e+00 1.085316538810729980e+00
2.830000000000000000e+03 5.326844024658203125e+01 1.094657230377197266e+01 1.685665965080261230e+00 1.945839047431945801e+00 1.089451551437377930e+00 6.320939660072326660e-01
2.831000000000000000e+03 6.245545959472656250e+01 8.837922096252441406e+00 3.640508651733398438e-01 3.196453571319580078e+00 1.068151354789733887e+00 -1.127645730972290039e+00
2.832000000000000000e+03 6.221313095092773438e+01 7.343357563018798828e+00 1.422986388206481934e-01 3.021563768386840820e+00 9.491587281227111816e-01 -1.243042469024658203e+00
2.833000000000000000e+03 6.666145324707031250e+01 2.258908081054687500e+01 5.147011876106262207e-01 4.922096729278564453e+00 1.631039261817932129e+00 -1.430984586477279663e-01
2.834000000000000000e+03 6.516393280029296875e+01 1.686990737915039062e+01 7.199825644493103027e-01 4.378215789794921875e+00 1.529459476470947266e+00 -4.671545922756195068e-01
2.835000000000000000e+03 5.432364654541015625e+01 1.161757469177246094e+01 1.650895714759826660e+00 2.066494703292846680e+00 1.115217089653015137e+00 4.534082114696502686e-01
2.836000000000000000e+03 6.704342651367187500e+01 1.198386001586914062e+01 3.349513411521911621e-01 4.718325614929199219e+00 1.515983104705810547e+00 -9.558103680610656738e-01
2.837000000000000000e+03 4.391503524780273438e+01 -3.498886871337890625e+01 -9.240399003028869629e-01 3.735598802566528320e+00 8.434676527976989746e-01 -8.815440535545349121e-01
2.838000000000000000e+03 6.627191925048828125e+01 3.083784103393554688e+01 1.534670740365982056e-01 5.242181777954101562e+00 1.618694663047790527e+00 1.565088778734207153e-01
2.839000000000000000e+03 6.043859863281250000e+01 2.644148063659667969e+01 5.400248765945434570e-01 4.411462783813476562e+00 1.485446333885192871e+00 4.459189772605895996e-01
2.840000000000000000e+03 6.431384277343750000e+01 1.381785964965820312e+01 7.230493426322937012e-01 4.000842571258544922e+00 1.417167544364929199e+00 -7.145333290100097656e-01
2.841000000000000000e+03 2.215995025634765625e+01 -5.134618282318115234e+00 1.725040435791015625e+00 3.470982074737548828e+00 1.558806657791137695e+00 9.325936436653137207e-02
2.842000000000000000e+03 2.034699440002441406e+01 -4.770514011383056641e+00 1.968267440795898438e+00 2.123176813125610352e+00 1.227433323860168457e+00 1.185429692268371582e+00
2.843000000000000000e+03 1.959369659423828125e+01 -5.120256423950195312e+00 1.916956543922424316e+00 1.369334101676940918e+00 9.858871698379516602e-01 1.202560186386108398e+00
2.844000000000000000e+03 1.997572517395019531e+01 -4.723840236663818359e+00 2.012187957763671875e+00 1.729001283645629883e+00 1.122356772422790527e+00 1.231497168540954590e+00
2.845000000000000000e+03 1.875498962402343750e+01 -5.550639152526855469e+00 1.792842388153076172e+00 8.544499874114990234e-01 7.941877245903015137e-01 1.170553326606750488e+00
2.846000000000000000e+03 1.815327835083007812e+01 -6.894872665405273438e+00 1.451447486877441406e+00 6.457293629646301270e-01 6.291530728340148926e-01 1.223515510559082031e+00
2.847000000000000000e+03 1.769918632507324219e+01 -6.835981845855712891e+00 1.437292814254760742e+00 5.195523500442504883e-01 5.870535373687744141e-01 1.215585589408874512e+00
2.848000000000000000e+03 2.231605529785156250e+01 -5.655445098876953125e+00 1.635815501213073730e+00 3.150651693344116211e+00 1.435940146446228027e+00 5.038927868008613586e-02
2.849000000000000000e+03 1.910624504089355469e+01 -9.104765892028808594e+00 9.210392832756042480e-01 7.530717253684997559e-01 5.022332668304443359e-01 1.152797818183898926e+00
2.850000000000000000e+03 2.256232452392578125e+01 -8.354115486145019531e+00 1.158622980117797852e+00 1.751082181930541992e+00 8.729115724563598633e-01 1.996781677007675171e-01
2.851000000000000000e+03 2.389517974853515625e+01 -6.628795623779296875e+00 1.774026751518249512e+00 2.561117410659790039e+00 1.300543189048767090e+00 -6.837794780731201172e-01
2.852000000000000000e+03 1.581038475036621094e+01 -8.273246765136718750e+00 1.021290183067321777e+00 2.158962637186050415e-01 3.711559474468231201e-01 1.305012583732604980e+00
2.853000000000000000e+03 1.459420871734619141e+01 -8.120637893676757812e+00 9.219742417335510254e-01 1.763640791177749634e-01 3.295015096664428711e-01 1.262193083763122559e+00
2.854000000000000000e+03 1.393615913391113281e+01 -8.681538581848144531e+00 7.756156325340270996e-01 1.987302750349044800e-01 2.923037707805633545e-01 1.319782137870788574e+00
2.855000000000000000e+03 1.965887451171875000e+01 -1.008077335357666016e+01 6.588374972343444824e-01 7.423871159553527832e-01 4.203673899173736572e-01 1.057731270790100098e+00
2.856000000000000000e+03 1.238477325439453125e+01 -7.792300224304199219e+00 6.289572715759277344e-01 2.968095839023590088e-01 2.777300477027893066e-01 1.093650341033935547e+00
2.857000000000000000e+03 2.355513191223144531e+01 -9.432129859924316406e+00 1.010241389274597168e+00 1.417163491249084473e+00 7.282214760780334473e-01 2.330251969397068024e-02
2.858000000000000000e+03 2.309574317932128906e+01 -8.797655105590820312e+00 1.141239285469055176e+00 1.623966574668884277e+00 8.295617699623107910e-01 8.669666200876235962e-02
2.859000000000000000e+03 2.459095764160156250e+01 -6.117481231689453125e+00 2.206718444824218750e+00 2.636545181274414062e+00 1.452979087829589844e+00 -1.232372403144836426e+00
2.860000000000000000e+03 1.518839263916015625e+01 -9.955556869506835938e+00 7.410928606986999512e-01 1.435547769069671631e-01 2.653943002223968506e-01 1.425394773483276367e+00
2.861000000000000000e+03 2.559242057800292969e+01 -9.132550239562988281e+00 1.577005743980407715e+00 1.310443878173828125e+00 8.662348985671997070e-01 -6.750968694686889648e-01
2.862000000000000000e+03 1.836638450622558594e+01 -8.326050758361816406e+00 1.102655172348022461e+00 6.581752300262451172e-01 5.282491445541381836e-01 1.240497469902038574e+00
2.863000000000000000e+03 2.426082801818847656e+01 -8.922162055969238281e+00 1.305579781532287598e+00 1.532094359397888184e+00 8.513022065162658691e-01 -2.948342561721801758e-01
2.864000000000000000e+03 2.493524932861328125e+01 -8.301250457763671875e+00 1.635989546775817871e+00 1.717623353004455566e+00 1.006083846092224121e+00 -7.131848931312561035e-01
2.865000000000000000e+03 2.428920936584472656e+01 -7.651165962219238281e+00 1.651753783226013184e+00 2.033758640289306641e+00 1.105653762817382812e+00 -6.298007369041442871e-01
2.866000000000000000e+03 5.383098602294921875e+01 1.562987327575683594e+01 1.673480987548828125e+00 2.948332548141479492e+00 1.386544108390808105e+00 8.424652218818664551e-01
2.867000000000000000e+03 5.775357055664062500e+01 1.214620208740234375e+01 1.310758352279663086e+00 2.442388296127319336e+00 1.125944018363952637e+00 -1.857821643352508545e-01
2.868000000000000000e+03 5.806968688964843750e+01 1.035284614562988281e+01 1.081851363182067871e+00 2.234659910202026367e+00 9.949533939361572266e-01 -4.330220520496368408e-01
2.869000000000000000e+03 1.180530643463134766e+01 -8.599479675292968750e+00 4.905772507190704346e-01 4.256795048713684082e-01 2.748770415782928467e-01 1.184119701385498047e+00
2.870000000000000000e+03 5.373727798461914062e+01 1.271078109741210938e+01 1.763789296150207520e+00 2.334171295166015625e+00 1.229388117790222168e+00 6.863924860954284668e-01
2.871000000000000000e+03 6.827769470214843750e+01 5.401062011718750000e+00 -4.736167490482330322e-01 5.471246242523193359e+00 1.499288797378540039e+00 -1.146451354026794434e+00
2.872000000000000000e+03 5.480271530151367188e+01 1.798989868164062500e+01 1.484485030174255371e+00 3.279411554336547852e+00 1.429169058799743652e+00 7.859913110733032227e-01
2.873000000000000000e+03 5.311841964721679688e+01 1.383038616180419922e+01 1.808393716812133789e+00 2.638896703720092773e+00 1.334187150001525879e+00 8.872047662734985352e-01
2.874000000000000000e+03 6.798943328857421875e+01 9.889082908630371094e+00 7.720360904932022095e-02 5.042530059814453125e+00 1.535920143127441406e+00 -1.069965720176696777e+00
2.875000000000000000e+03 6.561048889160156250e+01 1.208187866210937500e+01 4.709306955337524414e-01 4.286364555358886719e+00 1.427188634872436523e+00 -9.321854710578918457e-01
2.876000000000000000e+03 6.026409530639648438e+01 9.895166397094726562e+00 7.744989395141601562e-01 2.570451736450195312e+00 1.003485202789306641e+00 -8.050730228424072266e-01
2.877000000000000000e+03 6.128741455078125000e+01 9.211569786071777344e+00 5.630430579185485840e-01 2.837574243545532227e+00 1.020185112953186035e+00 -9.885805249214172363e-01
2.878000000000000000e+03 6.736408996582031250e+01 2.441086578369140625e+01 4.171923100948333740e-01 5.094392776489257812e+00 1.653475522994995117e+00 -6.415708363056182861e-02
2.879000000000000000e+03 6.424954223632812500e+01 1.513677597045898438e+01 7.725980877876281738e-01 4.103611946105957031e+00 1.462863087654113770e+00 -5.689044594764709473e-01
2.880000000000000000e+03 6.174636459350585938e+01 1.059803295135498047e+01 7.128770351409912109e-01 3.130802154541015625e+00 1.153103709220886230e+00 -8.513032197952270508e-01
2.881000000000000000e+03 6.547573852539062500e+01 1.521867465972900391e+01 6.771605610847473145e-01 4.346208095550537109e+00 1.507010579109191895e+00 -6.277762651443481445e-01
2.882000000000000000e+03 6.420314788818359375e+01 1.235898876190185547e+01 6.277866363525390625e-01 3.901155710220336914e+00 1.358682632446289062e+00 -8.556172847747802734e-01
2.883000000000000000e+03 4.835556030273437500e+01 3.165747451782226562e+01 -4.143050014972686768e-01 4.101500988006591797e+00 1.106158852577209473e+00 7.904413938522338867e-01
2.884000000000000000e+03 6.074161911010742188e+01 1.120035552978515625e+01 8.978981971740722656e-01 2.898549556732177734e+00 1.138934373855590820e+00 -7.163181900978088379e-01
2.885000000000000000e+03 5.212229156494140625e+01 1.622277259826660156e+01 1.712756037712097168e+00 3.222238302230834961e+00 1.480498313903808594e+00 1.196815729141235352e+00
2.886000000000000000e+03 5.418067550659179688e+01 1.449158000946044922e+01 1.731459856033325195e+00 2.679930686950683594e+00 1.323417186737060547e+00 7.282288074493408203e-01
2.887000000000000000e+03 5.436567306518554688e+01 2.270334625244140625e+01 1.001409769058227539e+00 3.889232873916625977e+00 1.467192769050598145e+00 9.104766845703125000e-01
2.888000000000000000e+03 5.783283615112304688e+01 2.297672653198242188e+01 9.315202236175537109e-01 3.960227966308593750e+00 1.467524528503417969e+00 5.748457908630371094e-01
2.889000000000000000e+03 6.439831542968750000e+01 2.103484725952148438e+01 7.131391167640686035e-01 4.476893901824951172e+00 1.557009935379028320e+00 -9.571181982755661011e-02
2.890000000000000000e+03 6.271020507812500000e+01 3.065459442138671875e+01 1.574241816997528076e-01 4.914184093475341797e+00 1.521482467651367188e+00 3.152770698070526123e-01
2.891000000000000000e+03 1.676208686828613281e+01 -4.114809036254882812e+01 3.768871352076530457e-02 -4.812724590301513672e-01 -1.330751180648803711e-01 5.087772011756896973e-02
2.892000000000000000e+03 1.923178672790527344e+01 -5.604018688201904297e+00 1.775559306144714355e+00 1.159303426742553711e+00 8.804588317871093750e-01 1.196808934211730957e+00
2.893000000000000000e+03 2.070266723632812500e+01 -5.153217315673828125e+00 1.805077910423278809e+00 2.350587844848632812e+00 1.246699690818786621e+00 1.026646494865417480e+00
2.894000000000000000e+03 1.873266220092773438e+01 -6.028453350067138672e+00 1.669603466987609863e+00 8.711435794830322266e-01 7.622241377830505371e-01 1.201346755027770996e+00
2.895000000000000000e+03 1.868518257141113281e+01 -6.491222381591796875e+00 1.564741492271423340e+00 8.480237722396850586e-01 7.238295674324035645e-01 1.203789353370666504e+00
2.896000000000000000e+03 1.731413650512695312e+01 -7.822440147399902344e+00 1.202709197998046875e+00 4.191926121711730957e-01 4.865705370903015137e-01 1.274335503578186035e+00
2.897000000000000000e+03 1.715459632873535156e+01 -7.120246410369873047e+00 1.330367565155029297e+00 3.723613619804382324e-01 5.108187198638916016e-01 1.228200197219848633e+00
2.898000000000000000e+03 2.148621940612792969e+01 -8.997941017150878906e+00 9.375368356704711914e-01 1.349097371101379395e+00 6.859902739524841309e-01 6.517215371131896973e-01
2.899000000000000000e+03 2.332572364807128906e+01 -6.406024932861328125e+00 1.687814593315124512e+00 2.767385721206665039e+00 1.336560010910034180e+00 -4.553299248218536377e-01
2.900000000000000000e+03 1.652966117858886719e+01 -9.959217071533203125e+00 7.600467801094055176e-01 2.196201682090759277e-01 2.939000725746154785e-01 1.355303168296813965e+00
2.901000000000000000e+03 2.082411575317382812e+01 -8.939132690429687500e+00 9.375082254409790039e-01 1.219911456108093262e+00 6.472259163856506348e-01 8.137410879135131836e-01
2.902000000000000000e+03 1.318752574920654297e+01 -9.191963195800781250e+00 6.399516463279724121e-01 3.215947449207305908e-01 2.884639203548431396e-01 1.369061589241027832e+00
2.903000000000000000e+03 2.166460990905761719e+01 -8.449188232421875000e+00 1.085331201553344727e+00 1.582441687583923340e+00 8.003318905830383301e-01 5.483165979385375977e-01
2.904000000000000000e+03 1.990947532653808594e+01 -8.328536033630371094e+00 1.082263946533203125e+00 1.081713676452636719e+00 6.491932868957519531e-01 1.039978742599487305e+00
2.905000000000000000e+03 2.330567169189453125e+01 -7.746125221252441406e+00 1.410424828529357910e+00 2.046096563339233398e+00 1.036956429481506348e+00 -1.690820306539535522e-01
2.906000000000000000e+03 1.826861000061035156e+01 -8.931875228881835938e+00 9.818046092987060547e-01 5.832126736640930176e-01 4.695051908493041992e-01 1.239081978797912598e+00
2.907000000000000000e+03 1.796725082397460938e+01 -9.649845123291015625e+00 8.086540102958679199e-01 4.578560292720794678e-01 3.799529969692230225e-01 1.265442609786987305e+00
2.908000000000000000e+03 1.712889480590820312e+01 -9.324779510498046875e+00 8.895520567893981934e-01 3.336195349693298340e-01 3.669514954090118408e-01 1.310669779777526855e+00
2.909000000000000000e+03 5.484552764892578125e+01 1.344979953765869141e+01 1.686391472816467285e+00 2.484294414520263672e+00 1.251205682754516602e+00 5.238879323005676270e-01
2.910000000000000000e+03 5.496482849121093750e+01 1.538800144195556641e+01 1.635546684265136719e+00 2.850400686264038086e+00 1.345784187316894531e+00 6.408463716506958008e-01
2.911000000000000000e+03 6.377491378784179688e+01 1.666696929931640625e+01 8.364315032958984375e-01 4.084890365600585938e+00 1.476396679878234863e+00 -4.194767177104949951e-01
2.912000000000000000e+03 5.869948196411132812e+01 1.132156372070312500e+01 1.116502881050109863e+00 2.482964277267456055e+00 1.079840183258056641e+00 -4.327554404735565186e-01
2.913000000000000000e+03 6.462193298339843750e+01 1.016758537292480469e+01 3.665546178817749023e-01 3.954031705856323242e+00 1.296175837516784668e+00 -1.079556584358215332e+00
2.914000000000000000e+03 6.272505187988281250e+01 1.018008422851562500e+01 5.402251482009887695e-01 3.398575067520141602e+00 1.181640148162841797e+00 -1.002485394477844238e+00
2.915000000000000000e+03 6.397726821899414062e+01 1.104664516448974609e+01 5.370370149612426758e-01 3.795943498611450195e+00 1.299894213676452637e+00 -9.845624566078186035e-01
2.916000000000000000e+03 6.739958190917968750e+01 8.052018165588378906e+00 -1.089239642024040222e-01 4.928167819976806641e+00 1.445773124694824219e+00 -1.186241984367370605e+00
2.917000000000000000e+03 6.121347045898437500e+01 1.261895847320556641e+01 9.648355841636657715e-01 3.158927202224731445e+00 1.237128853797912598e+00 -6.027888655662536621e-01
2.918000000000000000e+03 5.941722106933593750e+01 1.059282016754150391e+01 9.680535197257995605e-01 2.474589347839355469e+00 1.032792806625366211e+00 -6.240664720535278320e-01
2.919000000000000000e+03 6.368939590454101562e+01 9.971076965332031250e+00 4.162385165691375732e-01 3.640038251876831055e+00 1.216883063316345215e+00 -1.095282077789306641e+00
2.920000000000000000e+03 6.321097183227539062e+01 1.852490806579589844e+01 8.736124634742736816e-01 4.119475841522216797e+00 1.497926473617553711e+00 -2.216527462005615234e-01
2.921000000000000000e+03 5.553155136108398438e+01 1.225545978546142578e+01 1.563141942024230957e+00 2.244686841964721680e+00 1.142348647117614746e+00 2.585105299949645996e-01
2.922000000000000000e+03 6.478187561035156250e+01 8.769176483154296875e+00 1.600239425897598267e-01 4.015352249145507812e+00 1.252612948417663574e+00 -1.195290565490722656e+00
2.923000000000000000e+03 6.297057723999023438e+01 1.244998168945312500e+01 7.541531920433044434e-01 3.601056337356567383e+00 1.306562900543212891e+00 -7.699776887893676758e-01
2.924000000000000000e+03 6.556523895263671875e+01 2.554421424865722656e+01 4.350965917110443115e-01 4.915956020355224609e+00 1.605315804481506348e+00 7.821030169725418091e-02
2.925000000000000000e+03 5.013039398193359375e+01 3.277098846435546875e+01 -4.641785621643066406e-01 4.202607631683349609e+00 1.121528744697570801e+00 7.571521401405334473e-01
2.926000000000000000e+03 5.914493942260742188e+01 2.470472908020019531e+01 7.169802188873291016e-01 4.194601058959960938e+00 1.473474502563476562e+00 5.071924924850463867e-01
2.927000000000000000e+03 1.963798332214355469e+01 -5.560706138610839844e+00 1.784152030944824219e+00 1.387729406356811523e+00 9.515644311904907227e-01 1.195809245109558105e+00
2.928000000000000000e+03 1.998674392700195312e+01 -5.532033443450927734e+00 1.779524803161621094e+00 1.664156317710876465e+00 1.033104300498962402e+00 1.155774831771850586e+00
2.929000000000000000e+03 1.862002944946289062e+01 -6.936880588531494141e+00 1.439627766609191895e+00 8.086018562316894531e-01 6.744688749313354492e-01 1.218194603919982910e+00
2.930000000000000000e+03 1.922418975830078125e+01 -6.106892108917236328e+00 1.666447401046752930e+00 1.132146954536437988e+00 8.395783305168151855e-01 1.180483698844909668e+00
2.931000000000000000e+03 2.285405158996582031e+01 -5.654631137847900391e+00 1.754642367362976074e+00 3.241054534912109375e+00 1.498709082603454590e+00 -3.328798711299896240e-01
2.932000000000000000e+03 1.752612686157226562e+01 -8.695675849914550781e+00 1.023159742355346680e+00 4.319758713245391846e-01 4.365406930446624756e-01 1.295315146446228027e+00
2.933000000000000000e+03 1.990728950500488281e+01 -9.362036705017089844e+00 8.458013534545898438e-01 9.278132319450378418e-01 5.320844054222106934e-01 1.020212531089782715e+00
2.934000000000000000e+03 2.256555366516113281e+01 -7.204090118408203125e+00 1.407886147499084473e+00 2.247858285903930664e+00 1.096723318099975586e+00 8.499686419963836670e-02
2.935000000000000000e+03 2.204058456420898438e+01 -8.017169952392578125e+00 1.192759394645690918e+00 1.798121333122253418e+00 8.972641825675964355e-01 4.125897288322448730e-01
2.936000000000000000e+03 2.024974632263183594e+01 -8.759552001953125000e+00 9.789471030235290527e-01 1.105208992958068848e+00 6.252468228340148926e-01 9.828237891197204590e-01
2.937000000000000000e+03 2.368284034729003906e+01 -7.245423316955566406e+00 1.581860184669494629e+00 2.298970222473144531e+00 1.164249181747436523e+00 -4.576680660247802734e-01
2.938000000000000000e+03 2.318282127380371094e+01 -6.955825805664062500e+00 1.526687860488891602e+00 2.450196027755737305e+00 1.193065166473388672e+00 -2.284590899944305420e-01
2.939000000000000000e+03 2.235654640197753906e+01 -6.657196998596191406e+00 1.476469755172729492e+00 2.513549327850341797e+00 1.197005748748779297e+00 1.300240159034729004e-01
2.940000000000000000e+03 1.519914722442626953e+01 -8.773509979248046875e+00 9.100707173347473145e-01 1.667421013116836548e-01 3.230438530445098877e-01 1.348396420478820801e+00
2.941000000000000000e+03 5.584778976440429688e+01 1.648686027526855469e+01 1.539690494537353516e+00 3.028261661529541016e+00 1.370385646820068359e+00 5.528575181961059570e-01
2.942000000000000000e+03 5.706993103027343750e+01 1.738345909118652344e+01 1.412871241569519043e+00 3.211569786071777344e+00 1.387332320213317871e+00 4.176119863986968994e-01
2.943000000000000000e+03 6.118505859375000000e+01 1.543529129028320312e+01 1.084310889244079590e+00 3.456553936004638672e+00 1.362259507179260254e+00 -2.944831252098083496e-01
2.944000000000000000e+03 5.852114868164062500e+01 1.337555980682373047e+01 1.310290455818176270e+00 2.736380577087402344e+00 1.214001297950744629e+00 -1.602709889411926270e-01
2.945000000000000000e+03 6.301842117309570312e+01 1.131790733337402344e+01 6.518072485923767090e-01 3.569338798522949219e+00 1.266343832015991211e+00 -8.933556675910949707e-01
2.946000000000000000e+03 6.219737243652343750e+01 1.176453304290771484e+01 7.865234017372131348e-01 3.372168302536010742e+00 1.247607469558715820e+00 -7.770429253578186035e-01
2.947000000000000000e+03 5.966021347045898438e+01 1.165464401245117188e+01 1.057840228080749512e+00 2.658834695816040039e+00 1.115002512931823730e+00 -5.312431454658508301e-01
2.948000000000000000e+03 5.714639663696289062e+01 2.116909790039062500e+01 1.102421998977661133e+00 3.735466241836547852e+00 1.451366424560546875e+00 6.039071679115295410e-01
2.949000000000000000e+03 5.542553710937500000e+01 2.080303192138671875e+01 1.184564828872680664e+00 3.672824144363403320e+00 1.457216739654541016e+00 7.787660360336303711e-01
2.950000000000000000e+03 5.758934402465820312e+01 1.409034538269042969e+01 1.423058748245239258e+00 2.725443363189697266e+00 1.244550585746765137e+00 5.433186143636703491e-02
2.951000000000000000e+03 5.708288574218750000e+01 1.088202095031738281e+01 1.267112016677856445e+00 2.104682922363281250e+00 1.011538505554199219e+00 -1.986016631126403809e-01
2.952000000000000000e+03 5.682579040527343750e+01 1.522405147552490234e+01 1.507606267929077148e+00 2.818855524063110352e+00 1.297938585281372070e+00 2.769820392131805420e-01
2.953000000000000000e+03 6.247930908203125000e+01 2.474941825866699219e+01 6.132126450538635254e-01 4.486272811889648438e+00 1.529845714569091797e+00 2.333142757415771484e-01
2.954000000000000000e+03 6.008586120605468750e+01 3.220687484741210938e+01 3.159328177571296692e-02 4.754028797149658203e+00 1.435686588287353516e+00 4.245276749134063721e-01
2.955000000000000000e+03 6.108997726440429688e+01 2.294180107116699219e+01 8.091759681701660156e-01 4.201400756835937500e+00 1.503173112869262695e+00 2.609294652938842773e-01
2.956000000000000000e+03 2.181246376037597656e+01 -5.784486770629882812e+00 1.583208322525024414e+00 2.823086500167846680e+00 1.321888446807861328e+00 4.036421775817871094e-01
2.957000000000000000e+03 2.121720504760742188e+01 -5.405953884124755859e+00 1.674199938774108887e+00 2.702969312667846680e+00 1.313150763511657715e+00 7.739586234092712402e-01
2.958000000000000000e+03 2.097155761718750000e+01 -6.667031288146972656e+00 1.436562657356262207e+00 1.999001502990722656e+00 1.030669212341308594e+00 8.074330091476440430e-01
2.959000000000000000e+03 2.100920104980468750e+01 -4.998876571655273438e+00 1.785665988922119141e+00 2.762915372848510742e+00 1.364574432373046875e+00 9.219394922256469727e-01
2.960000000000000000e+03 2.036914443969726562e+01 -5.585902214050292969e+00 1.734267950057983398e+00 1.955105543136596680e+00 1.106812119483947754e+00 1.061180591583251953e+00
2.961000000000000000e+03 1.916185188293457031e+01 -6.582726001739501953e+00 1.524466753005981445e+00 1.064994931221008301e+00 7.768384814262390137e-01 1.187089562416076660e+00
2.962000000000000000e+03 1.988500213623046875e+01 -5.882670879364013672e+00 1.674865007400512695e+00 1.513321638107299805e+00 9.564560055732727051e-01 1.149055242538452148e+00
2.963000000000000000e+03 2.191281700134277344e+01 -6.280890941619873047e+00 1.505720734596252441e+00 2.614372014999389648e+00 1.236027836799621582e+00 3.610296547412872314e-01
2.964000000000000000e+03 2.282174873352050781e+01 -6.255733013153076172e+00 1.588483214378356934e+00 2.821791410446166992e+00 1.323082327842712402e+00 -1.573489457368850708e-01
2.965000000000000000e+03 1.955906295776367188e+01 -7.184650897979736328e+00 1.374063372611999512e+00 1.198471665382385254e+00 7.717605233192443848e-01 1.132296204566955566e+00
2.966000000000000000e+03 2.235948944091796875e+01 -6.209711551666259766e+00 1.566201567649841309e+00 2.771416902542114258e+00 1.301285624504089355e+00 6.789305806159973145e-02
2.967000000000000000e+03 1.809470939636230469e+01 -7.391411781311035156e+00 1.328346014022827148e+00 6.324793100357055664e-01 5.882475972175598145e-01 1.241520762443542480e+00
2.968000000000000000e+03 1.782061958312988281e+01 -8.159265518188476562e+00 1.153527975082397461e+00 5.177576541900634766e-01 5.013856887817382812e-01 1.266785502433776855e+00
2.969000000000000000e+03 2.233424949645996094e+01 -7.607038497924804688e+00 1.305803537368774414e+00 1.997408032417297363e+00 9.909634590148925781e-01 2.412760406732559204e-01
2.970000000000000000e+03 2.072352790832519531e+01 -8.390851020812988281e+00 1.081354260444641113e+00 1.367715835571289062e+00 7.347210645675659180e-01 8.332958221435546875e-01
2.971000000000000000e+03 2.273705482482910156e+01 -6.766272068023681641e+00 1.514035820960998535e+00 2.549421310424804688e+00 1.219037175178527832e+00 -7.674182951450347900e-02
2.972000000000000000e+03 2.296290206909179688e+01 -7.409352302551269531e+00 1.425556063652038574e+00 2.255910873413085938e+00 1.104440093040466309e+00 -9.739547967910766602e-02
2.973000000000000000e+03 2.120615959167480469e+01 -8.046770095825195312e+00 1.158828973770141602e+00 1.598715782165527344e+00 8.272634148597717285e-01 6.991623640060424805e-01
2.974000000000000000e+03 6.177865219116210938e+01 1.795383453369140625e+01 1.005465269088745117e+00 3.826698064804077148e+00 1.449648976325988770e+00 -1.293805688619613647e-01
2.975000000000000000e+03 5.980567169189453125e+01 1.490900039672851562e+01 1.208035707473754883e+00 3.179736852645874023e+00 1.316331863403320312e+00 -1.875400096178054810e-01
2.976000000000000000e+03 5.618062973022460938e+01 1.893675041198730469e+01 1.359693169593811035e+00 3.409438610076904297e+00 1.430739521980285645e+00 6.159495711326599121e-01
2.977000000000000000e+03 5.853703308105468750e+01 1.465866947174072266e+01 1.337455391883850098e+00 2.929651021957397461e+00 1.280131936073303223e+00 -5.138673633337020874e-02
2.978000000000000000e+03 5.985852432250976562e+01 1.314134502410888672e+01 1.146283507347106934e+00 2.945093631744384766e+00 1.227413177490234375e+00 -3.928692042827606201e-01
2.979000000000000000e+03 5.749840545654296875e+01 1.956406784057617188e+01 1.249042153358459473e+00 3.531709671020507812e+00 1.434225559234619141e+00 4.992362856864929199e-01
2.980000000000000000e+03 5.668578720092773438e+01 1.311154842376708984e+01 1.502783775329589844e+00 2.462581157684326172e+00 1.189609408378601074e+00 1.198294535279273987e-01
2.981000000000000000e+03 6.323861694335937500e+01 1.462136650085449219e+01 8.521778583526611328e-01 3.813948392868041992e+00 1.399837851524353027e+00 -5.670300126075744629e-01
2.982000000000000000e+03 5.410112380981445312e+01 2.615840339660644531e+01 5.705017447471618652e-01 4.152455329895019531e+00 1.416887164115905762e+00 9.016717076301574707e-01
2.983000000000000000e+03 2.045893287658691406e+01 -7.008266448974609375e+00 1.397972702980041504e+00 1.634500861167907715e+00 9.097420573234558105e-01 9.567663073539733887e-01
2.984000000000000000e+03 1.969986915588378906e+01 -6.246659278869628906e+00 1.607529044151306152e+00 1.410160303115844727e+00 9.053068161010742188e-01 1.152813792228698730e+00
2.985000000000000000e+03 2.133411979675292969e+01 -5.937396049499511719e+00 1.550089716911315918e+00 2.514555931091308594e+00 1.219393730163574219e+00 6.640458106994628906e-01
2.986000000000000000e+03 2.146335792541503906e+01 -6.445474624633789062e+00 1.479221701622009277e+00 2.325059890747070312e+00 1.141284465789794922e+00 5.969807505607604980e-01
2.987000000000000000e+03 2.161079788208007812e+01 -7.639298915863037109e+00 1.239715456962585449e+00 1.873547315597534180e+00 9.339787960052490234e-01 5.405259728431701660e-01
2.988000000000000000e+03 2.166180419921875000e+01 -6.906601905822753906e+00 1.383771896362304688e+00 2.206071376800537109e+00 1.076952934265136719e+00 5.045043230056762695e-01
2.989000000000000000e+03 2.038662528991699219e+01 -7.917404174804687500e+00 1.198318004608154297e+00 1.388457536697387695e+00 7.760326266288757324e-01 9.320750832557678223e-01
2.990000000000000000e+03 1.963919830322265625e+01 -7.937567234039306641e+00 1.215012431144714355e+00 1.094388723373413086e+00 6.928203701972961426e-01 1.113335013389587402e+00
2.991000000000000000e+03 1.934675407409667969e+01 -8.434391975402832031e+00 1.078652739524841309e+00 9.032557606697082520e-01 5.945725440979003906e-01 1.133086323738098145e+00
2.992000000000000000e+03 6.215582656860351562e+01 1.377995491027832031e+01 9.317061901092529297e-01 3.495129346847534180e+00 1.328050732612609863e+00 -5.727621316909790039e-01
2.993000000000000000e+03 5.791901397705078125e+01 1.598589801788330078e+01 1.392632365226745605e+00 3.064314603805541992e+00 1.337084054946899414e+00 1.686894893646240234e-01
2.994000000000000000e+03 6.247751617431640625e+01 1.616645622253417969e+01 9.582713842391967773e-01 3.781297683715820312e+00 1.421870708465576172e+00 -3.670702278614044189e-01
2.995000000000000000e+03 5.856557846069335938e+01 2.035270500183105469e+01 1.093597650527954102e+00 3.738988637924194336e+00 1.449775815010070801e+00 3.882037401199340820e-01
2.996000000000000000e+03 2.034894561767578125e+01 -5.160839557647705078e+00 1.834419250488281250e+00 2.057068586349487305e+00 1.167446374893188477e+00 1.138760209083557129e+00
2.997000000000000000e+03 2.083123016357421875e+01 -6.095966815948486328e+00 1.563699841499328613e+00 2.116936683654785156e+00 1.104190945625305176e+00 8.951282501220703125e-01
2.998000000000000000e+03 1.965337753295898438e+01 -6.691529750823974609e+00 1.506162881851196289e+00 1.291338086128234863e+00 8.392502665519714355e-01 1.123332262039184570e+00
2.999000000000000000e+03 1.889639663696289062e+01 -8.101132392883300781e+00 1.157948493957519531e+00 7.923280596733093262e-01 5.850829482078552246e-01 1.190674662590026855e+00
3.000000000000000000e+03 2.082991790771484375e+01 -7.531081199645996094e+00 1.258385777473449707e+00 1.649734973907470703e+00 8.724362254142761230e-01 8.153284192085266113e-01
3.001000000000000000e+03 2.001944732666015625e+01 -7.477370262145996094e+00 1.308242321014404297e+00 1.311744689941406250e+00 7.859960794448852539e-01 1.039334416389465332e+00
3.002000000000000000e+03 2.125996780395507812e+01 -7.185752391815185547e+00 1.331531286239624023e+00 1.900247812271118164e+00 9.695336818695068359e-01 6.825295090675354004e-01
3.003000000000000000e+03 2.033090400695800781e+01 -6.075514793395996094e+00 1.591577529907226562e+00 1.782215833663940430e+00 1.012138009071350098e+00 1.029281973838806152e+00
3.004000000000000000e+03 1.820123672485351562e+01 -7.859070777893066406e+00 1.235335588455200195e+00 6.445348858833312988e-01 5.639611482620239258e-01 1.250743269920349121e+00
3.005000000000000000e+03 6.091415786743164062e+01 1.983003807067871094e+01 1.000830769538879395e+00 3.891121387481689453e+00 1.467585563659667969e+00 1.167708337306976318e-01
3.006000000000000000e+03 6.248468399047851562e+01 2.075702095031738281e+01 8.472779393196105957e-01 4.187461376190185547e+00 1.510421752929687500e+00 1.707702688872814178e-02
3.007000000000000000e+03 5.914775466918945312e+01 1.660018348693847656e+01 1.267046213150024414e+00 3.308351993560791016e+00 1.372619390487670898e+00 6.410699337720870972e-02
3.008000000000000000e+03 5.963729095458984375e+01 2.157236671447753906e+01 9.797290563583374023e-01 3.914677858352661133e+00 1.468322038650512695e+00 3.144116997718811035e-01
3.009000000000000000e+03 5.856681823730468750e+01 2.796959304809570312e+01 4.292259216308593750e-01 4.387094974517822266e+00 1.444896221160888672e+00 5.985577106475830078e-01
3.010000000000000000e+03 2.201678657531738281e+01 -6.702314853668212891e+00 1.446907520294189453e+00 2.398622989654541016e+00 1.153659224510192871e+00 3.176308870315551758e-01
3.011000000000000000e+03 1.927409172058105469e+01 -7.662976264953613281e+00 1.274596214294433594e+00 1.025650262832641602e+00 6.900739669799804688e-01 1.133510828018188477e+00
3.012000000000000000e+03 1.892824554443359375e+01 -7.430674076080322266e+00 1.337712407112121582e+00 8.897254467010498047e-01 6.682313680648803711e-01 1.197422742843627930e+00
3.013000000000000000e+03 6.043632507324218750e+01 1.725027465820312500e+01 1.142541408538818359e+00 3.549672126770019531e+00 1.407664060592651367e+00 -2.535979077219963074e-02
3.014000000000000000e+03 5.535236358642578125e+01 2.841782379150390625e+01 3.046367764472961426e-01 4.294521331787109375e+00 1.379747390747070312e+00 7.764700651168823242e-01
3.015000000000000000e+03 2.009731674194335938e+01 -6.542127609252929688e+00 1.508040308952331543e+00 1.577064037322998047e+00 9.255312681198120117e-01 1.054674386978149414e+00
3.016000000000000000e+03 6.599707031250000000e+01 3.462178802490234375e+01 7.712717633694410324e-03 5.320705413818359375e+00 1.598525524139404297e+00 1.804619431495666504e-01
3.017000000000000000e+03 4.700214767456054688e+01 3.282343673706054688e+01 -6.438239216804504395e-01 3.972201824188232422e+00 9.985134005546569824e-01 7.038213610649108887e-01
3.018000000000000000e+03 5.944708251953125000e+01 2.973617744445800781e+01 1.953635811805725098e-01 4.589499473571777344e+00 1.435458898544311523e+00 5.185342431068420410e-01
3.019000000000000000e+03 5.682394790649414062e+01 3.298772048950195312e+01 -1.229775026440620422e-01 4.592117786407470703e+00 1.340742111206054688e+00 5.684828758239746094e-01
3.020000000000000000e+03 1.979757881164550781e+01 -3.985133361816406250e+01 -1.820004284381866455e-01 -2.611551582813262939e-01 -1.329466700553894043e-01 9.118870645761489868e-02
3.021000000000000000e+03 1.249477291107177734e+01 -4.136857604980468750e+01 2.513267993927001953e-01 -3.504591286182403564e-01 -2.973969839513301849e-02 4.962109401822090149e-02
3.022000000000000000e+03 6.130785751342773438e+01 3.511545944213867188e+01 -1.210776641964912415e-01 4.976983070373535156e+00 1.456771731376647949e+00 3.055548369884490967e-01
3.023000000000000000e+03 7.646218109130859375e+01 -3.706201553344726562e+01 -3.270497024059295654e-01 1.027176761627197266e+01 2.983415126800537109e+00 -2.950678765773773193e-01
3.024000000000000000e+03 7.147325134277343750e+01 -3.829991531372070312e+01 -4.278318285942077637e-01 7.184704303741455078e+00 2.027061700820922852e+00 4.564940556883811951e-02
3.025000000000000000e+03 5.150403976440429688e+01 -3.717870712280273438e+01 -4.301496744155883789e-01 1.189108371734619141e+00 2.276875972747802734e-01 -5.919167399406433105e-01
3.026000000000000000e+03 7.491845607757568359e+00 -3.382242584228515625e+01 -5.650076866149902344e-01 4.374643266201019287e-01 -3.826301172375679016e-02 4.707088693976402283e-02
3.027000000000000000e+03 5.413010787963867188e+01 -3.833776855468750000e+01 -1.439307332038879395e-01 6.114580631256103516e-01 1.402582079172134399e-01 -5.478985905647277832e-01
3.028000000000000000e+03 3.932262802124023438e+01 3.827761459350585938e+01 -1.564769506454467773e+00 1.163245201110839844e+00 -1.204573065042495728e-01 -7.969055324792861938e-03
3.029000000000000000e+03 4.476249313354492188e+01 -3.760634994506835938e+01 -1.061583280563354492e+00 3.392013311386108398e+00 6.991290450096130371e-01 -6.663822531700134277e-01
3.030000000000000000e+03 4.755795288085937500e+01 -3.679824447631835938e+01 -7.642418742179870605e-01 2.580909729003906250e+00 5.450003743171691895e-01 -6.458659172058105469e-01
3.031000000000000000e+03 8.217506408691406250e+00 -4.128599166870117188e+01 2.937433719635009766e-01 7.703674435615539551e-01 3.192332684993743896e-01 -2.264324948191642761e-02
3.032000000000000000e+03 4.175752639770507812e+01 -4.084366607666015625e+01 -1.534934282302856445e+00 4.121969223022460938e+00 7.761105298995971680e-01 -1.426020562648773193e-01
3.033000000000000000e+03 6.742525482177734375e+01 4.108900833129882812e+01 -1.041968837380409241e-01 5.544450759887695312e+00 1.632076144218444824e+00 2.118023484945297241e-02
3.034000000000000000e+03 6.757619476318359375e+01 3.830630874633789062e+01 -9.257677942514419556e-02 5.534139633178710938e+00 1.632468819618225098e+00 7.804920524358749390e-02
3.035000000000000000e+03 4.457190704345703125e+01 3.797711181640625000e+01 -1.419343948364257812e+00 3.231847524642944336e+00 5.437510609626770020e-01 1.724093407392501831e-01
3.036000000000000000e+03 4.339337539672851562e+01 4.093049621582031250e+01 -1.506852984428405762e+00 2.648421287536621094e+00 3.424705266952514648e-01 3.311001881957054138e-02
3.037000000000000000e+03 5.267119598388671875e+01 4.073855972290039062e+01 -9.087020158767700195e-01 4.464577198028564453e+00 1.066762566566467285e+00 1.444428563117980957e-01
3.038000000000000000e+03 5.740920639038085938e+01 3.665862655639648438e+01 -3.771776854991912842e-01 4.773931980133056641e+00 1.319026231765747070e+00 3.611390292644500732e-01
3.039000000000000000e+03 6.395438385009765625e+01 3.734879684448242188e+01 -1.543421596288681030e-01 5.215517520904541016e+00 1.518352627754211426e+00 1.732660979032516479e-01
3.040000000000000000e+03 4.791218185424804688e+01 3.477875900268554688e+01 -8.308798670768737793e-01 4.019048213958740234e+00 9.564505219459533691e-01 5.825661420822143555e-01
3.041000000000000000e+03 2.309012222290039062e+01 -4.113894653320312500e+01 -2.260120064020156860e-01 2.109607607126235962e-01 -4.515371285378932953e-03 9.042860567569732666e-02
3.042000000000000000e+03 9.875910758972167969e+00 -3.698710632324218750e+01 -6.079109758138656616e-02 2.408935129642486572e-02 -1.101052388548851013e-02 5.607916042208671570e-02
3.043000000000000000e+03 5.496208190917968750e+01 -3.596529388427734375e+01 -5.913100242614746094e-01 3.884319961071014404e-01 -6.086340174078941345e-02 -5.703775882720947266e-01
3.044000000000000000e+03 1.927643013000488281e+01 -2.577224254608154297e+00 2.317387819290161133e+00 4.071529805660247803e-01 8.173622488975524902e-01 6.471537351608276367e-01
3.045000000000000000e+03 1.983272552490234375e+01 -2.960638999938964844e+00 2.599656820297241211e+00 1.056337356567382812e+00 1.096798181533813477e+00 1.146316885948181152e+00
3.046000000000000000e+03 2.025640487670898438e+01 -2.511141061782836914e+00 2.841110706329345703e+00 1.372527837753295898e+00 1.264091610908508301e+00 1.328312873840332031e+00
3.047000000000000000e+03 2.008565902709960938e+01 -2.905878067016601562e+00 2.663041591644287109e+00 1.377960562705993652e+00 1.212300658226013184e+00 1.287932515144348145e+00
3.048000000000000000e+03 2.045229530334472656e+01 -2.477688312530517578e+00 2.907532930374145508e+00 1.724993109703063965e+00 1.389757752418518066e+00 1.518201470375061035e+00
3.049000000000000000e+03 2.068758201599121094e+01 -2.693840980529785156e+00 2.816850185394287109e+00 2.563484191894531250e+00 1.614100337028503418e+00 1.738458752632141113e+00
3.050000000000000000e+03 2.085469627380371094e+01 -2.678170919418334961e+00 2.772578477859497070e+00 3.088601112365722656e+00 1.758353948593139648e+00 1.876369714736938477e+00
3.051000000000000000e+03 2.105280494689941406e+01 -2.739098787307739258e+00 2.612705707550048828e+00 3.834398984909057617e+00 1.934131383895874023e+00 1.824673652648925781e+00
3.052000000000000000e+03 2.144286537170410156e+01 -2.359567642211914062e+00 2.410880565643310547e+00 5.966590404510498047e+00 2.513241291046142578e+00 2.002629756927490234e+00
3.053000000000000000e+03 2.127423477172851562e+01 -2.864928960800170898e+00 2.313809871673583984e+00 4.630463600158691406e+00 2.083281993865966797e+00 1.595066070556640625e+00
3.054000000000000000e+03 2.162525939941406250e+01 -2.320637226104736328e+00 2.149879932403564453e+00 7.047364711761474609e+00 2.759173393249511719e+00 1.732977151870727539e+00
3.055000000000000000e+03 2.219808006286621094e+01 -2.283015489578247070e+00 1.781610965728759766e+00 9.360814094543457031e+00 3.342727661132812500e+00 -5.482616424560546875e-01
3.056000000000000000e+03 2.279924392700195312e+01 -2.092447042465209961e+00 3.339063882827758789e+00 9.112735748291015625e+00 3.735539913177490234e+00 -3.861388444900512695e+00
3.057000000000000000e+03 2.321438980102539062e+01 -2.257994413375854492e+00 4.088909149169921875e+00 7.077403545379638672e+00 3.349893808364868164e+00 -4.246528148651123047e+00
3.058000000000000000e+03 2.358676528930664062e+01 -5.998113751411437988e-01 7.719847679138183594e+00 2.659418821334838867e+00 3.113780021667480469e+00 -4.173996448516845703e+00
3.059000000000000000e+03 2.340925788879394531e+01 1.394958980381488800e-02 3.331716775894165039e+00 2.601563453674316406e+00 1.779984116554260254e+00 -1.936892628669738770e+00
3.060000000000000000e+03 2.252998733520507812e+01 8.832492828369140625e-01 -5.897805690765380859e-01 1.226732540130615234e+01 3.503263473510742188e+00 -4.375026226043701172e+00
3.061000000000000000e+03 2.200211715698242188e+01 1.183627247810363770e+00 -6.899800896644592285e-02 1.265341567993164062e+01 3.775325059890747070e+00 -6.161357879638671875e+00
3.062000000000000000e+03 2.123498725891113281e+01 1.042802572250366211e+00 1.196209788322448730e+00 9.456927299499511719e+00 3.195941209793090820e+00 -7.013688087463378906e+00
3.063000000000000000e+03 2.056900978088378906e+01 8.095489144325256348e-01 1.570650577545166016e+00 4.837180614471435547e+00 1.922349452972412109e+00 -5.601589679718017578e+00
3.064000000000000000e+03 2.040525627136230469e+01 7.658157944679260254e-01 1.429590582847595215e+00 3.822796583175659180e+00 1.575716137886047363e+00 -5.033962726593017578e+00
3.065000000000000000e+03 2.022165107727050781e+01 7.448366880416870117e-01 1.457963109016418457e+00 3.288770198822021484e+00 1.424020051956176758e+00 -4.493017673492431641e+00
3.066000000000000000e+03 2.005119705200195312e+01 7.508531808853149414e-01 1.195517778396606445e+00 3.267133474349975586e+00 1.338795423507690430e+00 -3.842719793319702148e+00
3.067000000000000000e+03 2.008837127685546875e+01 1.080299496650695801e+00 1.416309952735900879e+00 4.317339897155761719e+00 1.720094919204711914e+00 -3.956857204437255859e+00
3.068000000000000000e+03 1.964189529418945312e+01 8.441995978355407715e-01 9.684045314788818359e-01 2.460879325866699219e+00 1.028785109519958496e+00 -2.945324897766113281e+00
3.069000000000000000e+03 1.895086669921875000e+01 1.250305056571960449e+00 7.514375448226928711e-01 1.651897549629211426e+00 7.210004925727844238e-01 -2.146605253219604492e+00
3.070000000000000000e+03 3.268465423583984375e+01 -1.634778213500976562e+01 -1.689128875732421875e+00 1.825972914695739746e+00 4.105318337678909302e-02 -1.637601375579833984e+00
3.071000000000000000e+03 2.266332054138183594e+01 9.645976424217224121e-01 3.899881541728973389e-01 8.953832626342773438e+00 2.803146123886108398e+00 -4.101066112518310547e+00
3.072000000000000000e+03 2.416118240356445312e+01 -4.631080329418182373e-01 6.110088348388671875e+00 1.016785860061645508e+00 2.138062238693237305e+00 -9.655582308769226074e-01
3.073000000000000000e+03 2.312044525146484375e+01 -2.496350049972534180e+00 3.392784357070922852e+00 6.926950931549072266e+00 3.095920562744140625e+00 -3.397217512130737305e+00
3.074000000000000000e+03 2.372587203979492188e+01 -2.828929722309112549e-01 5.724512100219726562e+00 2.363604754209518433e-01 1.788261771202087402e+00 -1.977525949478149414e+00
3.075000000000000000e+03 2.393694877624511719e+01 -1.020768359303474426e-01 1.284853100776672363e+00 -1.321448564529418945e+00 -1.097864285111427307e-02 -1.637365698814392090e+00
3.076000000000000000e+03 2.079590225219726562e+01 -2.865292072296142578e+00 2.662375688552856445e+00 3.024736166000366211e+00 1.706133604049682617e+00 1.763028383255004883e+00
3.077000000000000000e+03 2.025263404846191406e+01 -3.147936344146728516e+00 2.586923122406005859e+00 1.823967337608337402e+00 1.323267102241516113e+00 1.439380407333374023e+00
3.078000000000000000e+03 2.149499893188476562e+01 -2.937266826629638672e+00 2.109569787979125977e+00 5.331188678741455078e+00 2.232227563858032227e+00 1.259190917015075684e+00
3.079000000000000000e+03 2.184992980957031250e+01 -2.513196945190429688e+00 1.832187652587890625e+00 7.683994293212890625e+00 2.854854583740234375e+00 7.736644744873046875e-01
3.080000000000000000e+03 2.184504890441894531e+01 -2.714917421340942383e+00 1.892565965652465820e+00 6.940262317657470703e+00 2.649848461151123047e+00 6.067240834236145020e-01
3.081000000000000000e+03 2.292677497863769531e+01 -3.389497756958007812e+00 2.357660770416259766e+00 5.790210247039794922e+00 2.444361209869384766e+00 -1.632966399192810059e+00
3.082000000000000000e+03 2.348358917236328125e+01 -2.849845170974731445e+00 3.810348272323608398e+00 5.444900512695312500e+00 2.776574611663818359e+00 -3.439795494079589844e+00
3.083000000000000000e+03 2.293810653686523438e+01 5.230213999748229980e-01 6.899844408035278320e-01 9.878474235534667969e+00 3.170537471771240234e+00 -2.047194004058837891e+00
3.084000000000000000e+03 2.329069519042968750e+01 -3.159932374954223633e+00 3.102366924285888672e+00 5.442861080169677734e+00 2.563568353652954102e+00 -2.568453788757324219e+00
3.085000000000000000e+03 2.043121910095214844e+01 1.123961210250854492e+00 1.325441122055053711e+00 5.744904994964599609e+00 2.121103763580322266e+00 -5.350835800170898438e+00
3.086000000000000000e+03 2.246123313903808594e+01 1.089996933937072754e+00 -2.255506962537765503e-01 1.086565113067626953e+01 3.192030191421508789e+00 -4.776102542877197266e+00
3.087000000000000000e+03 2.237187385559082031e+01 9.653161168098449707e-01 -2.913599312305450439e-01 1.179459953308105469e+01 3.450971841812133789e+00 -4.620656490325927734e+00
3.088000000000000000e+03 2.218228340148925781e+01 1.427587509155273438e+00 3.159291744232177734e-01 1.151345348358154297e+01 3.548814773559570312e+00 -5.446142673492431641e+00
3.089000000000000000e+03 2.294861221313476562e+01 7.819752097129821777e-01 1.046889901161193848e+00 7.405682563781738281e+00 2.535771846771240234e+00 -2.116728782653808594e+00
3.090000000000000000e+03 2.188241195678710938e+01 -3.198982715606689453e+00 1.892708182334899902e+00 5.697532176971435547e+00 2.277072191238403320e+00 4.401631653308868408e-01
3.091000000000000000e+03 2.053619384765625000e+01 -3.284878492355346680e+00 2.488585948944091797e+00 2.441646814346313477e+00 1.479069828987121582e+00 1.498417615890502930e+00
3.092000000000000000e+03 2.107138061523437500e+01 -3.370982170104980469e+00 2.198143005371093750e+00 3.699119567871093750e+00 1.769178748130798340e+00 1.398094415664672852e+00
3.093000000000000000e+03 3.806891250610351562e+01 -2.443325042724609375e+01 1.905438899993896484e+00 8.662060737609863281e+00 3.170249700546264648e+00 3.854435384273529053e-01
3.094000000000000000e+03 2.010200119018554688e+01 1.945543169975280762e+00 2.528095245361328125e+00 6.070902824401855469e+00 2.579699516296386719e+00 -4.494464397430419922e+00
3.095000000000000000e+03 3.631836318969726562e+01 -2.494857788085937500e+01 2.141065359115600586e+00 1.090241241455078125e+01 3.913043260574340820e+00 1.288980126380920410e+00
3.096000000000000000e+03 4.174064636230468750e+01 -2.023286056518554688e+01 4.065654799342155457e-02 8.092445373535156250e+00 2.439930438995361328e+00 -5.875777602195739746e-01
3.097000000000000000e+03 2.081458473205566406e+01 -3.398042440414428711e+00 2.310266494750976562e+00 3.096652984619140625e+00 1.622075796127319336e+00 1.454824924468994141e+00
3.098000000000000000e+03 1.884763908386230469e+01 2.705336809158325195e+00 2.672595739364624023e+00 4.016253471374511719e+00 2.006654739379882812e+00 -3.245207786560058594e+00
3.099000000000000000e+03 7.779720306396484375e+01 -3.583327484130859375e+01 -1.686422079801559448e-01 1.075085735321044922e+01 3.174664497375488281e+00 -2.355530560016632080e-01
3.100000000000000000e+03 2.351720809936523438e+00 3.578234481811523438e+01 -1.045503765344619751e-01 2.530547380447387695e+00 7.277990579605102539e-01 -3.215744793415069580e-01
3.101000000000000000e+03 3.289564514160156250e+01 -1.445647525787353516e+01 9.555231779813766479e-03 2.801977396011352539e+00 8.434597849845886230e-01 -1.306692600250244141e+00
3.102000000000000000e+03 3.131857299804687500e+01 -1.372869110107421875e+01 5.568173527717590332e-01 1.260683536529541016e+00 5.452502965927124023e-01 -9.758549332618713379e-01
3.103000000000000000e+03 4.136404800415039062e+01 -2.114916419982910156e+01 1.878237277269363403e-01 7.546179294586181641e+00 2.320200920104980469e+00 -2.291774153709411621e-01
3.104000000000000000e+03 5.182848739624023438e+01 4.372302055358886719e+00 -6.552795171737670898e-01 4.471057057380676270e-01 -6.245215609669685364e-02 2.898753583431243896e-01
3.105000000000000000e+03 7.051226043701171875e+01 -3.221803665161132812e+01 -1.128571271896362305e+00 8.031806945800781250e+00 2.070970773696899414e+00 -1.282100230455398560e-01
3.106000000000000000e+03 4.104362487792968750e+01 5.175438880920410156e+00 9.288727045059204102e-01 9.949804306030273438e+00 3.263603210449218750e+00 3.155912637710571289e+00
3.107000000000000000e+03 4.304929733276367188e+00 -4.672235965728759766e+00 -6.930135190486907959e-03 9.100200235843658447e-02 2.522156015038490295e-02 -3.152119740843772888e-02
3.108000000000000000e+03 3.346561813354492188e+01 -1.506824588775634766e+01 -3.978396654129028320e-01 3.213023424148559570e+00 8.445551395416259766e-01 -1.500654578208923340e+00
3.109000000000000000e+03 2.549960136413574219e+01 -3.556898498535156250e+01 -5.760024785995483398e-01 4.997811615467071533e-01 -2.286640182137489319e-02 3.394812941551208496e-01
3.110000000000000000e+03 4.428377628326416016e+00 -1.918403816223144531e+01 1.134256005287170410e+00 2.616335391998291016e+00 1.125177383422851562e+00 8.040225505828857422e-01
3.111000000000000000e+03 3.705072021484375000e+01 -2.581728553771972656e+01 1.703587889671325684e+00 9.491097450256347656e+00 3.358405828475952148e+00 6.579909920692443848e-01
3.112000000000000000e+03 1.878453445434570312e+01 -3.694261312484741211e+00 2.167879104614257812e+00 5.306602120399475098e-01 8.095617890357971191e-01 8.965039253234863281e-01
3.113000000000000000e+03 1.845237541198730469e+01 -3.993667602539062500e+00 2.067640304565429688e+00 4.343895018100738525e-01 7.506089210510253906e-01 8.891160488128662109e-01
3.114000000000000000e+03 2.308048057556152344e+01 -4.364991188049316406e+00 2.170473337173461914e+00 4.377509593963623047e+00 1.964394807815551758e+00 -1.076367974281311035e+00
3.115000000000000000e+03 2.399148750305175781e+01 -3.014203786849975586e+00 4.245564937591552734e+00 4.058229446411132812e+00 2.491138219833374023e+00 -3.091000318527221680e+00
3.116000000000000000e+03 4.522512054443359375e+01 5.250696659088134766e+00 5.057997107505798340e-01 4.263888835906982422e+00 1.430906534194946289e+00 2.922915458679199219e+00
3.117000000000000000e+03 3.304553985595703125e+01 -1.364959621429443359e+01 5.667959451675415039e-01 3.034561395645141602e+00 1.080407142639160156e+00 -1.288121223449707031e+00
3.118000000000000000e+03 3.126775741577148438e+01 -1.241515827178955078e+01 1.429910659790039062e+00 1.555834412574768066e+00 8.957235217094421387e-01 -1.029699921607971191e+00
3.119000000000000000e+03 7.721632385253906250e+01 -2.794221496582031250e+01 4.734303057193756104e-02 9.029979705810546875e+00 2.723196744918823242e+00 -1.113844871520996094e+00
3.120000000000000000e+03 7.637377166748046875e+01 -2.842538261413574219e+01 -7.694584876298904419e-02 9.252554893493652344e+00 2.752682685852050781e+00 -1.302942872047424316e+00
3.121000000000000000e+03 3.173424148559570312e+01 -1.304172611236572266e+01 9.542947411537170410e-01 1.718263387680053711e+00 8.017674088478088379e-01 -1.120385527610778809e+00
3.122000000000000000e+03 1.922897720336914062e+01 -4.174457073211669922e+00 2.173900127410888672e+00 9.595939517021179199e-01 9.400482177734375000e-01 1.131617665290832520e+00
3.123000000000000000e+03 2.038017654418945312e+01 -4.386112689971923828e+00 2.064867019653320312e+00 2.205818653106689453e+00 1.281205654144287109e+00 1.259368777275085449e+00
3.124000000000000000e+03 4.040523910522460938e+01 -2.601621437072753906e+01 7.951087951660156250e-01 6.498574256896972656e+00 2.188104867935180664e+00 -7.085999250411987305e-01
3.125000000000000000e+03 4.642896175384521484e+00 -3.200891876220703125e+01 -7.011145949363708496e-01 2.063224315643310547e+00 4.086329042911529541e-01 2.330866307020187378e-01
3.126000000000000000e+03 6.961865997314453125e+01 3.410182952880859375e+01 2.900461480021476746e-02 5.621315479278564453e+00 1.695096015930175781e+00 1.002616658806800842e-01
3.127000000000000000e+03 1.583482646942138672e+01 4.154755115509033203e+00 1.775334715843200684e+00 1.887866854667663574e+00 1.098960518836975098e+00 -1.362574815750122070e+00
3.128000000000000000e+03 1.590320110321044922e+01 4.933755874633789062e+00 2.204507112503051758e+00 2.484943628311157227e+00 1.406835198402404785e+00 -1.779534101486206055e+00
3.129000000000000000e+03 2.475138282775878906e+01 -5.013227939605712891e+00 2.835750341415405273e+00 3.007806539535522461e+00 1.753067016601562500e+00 -1.740246295928955078e+00
3.130000000000000000e+03 8.794777870178222656e+00 -5.491915702819824219e+00 1.877266913652420044e-01 2.820160686969757080e-01 1.409228295087814331e-01 3.851980268955230713e-01
3.131000000000000000e+03 4.287081146240234375e+01 8.377602577209472656e+00 1.923045635223388672e+00 7.920146942138671875e+00 2.952957630157470703e+00 3.345909833908081055e+00
3.132000000000000000e+03 2.709461593627929688e+01 -1.517093849182128906e+01 -1.174700379371643066e+00 1.574444621801376343e-01 -3.051767945289611816e-01 2.104138880968093872e-01
3.133000000000000000e+03 1.959344291687011719e+01 -4.681185722351074219e+00 2.062572479248046875e+00 1.346033930778503418e+00 1.022581934928894043e+00 1.214322209358215332e+00
3.134000000000000000e+03 2.069862747192382812e+01 -4.826447486877441406e+00 1.886766552925109863e+00 2.521165132522583008e+00 1.322379469871520996e+00 1.102631568908691406e+00
3.135000000000000000e+03 1.135421752929687500e+01 -6.154244422912597656e+00 5.145905017852783203e-01 2.306679934263229370e-01 2.235775589942932129e-01 7.492809891700744629e-01
3.136000000000000000e+03 2.753602027893066406e+01 -1.420275878906250000e+01 -5.973244905471801758e-01 1.859176754951477051e-01 -1.234220415353775024e-01 1.023707538843154907e-01
3.137000000000000000e+03 2.427528190612792969e+01 -1.226947593688964844e+01 1.204917058348655701e-01 7.330402731895446777e-01 2.560595870018005371e-01 2.475642412900924683e-01
3.138000000000000000e+03 6.654838562011718750e+01 8.064463734626770020e-02 -1.141561388969421387e+00 5.474635124206542969e+00 1.299922108650207520e+00 -1.204267263412475586e+00
3.139000000000000000e+03 6.791497802734375000e+01 1.324993208982050419e-04 -1.049424290657043457e+00 6.165645122528076172e+00 1.534866213798522949e+00 -9.352256655693054199e-01
3.140000000000000000e+03 7.468188476562500000e+01 -2.141822242736816406e+01 4.431266784667968750e-01 9.670761108398437500e+00 3.034166097640991211e+00 -8.119717240333557129e-01
3.141000000000000000e+03 7.521604919433593750e+01 -1.995179176330566406e+01 3.786336183547973633e-01 9.099681854248046875e+00 2.843494653701782227e+00 -6.979718804359436035e-01
3.142000000000000000e+03 1.056862068176269531e+01 -1.013437938690185547e+01 2.132737040519714355e-01 8.369184136390686035e-01 3.150576353073120117e-01 1.267504096031188965e+00
3.143000000000000000e+03 2.168024063110351562e+01 -5.248669147491455078e+00 1.664270401000976562e+00 3.115026712417602539e+00 1.433789134025573730e+00 4.961214065551757812e-01
3.144000000000000000e+03 1.997485542297363281e+01 -5.134705066680908203e+00 1.896052241325378418e+00 1.703865647315979004e+00 1.079975366592407227e+00 1.182229518890380859e+00
3.145000000000000000e+03 6.253697872161865234e+00 -8.932362556457519531e+00 -1.244868263602256775e-01 7.104103565216064453e-01 1.757770627737045288e-01 2.194110900163650513e-01
3.146000000000000000e+03 2.666110801696777344e+01 -1.095006275177001953e+01 1.184671640396118164e+00 7.986518144607543945e-01 5.949970483779907227e-01 -4.421066045761108398e-01
3.147000000000000000e+03 7.458082580566406250e+01 2.970783805847167969e+01 4.817764833569526672e-02 6.078724861145019531e+00 1.838070750236511230e+00 1.178928767330944538e-03
3.148000000000000000e+03 1.492179012298583984e+01 6.410298824310302734e+00 2.166809082031250000e+00 2.618708848953247070e+00 1.435655355453491211e+00 -1.707108378410339355e+00
3.149000000000000000e+03 7.501575469970703125e+01 -1.631254959106445312e+01 5.239056348800659180e-01 8.835628509521484375e+00 2.807860374450683594e+00 -2.287570238113403320e-01
3.150000000000000000e+03 5.600414657592773438e+01 9.671207427978515625e+00 1.167761921882629395e+00 1.686513066291809082e+00 8.562824726104736328e-01 -1.503742784261703491e-01
3.151000000000000000e+03 7.342219543457031250e+01 -1.172644734382629395e+00 -4.977411925792694092e-01 7.748211860656738281e+00 2.175141096115112305e+00 5.984306335449218750e-02
3.152000000000000000e+03 2.078547477722167969e+01 -5.561350822448730469e+00 1.679699063301086426e+00 2.263802766799926758e+00 1.183050513267517090e+00 9.600951075553894043e-01
3.153000000000000000e+03 3.574748992919921875e+01 -8.542349815368652344e+00 2.501672983169555664e+00 5.792949199676513672e+00 2.488386631011962891e+00 -4.634268581867218018e-01
3.154000000000000000e+03 5.833038330078125000e+01 1.812336158752441406e+01 1.276682019233703613e+00 3.417355298995971680e+00 1.408211231231689453e+00 2.953339815139770508e-01
3.155000000000000000e+03 4.804954147338867188e+01 1.154634952545166016e+01 2.033033370971679688e+00 3.621321439743041992e+00 1.696306467056274414e+00 2.037569999694824219e+00
3.156000000000000000e+03 3.354236221313476562e+01 -9.294766426086425781e+00 2.643647432327270508e+00 3.338593721389770508e+00 1.794672369956970215e+00 -9.916135072708129883e-01
3.157000000000000000e+03 1.306983947753906250e+01 6.287611007690429688e+00 1.569070696830749512e+00 1.374691009521484375e+00 8.831285238265991211e-01 -6.574798822402954102e-01
3.158000000000000000e+03 4.745042800903320312e+01 1.545681667327880859e+01 1.598472952842712402e+00 4.629349708557128906e+00 1.868346691131591797e+00 1.942535400390625000e+00
3.159000000000000000e+03 7.474485015869140625e+01 -1.517447948455810547e+01 6.397643089294433594e-01 9.014647483825683594e+00 2.896323680877685547e+00 3.805738175287842751e-03
3.160000000000000000e+03 6.753177165985107422e+00 2.666510772705078125e+01 -4.658306762576103210e-02 1.634972572326660156e+00 4.765168726444244385e-01 -1.293874979019165039e+00
3.161000000000000000e+03 4.685773086547851562e+01 1.209372806549072266e+01 2.028178215026855469e+00 4.529668807983398438e+00 1.967354059219360352e+00 2.387734174728393555e+00
3.162000000000000000e+03 1.146599197387695312e+01 -6.830203533172607422e+00 5.324521660804748535e-01 2.616817355155944824e-01 2.382401674985885620e-01 8.519445061683654785e-01
3.163000000000000000e+03 1.728300285339355469e+01 -6.758519172668457031e+00 1.426131963729858398e+00 3.902332484722137451e-01 5.449095368385314941e-01 1.191172480583190918e+00
3.164000000000000000e+03 7.470769500732421875e+01 1.163840651512145996e+00 -3.239350020885467529e-01 7.684138774871826172e+00 2.208061218261718750e+00 -6.400036066770553589e-02
3.165000000000000000e+03 7.380148315429687500e+01 1.807935476303100586e+00 -4.249199926853179932e-01 7.481893062591552734e+00 2.117091894149780273e+00 -1.973276138305664062e-01
3.166000000000000000e+03 1.009424686431884766e+01 -8.172558784484863281e+00 2.502448558807373047e-01 5.618864297866821289e-01 2.436393946409225464e-01 8.823689222335815430e-01
3.167000000000000000e+03 2.871374511718750000e+01 -8.085457801818847656e+00 2.757194757461547852e+00 1.059541702270507812e+00 1.145020961761474609e+00 -1.455462336540222168e+00
3.168000000000000000e+03 6.488575935363769531e+00 8.235377311706542969e+00 5.389369130134582520e-01 -1.053175330162048340e-01 1.300858259201049805e-01 5.258219838142395020e-01
3.169000000000000000e+03 5.856776809692382812e+01 8.980051994323730469e+00 8.062253594398498535e-01 2.062646627426147461e+00 8.606615662574768066e-01 -6.692985296249389648e-01
3.170000000000000000e+03 7.420169830322265625e+01 2.794663667678833008e+00 -3.727464079856872559e-01 7.458320617675781250e+00 2.125672101974487305e+00 -2.773988544940948486e-01
3.171000000000000000e+03 1.087787246704101562e+01 6.310679435729980469e+00 1.037381768226623535e+00 5.891749858856201172e-01 4.879670441150665283e-01 1.150103434920310974e-01
3.172000000000000000e+03 2.445670700073242188e+01 -1.105214977264404297e+01 6.404873728752136230e-01 9.537676572799682617e-01 4.782765209674835205e-01 4.373146593570709229e-02
3.173000000000000000e+03 5.958886337280273438e+01 1.891402244567871094e+01 1.141275405883789062e+00 3.638871669769287109e+00 1.434044122695922852e+00 1.909346431493759155e-01
3.174000000000000000e+03 7.406076049804687500e+01 1.904371070861816406e+01 1.517107635736465454e-01 6.164930820465087891e+00 1.894992589950561523e+00 -3.755905032157897949e-01
3.175000000000000000e+03 1.758650398254394531e+01 -7.327493190765380859e+00 1.328806519508361816e+00 4.825991988182067871e-01 5.434216856956481934e-01 1.240233659744262695e+00
3.176000000000000000e+03 1.907713699340820312e+01 -7.030284404754638672e+00 1.431351065635681152e+00 9.953191876411437988e-01 7.280010581016540527e-01 1.177242994308471680e+00
3.177000000000000000e+03 7.554847240447998047e+00 2.522347259521484375e+01 6.428533792495727539e-02 1.770938396453857422e+00 5.505671501159667969e-01 -1.352673888206481934e+00
3.178000000000000000e+03 5.001769638061523438e+01 1.916285514831542969e+01 1.303142905235290527e+00 4.123401165008544922e+00 1.627963185310363770e+00 1.454074025154113770e+00
3.179000000000000000e+03 2.222496414184570312e+01 -6.995818614959716797e+00 1.416664600372314453e+00 2.293901443481445312e+00 1.113169789314270020e+00 2.255563437938690186e-01
3.180000000000000000e+03 7.298241424560546875e+01 2.234791278839111328e+00 -5.569639801979064941e-01 7.259864330291748047e+00 2.010869979858398438e+00 -3.827336430549621582e-01
3.181000000000000000e+03 7.119432830810546875e+01 2.029338264465332031e+01 2.889955937862396240e-01 5.644517421722412109e+00 1.780053853988647461e+00 -3.584996461868286133e-01
3.182000000000000000e+03 1.855946922302246094e+01 -7.348044872283935547e+00 1.359795570373535156e+00 7.807817459106445312e-01 6.421731710433959961e-01 1.227167010307312012e+00
3.183000000000000000e+03 7.356556701660156250e+01 2.148803329467773438e+01 1.608189493417739868e-01 6.041470527648925781e+00 1.860686779022216797e+00 -2.791040241718292236e-01
3.184000000000000000e+03 6.908629894256591797e+00 1.033164596557617188e+01 7.743901014328002930e-01 2.450953125953674316e-01 3.058456182479858398e-01 1.294311732053756714e-01
3.185000000000000000e+03 1.864641952514648438e+01 -7.708915710449218750e+00 1.269357681274414062e+00 7.832206487655639648e-01 6.157734990119934082e-01 1.220226526260375977e+00
3.186000000000000000e+03 7.199903106689453125e+01 1.922082710266113281e+01 2.323846220970153809e-01 5.831077575683593750e+00 1.819038629531860352e+00 -4.221571385860443115e-01
3.187000000000000000e+03 7.445859432220458984e+00 9.256983757019042969e+00 8.318551182746887207e-01 2.627682983875274658e-01 3.283870220184326172e-01 2.439712435007095337e-01
3.188000000000000000e+03 7.165766143798828125e+01 4.242284774780273438e+00 -4.867031872272491455e-01 6.650784969329833984e+00 1.849224567413330078e+00 -6.947187185287475586e-01
3.189000000000000000e+03 2.195171165466308594e+01 -7.296682834625244141e+00 1.328483700752258301e+00 2.077128171920776367e+00 1.021683573722839355e+00 3.970465958118438721e-01
3.190000000000000000e+03 6.698725891113281250e+01 1.053221511840820312e+01 2.198051661252975464e-01 4.719228267669677734e+00 1.481709957122802734e+00 -1.052260875701904297e+00
3.191000000000000000e+03 2.285998344421386719e+01 -9.784523963928222656e+00 8.539275527000427246e-01 1.274914383888244629e+00 6.386525630950927734e-01 2.697538733482360840e-01
3.192000000000000000e+03 6.693813323974609375e+01 1.357535839080810547e+01 4.700587689876556396e-01 4.683340072631835938e+00 1.546019673347473145e+00 -8.127316832542419434e-01
3.193000000000000000e+03 2.281081581115722656e+01 -7.852196216583251953e+00 1.307244181632995605e+00 1.952378392219543457e+00 9.778867959976196289e-01 7.476264238357543945e-02
3.194000000000000000e+03 1.171745300292968750e+01 -1.416588187217712402e+00 2.171263694763183594e-01 -1.422440912574529648e-02 6.087058782577514648e-02 1.011586412787437439e-01
3.195000000000000000e+03 1.027132415771484375e+01 -1.186757922172546387e+00 5.301973968744277954e-02 2.491592662408947945e-03 1.665339991450309753e-02 7.206836342811584473e-02
3.196000000000000000e+03 1.244032764434814453e+01 -1.534988999366760254e+00 3.171828389167785645e-01 -1.645049080252647400e-02 9.021970629692077637e-02 1.113554462790489197e-01
3.197000000000000000e+03 1.253947448730468750e+01 -8.014244437217712402e-01 1.802287846803665161e-01 -7.722620852291584015e-03 5.175185203552246094e-02 2.654665522277355194e-02
3.198000000000000000e+03 1.180517101287841797e+01 -6.811850070953369141e-01 8.067049086093902588e-02 -4.905522800981998444e-03 2.272948995232582092e-02 3.043494559824466705e-02
3.199000000000000000e+03 1.107078933715820312e+01 -5.637502074241638184e-01 3.246143925935029984e-03 -7.249163463711738586e-03 -1.200905884616076946e-03 3.257510438561439514e-02
3.200000000000000000e+03 1.099450206756591797e+01 -1.300992131233215332e+00 1.301260590553283691e-01 -2.986063016578555107e-03 3.814199939370155334e-02 8.570934087038040161e-02
3.201000000000000000e+03 1.033618259429931641e+01 -4.476772546768188477e-01 -5.135044082999229431e-02 2.017968101426959038e-03 -1.479974202811717987e-02 2.877551689743995667e-02
3.202000000000000000e+03 8.742082595825195312e+00 -1.120473504066467285e+00 -4.172839969396591187e-02 1.097403373569250107e-02 -9.226310066878795624e-03 4.750040173530578613e-02
3.203000000000000000e+03 8.746333122253417969e+00 -3.804735541343688965e-01 -1.383771449327468872e-01 5.866560619324445724e-03 -3.975317627191543579e-02 1.377774681895971298e-02
3.204000000000000000e+03 9.561493873596191406e+00 -3.859410583972930908e-01 -9.708297997713088989e-02 8.387863053940236568e-04 -2.887325733900070190e-02 2.138018235564231873e-02
3.205000000000000000e+03 7.114485740661621094e+00 -3.779024183750152588e-01 -1.771910041570663452e-01 6.085715256631374359e-03 -5.133158713579177856e-02 1.725382637232542038e-03
3.206000000000000000e+03 6.299727439880371094e+00 -3.794097900390625000e-01 -1.753039360046386719e-01 -5.170371150597929955e-04 -5.274629220366477966e-02 -3.893238492310047150e-03
3.207000000000000000e+03 5.489702701568603516e+00 -3.881254196166992188e-01 -1.598750650882720947e-01 4.405885469168424606e-03 -4.664075002074241638e-02 -9.345204569399356842e-03
3.208000000000000000e+03 4.698569297790527344e+00 -4.129811227321624756e-01 -1.322532892227172852e-01 1.531089190393686295e-03 -3.921665623784065247e-02 -1.526883058249950409e-02
3.209000000000000000e+03 3.440532445907592773e+00 -7.500789761543273926e-01 -7.113956660032272339e-02 -1.023518736474215984e-03 -2.164892479777336121e-02 -3.595057874917984009e-02
3.210000000000000000e+03 2.252097368240356445e+00 -3.222856521606445312e-01 -4.247315227985382080e-02 -2.125854603946208954e-03 -1.337970141321420670e-02 -7.450028788298368454e-03
3.211000000000000000e+03 1.100975990295410156e+00 -3.932227790355682373e-01 -1.428672857582569122e-02 3.385839954717084765e-05 -4.275861196219921112e-03 -7.120448630303144455e-03
3.212000000000000000e+03 3.918905556201934814e-01 -5.619686841964721680e-01 -1.320356270298361778e-03 -4.460720811039209366e-03 -1.734323101118206978e-03 -2.506673568859696388e-03
3.213000000000000000e+03 6.660780906677246094e-01 -1.133222818374633789e+00 6.564909592270851135e-03 -1.001331303268671036e-02 -1.034521032124757767e-03 -8.991976268589496613e-03
3.214000000000000000e+03 9.520647048950195312e+00 -1.125941038131713867e+00 -3.028829349204897881e-03 1.313823647797107697e-02 3.032822161912918091e-03 5.905697494745254517e-02
3.215000000000000000e+03 7.962842464447021484e+00 -1.118551254272460938e+00 -7.362852245569229126e-02 1.579791493713855743e-02 -1.734918169677257538e-02 2.938809990882873535e-02
3.216000000000000000e+03 7.183426856994628906e+00 -1.117902398109436035e+00 -9.409561008214950562e-02 1.151928305625915527e-02 -2.477289736270904541e-02 1.258661411702632904e-02
3.217000000000000000e+03 6.405264377593994141e+00 -1.119409799575805664e+00 -1.035744175314903259e-01 1.474738027900457382e-02 -2.664811164140701294e-02 -3.563799662515521049e-03
3.218000000000000000e+03 5.631834983825683594e+00 -1.128125429153442383e+00 -1.016919836401939392e-01 9.446591138839721680e-03 -2.767361700534820557e-02 -1.966461725533008575e-02
3.219000000000000000e+03 4.877296924591064453e+00 -1.152981162071228027e+00 -9.432687610387802124e-02 1.094928104430437088e-02 -2.501327916979789734e-02 -2.992637827992439270e-02
3.220000000000000000e+03 4.148907184600830078e+00 -1.206536889076232910e+00 -7.740963250398635864e-02 2.577252453193068504e-03 -2.244971506297588348e-02 -4.010809585452079773e-02
3.221000000000000000e+03 3.423923969268798828e+00 -1.243278861045837402e+00 -6.212161853909492493e-02 4.939393838867545128e-04 -1.848830468952655792e-02 -4.380822554230690002e-02
3.222000000000000000e+03 2.658518552780151367e+00 -1.202569127082824707e+00 -4.245756193995475769e-02 -9.221289306879043579e-03 -1.550365518778562546e-02 -4.390034824609756470e-02
3.223000000000000000e+03 1.911080241203308105e+00 -1.219903111457824707e+00 -3.417826443910598755e-02 -3.582830075174570084e-03 -1.132832840085029602e-02 -3.335761651396751404e-02
3.224000000000000000e+03 1.670154809951782227e+00 -6.811572313308715820e-01 -9.322904981672763824e-03 1.948572898982092738e-04 -2.738414332270622253e-03 -1.739830709993839264e-02
3.225000000000000000e+03 7.930497169494628906e+00 -3.785512745380401611e-01 -1.650366783142089844e-01 -8.859086083248257637e-04 -4.977677762508392334e-02 8.338028565049171448e-03
3.226000000000000000e+03 2.907655954360961914e+00 -2.396233230829238892e-01 -7.258389890193939209e-02 2.819858258590102196e-03 -2.092921175062656403e-02 -7.128222379833459854e-03
3.227000000000000000e+03 1.263929843902587891e+00 -1.220711827278137207e+00 -1.718623377382755280e-02 -1.747590862214565277e-02 -1.039864309132099152e-02 -2.016682364046573639e-02
3.228000000000000000e+03 3.601328611373901367e+00 -2.668000757694244385e-01 -9.537764638662338257e-02 -1.761532621458172798e-03 -2.914175391197204590e-02 -6.602008361369371414e-03
3.229000000000000000e+03 2.778059005737304688e+00 -6.821925044059753418e-01 -4.429290071129798889e-02 -3.811301430687308311e-03 -1.443126052618026733e-02 -2.333243936300277710e-02
3.230000000000000000e+03 4.028421401977539062e+00 -5.955539941787719727e-01 -1.063837110996246338e-01 -3.652590326964855194e-03 -3.301088884472846985e-02 -2.193102985620498657e-02
3.231000000000000000e+03 2.182199478149414062e+01 -6.789292097091674805e-01 1.350803947448730469e+01 5.941384315490722656e+00 5.834827423095703125e+00 8.690269470214843750e+00
3.232000000000000000e+03 2.182789611816406250e+01 -6.974815130233764648e-01 1.067503452301025391e+01 1.594436073303222656e+01 7.985818386077880859e+00 1.477491855621337891e+01
3.233000000000000000e+03 2.183729743957519531e+01 -7.145296335220336914e-01 9.579142570495605469e+00 2.471426010131835938e+01 1.028802108764648438e+01 1.589342975616455078e+01
3.234000000000000000e+03 2.184983825683593750e+01 -7.294211983680725098e-01 7.936642169952392578e+00 3.347933578491210938e+01 1.242479419708251953e+01 1.519568061828613281e+01
3.235000000000000000e+03 2.186503982543945312e+01 -7.415863275527954102e-01 7.005078315734863281e+00 4.138130569458007812e+01 1.451591491699218750e+01 1.264039993286132812e+01
3.236000000000000000e+03 2.188231658935546875e+01 -7.505595088005065918e-01 6.331313133239746094e+00 4.784967803955078125e+01 1.625429725646972656e+01 8.559827804565429688e+00
3.237000000000000000e+03 2.190101051330566406e+01 -7.559972405433654785e-01 6.968082427978515625e+00 5.237743759155273438e+01 1.780365562438964844e+01 3.368471622467041016e+00
3.238000000000000000e+03 2.192040443420410156e+01 -7.576915025711059570e-01 8.694989204406738281e+00 5.437472152709960938e+01 1.892091369628906250e+01 -2.219014406204223633e+00
3.239000000000000000e+03 2.193975830078125000e+01 -7.555774450302124023e-01 1.210291576385498047e+01 5.404843902587890625e+01 1.984540557861328125e+01 -7.485893726348876953e+00
3.240000000000000000e+03 2.195833015441894531e+01 -7.497359514236450195e-01 1.625735473632812500e+01 5.153350830078125000e+01 2.033725929260253906e+01 -1.160807514190673828e+01
3.241000000000000000e+03 2.197540855407714844e+01 -7.403905987739562988e-01 2.130577278137207031e+01 4.770801925659179688e+01 2.070413780212402344e+01 -1.412571144104003906e+01
3.242000000000000000e+03 2.199034118652343750e+01 -7.278990149497985840e-01 2.610812759399414062e+01 4.332795333862304688e+01 2.083082389831542969e+01 -1.485286331176757812e+01
3.243000000000000000e+03 2.200255584716796875e+01 -7.127392888069152832e-01 3.026052284240722656e+01 3.897152328491210938e+01 2.076961326599121094e+01 -1.396932792663574219e+01
3.244000000000000000e+03 2.201158714294433594e+01 -6.954914331436157227e-01 3.361476516723632812e+01 3.601907348632812500e+01 2.089015197753906250e+01 -1.169505310058593750e+01
3.245000000000000000e+03 2.201708602905273438e+01 -6.768156290054321289e-01 3.536219024658203125e+01 3.332534790039062500e+01 2.060626220703125000e+01 -8.623386383056640625e+00
3.246000000000000000e+03 2.201884460449218750e+01 -6.574265360832214355e-01 3.618098449707031250e+01 3.324015426635742188e+01 2.082634162902832031e+01 -5.407173156738281250e+00
3.247000000000000000e+03 2.201679420471191406e+01 -6.380662322044372559e-01 3.532682800292968750e+01 3.377965927124023438e+01 2.073194694519042969e+01 -1.779781222343444824e+00
3.248000000000000000e+03 2.201101303100585938e+01 -6.194754838943481445e-01 3.364787673950195312e+01 3.567530059814453125e+01 2.079695320129394531e+01 7.630950808525085449e-01
3.249000000000000000e+03 2.200172424316406250e+01 -6.023658514022827148e-01 3.087823295593261719e+01 3.953674316406250000e+01 2.112449264526367188e+01 2.675156354904174805e+00
3.250000000000000000e+03 2.198928260803222656e+01 -5.873920321464538574e-01 2.709002113342285156e+01 4.285649490356445312e+01 2.098395538330078125e+01 3.448392152786254883e+00
3.251000000000000000e+03 2.197416305541992188e+01 -5.751270055770874023e-01 2.384086990356445312e+01 4.757609939575195312e+01 2.142509078979492188e+01 2.328795909881591797e+00
3.252000000000000000e+03 2.195694541931152344e+01 -5.660402178764343262e-01 1.979068183898925781e+01 5.094748687744140625e+01 2.122145080566406250e+01 -1.111951097846031189e-02
3.253000000000000000e+03 2.193828773498535156e+01 -5.604793429374694824e-01 1.762001228332519531e+01 5.377483749389648438e+01 2.141845512390136719e+01 -4.002715110778808594e+00
3.254000000000000000e+03 2.191890525817871094e+01 -5.586572289466857910e-01 1.583616828918457031e+01 5.442888259887695312e+01 2.107951545715332031e+01 -8.930923461914062500e+00
3.255000000000000000e+03 2.189953804016113281e+01 -5.606436133384704590e-01 1.633858489990234375e+01 5.320171737670898438e+01 2.086209106445312500e+01 -1.417598152160644531e+01
3.256000000000000000e+03 2.188092803955078125e+01 -5.663624405860900879e-01 1.815554809570312500e+01 4.941294860839843750e+01 2.027054977416992188e+01 -1.918652725219726562e+01
3.257000000000000000e+03 2.186378860473632812e+01 -5.755949020385742188e-01 2.125123214721679688e+01 4.359643554687500000e+01 1.945429992675781250e+01 -2.292460632324218750e+01
3.258000000000000000e+03 2.184877395629882812e+01 -5.879876017570495605e-01 2.571783256530761719e+01 3.606173706054687500e+01 1.853387069702148438e+01 -2.487411689758300781e+01
3.259000000000000000e+03 2.183645820617675781e+01 -6.030663847923278809e-01 2.960577201843261719e+01 2.733394813537597656e+01 1.708191490173339844e+01 -2.476735877990722656e+01
3.260000000000000000e+03 2.182731437683105469e+01 -6.202542185783386230e-01 3.363304519653320312e+01 1.853347969055175781e+01 1.564995765686035156e+01 -2.188199424743652344e+01
3.261000000000000000e+03 2.182169151306152344e+01 -6.388932466506958008e-01 3.559172821044921875e+01 1.021587848663330078e+01 1.374228191375732422e+01 -1.691654205322265625e+01
3.262000000000000000e+03 2.181980705261230469e+01 -6.582702398300170898e-01 3.600497817993164062e+01 2.759612083435058594e+00 1.162937641143798828e+01 -6.520845413208007812e+00
